variable TLJ equal (${T}/1000)
variable TLJ equal (220/1000)
variable NCyle equal 10
variable iStep equal (${f})
variable iStep equal (1000)
variable dumpStep equal (${f}*100)
variable dumpStep equal (1000*100)
variable runStep equal (${f}*100*${NCyle})
variable runStep equal (1000*100*${NCyle})
variable runStep equal (1000*100*10)

units       lj
atom_style  atomic
dimension 3
boundary     p p p
pair_style  lj/cut 2.5
read_data  ../data/T${T}.dat
read_data  ../data/T220.dat
Reading data file ...
  orthogonal box = (0.97250269 0.97250269 0.97250269) to (37.866338 37.866338 37.866338)
  1 by 2 by 2 MPI processor grid
  reading atoms ...
  70304 atoms
  reading velocities ...
  70304 velocities
  read_data CPU = 0.189 seconds
change_box all triclinic
Changing box ...
  triclinic box = (0.97250269 0.97250269 0.97250269) to (37.866338 37.866338 37.866338) with tilt (0 0 0)
mass 1 1
mass 2 1
pair_modify shift yes
pair_coeff  1 1 1 1
pair_coeff  1 2 1.5 0.8
pair_coeff  2 2 0.5 0.88


timestep 0.01
thermo ${iStep}
thermo 1000
reset_timestep 0
thermo_style custom step temp pe etotal press vol lx ly lz
fix             1 all nvt temp ${TLJ}  ${TLJ}  0.1
fix             1 all nvt temp 0.22  ${TLJ}  0.1
fix             1 all nvt temp 0.22  0.22  0.1
thermo_modify flush yes

fix dsf all deform 1 xy  wiggle 0.5  ${f}   units box
fix dsf all deform 1 xy  wiggle 0.5  1000   units box
fix ps1 all ave/time 1 1 ${iStep} c_thermo_press[1] c_thermo_press[2]  c_thermo_press[3] c_thermo_press[4]  c_thermo_press[5] c_thermo_press[6]  file  stress.${T}
fix ps1 all ave/time 1 1 1000 c_thermo_press[1] c_thermo_press[2]  c_thermo_press[3] c_thermo_press[4]  c_thermo_press[5] c_thermo_press[6]  file  stress.${T}
fix ps1 all ave/time 1 1 1000 c_thermo_press[1] c_thermo_press[2]  c_thermo_press[3] c_thermo_press[4]  c_thermo_press[5] c_thermo_press[6]  file  stress.220
dump            1 all custom ${dumpStep} dump.${T} id type x y z
dump            1 all custom 100000 dump.${T} id type x y z
dump            1 all custom 100000 dump.220 id type x y z
dump_modify 1 sort id
fix nodrift all momentum 1  linear 1 1 1
fix com_seed all recenter INIT INIT INIT shift all
run ${runStep}
run 1000000
Generated 0 of 1 mixed pair_coeff terms from geometric mixing rule
Per MPI rank memory allocation (min/avg/max) = 8.611 | 8.613 | 8.616 Mbytes
   Step          Temp          PotEng         TotEng         Press          Volume           Lx             Ly             Lz      
         0   0.22072364    -8.257095      -7.9260142     -0.017765356    50218.233      36.893836      36.893836      36.893836    
      1000   0.22023703    -8.2529555     -7.9226047      0.026970082    50218.233      36.893836      36.893836      36.893836    
      2000   0.21960508    -8.2515712     -7.9221682      0.031757251    50218.233      36.893836      36.893836      36.893836    
      3000   0.22073704    -8.2527447     -7.9216438      0.023216382    50218.233      36.893836      36.893836      36.893836    
      4000   0.22089244    -8.2519499     -7.920616       0.035664578    50218.233      36.893836      36.893836      36.893836    
      5000   0.2199199     -8.252865      -7.9229898      0.019060007    50218.233      36.893836      36.893836      36.893836    
      6000   0.22053871    -8.2525778     -7.9217744      0.028775896    50218.233      36.893836      36.893836      36.893836    
      7000   0.21896895    -8.2538149     -7.9253662      0.0021067039   50218.233      36.893836      36.893836      36.893836    
      8000   0.22007489    -8.2524602     -7.9223526      0.026152288    50218.233      36.893836      36.893836      36.893836    
      9000   0.21907821    -8.2528868     -7.9242741      0.028544602    50218.233      36.893836      36.893836      36.893836    
     10000   0.22035643    -8.2534211     -7.9228912      0.013552127    50218.233      36.893836      36.893836      36.893836    
     11000   0.2186649     -8.2523143     -7.9243216      0.025093803    50218.233      36.893836      36.893836      36.893836    
     12000   0.22051925    -8.2524147     -7.9216406      0.025099481    50218.233      36.893836      36.893836      36.893836    
     13000   0.22121053    -8.2514861     -7.919675       0.031909655    50218.233      36.893836      36.893836      36.893836    
     14000   0.21986373    -8.2498166     -7.9200257      0.045432866    50218.233      36.893836      36.893836      36.893836    
     15000   0.21924377    -8.2523625     -7.9235016      0.026550404    50218.233      36.893836      36.893836      36.893836    
     16000   0.22005577    -8.25399       -7.923911       0.0083178908   50218.233      36.893836      36.893836      36.893836    
     17000   0.22017527    -8.2520826     -7.9218244      0.023965813    50218.233      36.893836      36.893836      36.893836    
     18000   0.22108865    -8.2513366     -7.9197083      0.039316632    50218.233      36.893836      36.893836      36.893836    
     19000   0.21934366    -8.2529074     -7.9238966      0.023631541    50218.233      36.893836      36.893836      36.893836    
     20000   0.22017008    -8.2517087     -7.9214583      0.033344443    50218.233      36.893836      36.893836      36.893836    
     21000   0.21872866    -8.2527599     -7.9246716      0.020171649    50218.233      36.893836      36.893836      36.893836    
     22000   0.21904057    -8.2523954     -7.9238392      0.025586765    50218.233      36.893836      36.893836      36.893836    
     23000   0.2198738     -8.2508797     -7.9210737      0.035481494    50218.233      36.893836      36.893836      36.893836    
     24000   0.21974054    -8.2500334     -7.9204273      0.040761892    50218.233      36.893836      36.893836      36.893836    
     25000   0.22097661    -8.2522994     -7.9208392      0.024535702    50218.233      36.893836      36.893836      36.893836    
     26000   0.22064925    -8.2497396     -7.9187704      0.053533405    50218.233      36.893836      36.893836      36.893836    
     27000   0.21914613    -8.2516112     -7.9228967      0.024105734    50218.233      36.893836      36.893836      36.893836    
     28000   0.21981407    -8.2519504     -7.922234       0.042363032    50218.233      36.893836      36.893836      36.893836    
     29000   0.21934619    -8.2511025     -7.9220879      0.035442456    50218.233      36.893836      36.893836      36.893836    
     30000   0.21925197    -8.2527188     -7.9238455      0.027018434    50218.233      36.893836      36.893836      36.893836    
     31000   0.22032845    -8.2528491     -7.9223611      0.019048456    50218.233      36.893836      36.893836      36.893836    
     32000   0.22071253    -8.2517045     -7.9206405      0.030694381    50218.233      36.893836      36.893836      36.893836    
     33000   0.22073828    -8.2507911     -7.9196884      0.033841294    50218.233      36.893836      36.893836      36.893836    
     34000   0.22002426    -8.2517699     -7.9217382      0.025167481    50218.233      36.893836      36.893836      36.893836    
     35000   0.21995517    -8.2515134     -7.9215853      0.028217941    50218.233      36.893836      36.893836      36.893836    
     36000   0.21990522    -8.2517754     -7.9219222      0.03285679     50218.233      36.893836      36.893836      36.893836    
     37000   0.21951932    -8.2537595     -7.9244852      0.015564572    50218.233      36.893836      36.893836      36.893836    
     38000   0.21937664    -8.2515286     -7.9224683      0.031548388    50218.233      36.893836      36.893836      36.893836    
     39000   0.21943002    -8.2534511     -7.9243108      0.011543933    50218.233      36.893836      36.893836      36.893836    
     40000   0.21829431    -8.2530515     -7.9256147      0.013674722    50218.233      36.893836      36.893836      36.893836    
     41000   0.21831853    -8.2508536     -7.9233805      0.03256628     50218.233      36.893836      36.893836      36.893836    
     42000   0.2202948     -8.2540046     -7.9235671      0.014781517    50218.233      36.893836      36.893836      36.893836    
     43000   0.21886267    -8.2518164     -7.9235271      0.02729469     50218.233      36.893836      36.893836      36.893836    
     44000   0.22111662    -8.2513581     -7.9196879      0.03493909     50218.233      36.893836      36.893836      36.893836    
     45000   0.22031773    -8.2535253     -7.9230534      0.014161454    50218.233      36.893836      36.893836      36.893836    
     46000   0.22009485    -8.2526014     -7.9224638      0.022107178    50218.233      36.893836      36.893836      36.893836    
     47000   0.22137122    -8.2531563     -7.9211042      0.0214294      50218.233      36.893836      36.893836      36.893836    
     48000   0.2209796     -8.2523057     -7.920841       0.027144492    50218.233      36.893836      36.893836      36.893836    
     49000   0.22047554    -8.2534441     -7.9227355      0.017545577    50218.233      36.893836      36.893836      36.893836    
     50000   0.22008519    -8.2528017     -7.9226786      0.018461814    50218.233      36.893836      36.893836      36.893836    
     51000   0.2198427     -8.2541117     -7.9243524      0.0086978737   50218.233      36.893836      36.893836      36.893836    
     52000   0.21952868    -8.2535466     -7.9242583      0.025795587    50218.233      36.893836      36.893836      36.893836    
     53000   0.22069865    -8.2522338     -7.9211906      0.03087404     50218.233      36.893836      36.893836      36.893836    
     54000   0.22079174    -8.2532945     -7.9221116      0.019692142    50218.233      36.893836      36.893836      36.893836    
     55000   0.21957723    -8.2525437     -7.9231826      0.015629579    50218.233      36.893836      36.893836      36.893836    
     56000   0.22021084    -8.2535146     -7.923203       0.012710636    50218.233      36.893836      36.893836      36.893836    
     57000   0.21966775    -8.2529605     -7.9234636      0.019715586    50218.233      36.893836      36.893836      36.893836    
     58000   0.21942624    -8.2516157     -7.922481       0.03001095     50218.233      36.893836      36.893836      36.893836    
     59000   0.22030319    -8.2534109     -7.9229608      0.018688468    50218.233      36.893836      36.893836      36.893836    
     60000   0.2199831     -8.2506776     -7.9207077      0.033888519    50218.233      36.893836      36.893836      36.893836    
     61000   0.21997579    -8.2506545     -7.9206955      0.042193958    50218.233      36.893836      36.893836      36.893836    
     62000   0.22097351    -8.2526747     -7.9212192      0.025601927    50218.233      36.893836      36.893836      36.893836    
     63000   0.21977043    -8.2525556     -7.9229047      0.018735031    50218.233      36.893836      36.893836      36.893836    
     64000   0.21976493    -8.2511508     -7.9215081      0.030745851    50218.233      36.893836      36.893836      36.893836    
     65000   0.22091882    -8.2532163     -7.9218427      0.02819953     50218.233      36.893836      36.893836      36.893836    
     66000   0.22167904    -8.2503146     -7.9178008      0.042623997    50218.233      36.893836      36.893836      36.893836    
     67000   0.22038006    -8.2520554     -7.9214901      0.028877976    50218.233      36.893836      36.893836      36.893836    
     68000   0.22042885    -8.2516563     -7.9210177      0.036051347    50218.233      36.893836      36.893836      36.893836    
     69000   0.21936372    -8.2517391     -7.9226982      0.029347604    50218.233      36.893836      36.893836      36.893836    
     70000   0.220592      -8.2507677     -7.9198844      0.039536974    50218.233      36.893836      36.893836      36.893836    
     71000   0.22017318    -8.2510048     -7.9207498      0.028078883    50218.233      36.893836      36.893836      36.893836    
     72000   0.22062518    -8.252516      -7.9215829      0.025892683    50218.233      36.893836      36.893836      36.893836    
     73000   0.22001724    -8.2510495     -7.9210283      0.034145897    50218.233      36.893836      36.893836      36.893836    
     74000   0.22026493    -8.2527347     -7.922342       0.026817275    50218.233      36.893836      36.893836      36.893836    
     75000   0.22045612    -8.2528719     -7.9221924      0.017060011    50218.233      36.893836      36.893836      36.893836    
     76000   0.22027323    -8.2509022     -7.9204971      0.038672167    50218.233      36.893836      36.893836      36.893836    
     77000   0.22018454    -8.2516358     -7.9213637      0.026738419    50218.233      36.893836      36.893836      36.893836    
     78000   0.21963957    -8.2517705     -7.9223158      0.027584145    50218.233      36.893836      36.893836      36.893836    
     79000   0.21898073    -8.2514951     -7.9230287      0.030675937    50218.233      36.893836      36.893836      36.893836    
     80000   0.21976345    -8.2514716     -7.9218311      0.027310535    50218.233      36.893836      36.893836      36.893836    
     81000   0.22004382    -8.2503561     -7.920295       0.044435467    50218.233      36.893836      36.893836      36.893836    
     82000   0.22037466    -8.2535856     -7.9230284      0.01528618     50218.233      36.893836      36.893836      36.893836    
     83000   0.22052959    -8.252265      -7.9214754      0.016431632    50218.233      36.893836      36.893836      36.893836    
     84000   0.21882811    -8.2525884     -7.9243509      0.016933511    50218.233      36.893836      36.893836      36.893836    
     85000   0.21967407    -8.2521974     -7.922691       0.024083679    50218.233      36.893836      36.893836      36.893836    
     86000   0.21997279    -8.2515422     -7.9215877      0.030489084    50218.233      36.893836      36.893836      36.893836    
     87000   0.22072635    -8.2526721     -7.9215873      0.020436405    50218.233      36.893836      36.893836      36.893836    
     88000   0.21990436    -8.251924      -7.9220721      0.019229693    50218.233      36.893836      36.893836      36.893836    
     89000   0.21938416    -8.2529715     -7.9238999      0.018554109    50218.233      36.893836      36.893836      36.893836    
     90000   0.21832176    -8.2526343     -7.9251563      0.019676377    50218.233      36.893836      36.893836      36.893836    
     91000   0.21992498    -8.2521713     -7.9222885      0.032395952    50218.233      36.893836      36.893836      36.893836    
     92000   0.21952884    -8.2538599     -7.9245713      0.016268649    50218.233      36.893836      36.893836      36.893836    
     93000   0.22089714    -8.2521562     -7.9208152      0.027515145    50218.233      36.893836      36.893836      36.893836    
     94000   0.22041606    -8.2538748     -7.9232554      0.0077305078   50218.233      36.893836      36.893836      36.893836    
     95000   0.2181482     -8.2543688     -7.9271511      0.0013954685   50218.233      36.893836      36.893836      36.893836    
     96000   0.21984411    -8.2519742     -7.9222128      0.028693191    50218.233      36.893836      36.893836      36.893836    
     97000   0.21976097    -8.252471      -7.9228342      0.02129101     50218.233      36.893836      36.893836      36.893836    
     98000   0.2206698     -8.2539832     -7.9229832      0.011484349    50218.233      36.893836      36.893836      36.893836    
     99000   0.2191739     -8.2520381     -7.9232819      0.032043068    50218.233      36.893836      36.893836      36.893836    
    100000   0.22032589    -8.2535568     -7.9230726      0.020424443    50218.233      36.893836      36.893836      36.893836    
    101000   0.22012586    -8.2546755     -7.9244914      0.014791185    50218.233      36.893836      36.893836      36.893836    
    102000   0.22016485    -8.2530662     -7.9228237      0.013277774    50218.233      36.893836      36.893836      36.893836    
    103000   0.2206971     -8.2525683     -7.9215274      0.025952596    50218.233      36.893836      36.893836      36.893836    
    104000   0.22006961    -8.2520048     -7.9219051      0.030697896    50218.233      36.893836      36.893836      36.893836    
    105000   0.21991951    -8.2519866     -7.922112       0.023902315    50218.233      36.893836      36.893836      36.893836    
    106000   0.21917159    -8.2526127     -7.9238599      0.025391603    50218.233      36.893836      36.893836      36.893836    
    107000   0.22026026    -8.2530158     -7.9226301      0.019199145    50218.233      36.893836      36.893836      36.893836    
    108000   0.22018558    -8.253851      -7.9235774      0.018445074    50218.233      36.893836      36.893836      36.893836    
    109000   0.21907709    -8.2534033     -7.9247923      0.013738662    50218.233      36.893836      36.893836      36.893836    
    110000   0.22044217    -8.2536035     -7.922945       0.019466357    50218.233      36.893836      36.893836      36.893836    
    111000   0.22036873    -8.2511906     -7.9206422      0.027185866    50218.233      36.893836      36.893836      36.893836    
    112000   0.21897252    -8.2538225     -7.9253684      0.0077109118   50218.233      36.893836      36.893836      36.893836    
    113000   0.22066664    -8.2520119     -7.9210167      0.026164674    50218.233      36.893836      36.893836      36.893836    
    114000   0.22043628    -8.2515532     -7.9209035      0.040417498    50218.233      36.893836      36.893836      36.893836    
    115000   0.21942338    -8.2536343     -7.9245039      0.017307922    50218.233      36.893836      36.893836      36.893836    
    116000   0.21861005    -8.249594      -7.9216836      0.044983457    50218.233      36.893836      36.893836      36.893836    
    117000   0.21942324    -8.2526985     -7.9235683      0.024450666    50218.233      36.893836      36.893836      36.893836    
    118000   0.21978019    -8.2530511     -7.9233855      0.020160022    50218.233      36.893836      36.893836      36.893836    
    119000   0.22117981    -8.2538406     -7.9220756      0.011721955    50218.233      36.893836      36.893836      36.893836    
    120000   0.21852639    -8.2533802     -7.9255953      0.016428681    50218.233      36.893836      36.893836      36.893836    
    121000   0.21978571    -8.253249      -7.9235751      0.01156838     50218.233      36.893836      36.893836      36.893836    
    122000   0.22038239    -8.2521474     -7.9215785      0.036778221    50218.233      36.893836      36.893836      36.893836    
    123000   0.22048019    -8.2502002     -7.9194846      0.045971325    50218.233      36.893836      36.893836      36.893836    
    124000   0.21857473    -8.2519279     -7.9240704      0.022356406    50218.233      36.893836      36.893836      36.893836    
    125000   0.21964736    -8.2513607     -7.9218944      0.041584998    50218.233      36.893836      36.893836      36.893836    
    126000   0.22128882    -8.2514702     -7.9195417      0.032254915    50218.233      36.893836      36.893836      36.893836    
    127000   0.22036577    -8.25161       -7.9210661      0.030557026    50218.233      36.893836      36.893836      36.893836    
    128000   0.22043469    -8.2527365     -7.9220892      0.02288016     50218.233      36.893836      36.893836      36.893836    
    129000   0.21947242    -8.2510074     -7.9218035      0.028285529    50218.233      36.893836      36.893836      36.893836    
    130000   0.21971249    -8.2524986     -7.9229345      0.018256169    50218.233      36.893836      36.893836      36.893836    
    131000   0.2203839     -8.2519476     -7.9213765      0.024336947    50218.233      36.893836      36.893836      36.893836    
    132000   0.22039743    -8.2512793     -7.9206878      0.037810718    50218.233      36.893836      36.893836      36.893836    
    133000   0.22086286    -8.2529643     -7.9216748      0.025306304    50218.233      36.893836      36.893836      36.893836    
    134000   0.22058625    -8.2526176     -7.9217429      0.021943641    50218.233      36.893836      36.893836      36.893836    
    135000   0.21975565    -8.2516145     -7.9219857      0.02389523     50218.233      36.893836      36.893836      36.893836    
    136000   0.22071977    -8.2528127     -7.9217378      0.02688582     50218.233      36.893836      36.893836      36.893836    
    137000   0.21940648    -8.2524561     -7.923351       0.021984421    50218.233      36.893836      36.893836      36.893836    
    138000   0.22093086    -8.2526        -7.9212084      0.024363303    50218.233      36.893836      36.893836      36.893836    
    139000   0.22013338    -8.2533216     -7.9231263      0.017302218    50218.233      36.893836      36.893836      36.893836    
    140000   0.21919598    -8.2518984     -7.9231091      0.032802241    50218.233      36.893836      36.893836      36.893836    
    141000   0.2200348     -8.2540543     -7.9240068      0.0091057058   50218.233      36.893836      36.893836      36.893836    
    142000   0.21884276    -8.2523899     -7.9241304      0.027268867    50218.233      36.893836      36.893836      36.893836    
    143000   0.21970949    -8.2524241     -7.9228646      0.027779935    50218.233      36.893836      36.893836      36.893836    
    144000   0.22015988    -8.2517452     -7.9215101      0.031022425    50218.233      36.893836      36.893836      36.893836    
    145000   0.22045146    -8.2552372     -7.9245647      0.0048169397   50218.233      36.893836      36.893836      36.893836    
    146000   0.21889948    -8.2529488     -7.9246042      0.026927801    50218.233      36.893836      36.893836      36.893836    
    147000   0.21889257    -8.2530726     -7.9247384      0.023237562    50218.233      36.893836      36.893836      36.893836    
    148000   0.22031634    -8.2520515     -7.9215817      0.032051142    50218.233      36.893836      36.893836      36.893836    
    149000   0.22032739    -8.2522146     -7.9217282      0.026037378    50218.233      36.893836      36.893836      36.893836    
    150000   0.21900705    -8.2524774     -7.9239715      0.014903943    50218.233      36.893836      36.893836      36.893836    
    151000   0.22008134    -8.2551204     -7.9250031      0.0097882593   50218.233      36.893836      36.893836      36.893836    
    152000   0.21952413    -8.2532205     -7.923939       0.021029156    50218.233      36.893836      36.893836      36.893836    
    153000   0.21948328    -8.2528934     -7.9236731      0.027896877    50218.233      36.893836      36.893836      36.893836    
    154000   0.22091721    -8.2527164     -7.9213453      0.015505905    50218.233      36.893836      36.893836      36.893836    
    155000   0.21949182    -8.2511928     -7.9219598      0.033100347    50218.233      36.893836      36.893836      36.893836    
    156000   0.21997272    -8.2535244     -7.92357        0.016065292    50218.233      36.893836      36.893836      36.893836    
    157000   0.21942094    -8.2546702     -7.9255435      0.01654767     50218.233      36.893836      36.893836      36.893836    
    158000   0.2201546     -8.2523638     -7.9221366      0.027027269    50218.233      36.893836      36.893836      36.893836    
    159000   0.2200052     -8.2522331     -7.92223        0.027019193    50218.233      36.893836      36.893836      36.893836    
    160000   0.22001204    -8.2536955     -7.9236822      0.016655496    50218.233      36.893836      36.893836      36.893836    
    161000   0.2199509     -8.2527104     -7.9227888      0.027045904    50218.233      36.893836      36.893836      36.893836    
    162000   0.2211919     -8.2530819     -7.9212988      0.02282837     50218.233      36.893836      36.893836      36.893836    
    163000   0.21917515    -8.2518394     -7.9230814      0.028227521    50218.233      36.893836      36.893836      36.893836    
    164000   0.21965086    -8.2536666     -7.924195       0.018483361    50218.233      36.893836      36.893836      36.893836    
    165000   0.22019835    -8.2523148     -7.922022       0.023274405    50218.233      36.893836      36.893836      36.893836    
    166000   0.21890702    -8.2510953     -7.9227395      0.028703543    50218.233      36.893836      36.893836      36.893836    
    167000   0.22045559    -8.2517913     -7.9211127      0.030489693    50218.233      36.893836      36.893836      36.893836    
    168000   0.22107178    -8.251608      -7.920005       0.029701186    50218.233      36.893836      36.893836      36.893836    
    169000   0.21952135    -8.2520701     -7.9227928      0.022534684    50218.233      36.893836      36.893836      36.893836    
    170000   0.22033974    -8.2503738     -7.9198689      0.03808353     50218.233      36.893836      36.893836      36.893836    
    171000   0.22100596    -8.2522271     -7.9207229      0.028251871    50218.233      36.893836      36.893836      36.893836    
    172000   0.22073336    -8.2521879     -7.9210925      0.02856767     50218.233      36.893836      36.893836      36.893836    
    173000   0.22025796    -8.2515742     -7.921192       0.028288191    50218.233      36.893836      36.893836      36.893836    
    174000   0.22032391    -8.2517668     -7.9212857      0.027581869    50218.233      36.893836      36.893836      36.893836    
    175000   0.21921211    -8.2505621     -7.9217486      0.040073179    50218.233      36.893836      36.893836      36.893836    
    176000   0.2198191     -8.2518205     -7.9220966      0.02997919     50218.233      36.893836      36.893836      36.893836    
    177000   0.21983788    -8.2533419     -7.9235898      0.023854615    50218.233      36.893836      36.893836      36.893836    
    178000   0.21865332    -8.2534141     -7.9254388      0.015833009    50218.233      36.893836      36.893836      36.893836    
    179000   0.2191846     -8.2520084     -7.9232361      0.026636943    50218.233      36.893836      36.893836      36.893836    
    180000   0.21971409    -8.2535375     -7.923971       0.016184454    50218.233      36.893836      36.893836      36.893836    
    181000   0.22031426    -8.2522694     -7.9218027      0.022538773    50218.233      36.893836      36.893836      36.893836    
    182000   0.21961495    -8.2508363     -7.9214186      0.03237665     50218.233      36.893836      36.893836      36.893836    
    183000   0.2218856     -8.2528514     -7.9200277      0.028775586    50218.233      36.893836      36.893836      36.893836    
    184000   0.2191647     -8.2523658     -7.9236234      0.027045466    50218.233      36.893836      36.893836      36.893836    
    185000   0.22087958    -8.2541819     -7.9228673      0.013795949    50218.233      36.893836      36.893836      36.893836    
    186000   0.21910709    -8.2510732     -7.9224172      0.03468609     50218.233      36.893836      36.893836      36.893836    
    187000   0.22023476    -8.2518751     -7.9215276      0.030883988    50218.233      36.893836      36.893836      36.893836    
    188000   0.22043919    -8.2526223     -7.9219682      0.02137532     50218.233      36.893836      36.893836      36.893836    
    189000   0.22075526    -8.2537509     -7.9226227      0.019206223    50218.233      36.893836      36.893836      36.893836    
    190000   0.21913221    -8.2517691     -7.9230754      0.025040752    50218.233      36.893836      36.893836      36.893836    
    191000   0.22111763    -8.2535437     -7.921872       0.027503928    50218.233      36.893836      36.893836      36.893836    
    192000   0.22062232    -8.2535586     -7.9226299      0.015396285    50218.233      36.893836      36.893836      36.893836    
    193000   0.22019058    -8.2524461     -7.922165       0.015852222    50218.233      36.893836      36.893836      36.893836    
    194000   0.22045681    -8.255101      -7.9244205      0.0051922156   50218.233      36.893836      36.893836      36.893836    
    195000   0.2210138     -8.2535917     -7.9220757      0.017779872    50218.233      36.893836      36.893836      36.893836    
    196000   0.21939872    -8.2524493     -7.9233559      0.018357647    50218.233      36.893836      36.893836      36.893836    
    197000   0.21968782    -8.2522398     -7.9227127      0.02305796     50218.233      36.893836      36.893836      36.893836    
    198000   0.2201386     -8.2545847     -7.9243815      0.01212643     50218.233      36.893836      36.893836      36.893836    
    199000   0.21894835    -8.2523236     -7.9239057      0.021356301    50218.233      36.893836      36.893836      36.893836    
    200000   0.21985994    -8.2541298     -7.9243446      0.013164958    50218.233      36.893836      36.893836      36.893836    
    201000   0.22045502    -8.2531689     -7.922491       0.017900833    50218.233      36.893836      36.893836      36.893836    
    202000   0.22045377    -8.2528998     -7.9222238      0.012920362    50218.233      36.893836      36.893836      36.893836    
    203000   0.21806589    -8.2531458     -7.9260517      0.016592407    50218.233      36.893836      36.893836      36.893836    
    204000   0.21861851    -8.2533758     -7.9254527      0.011022638    50218.233      36.893836      36.893836      36.893836    
    205000   0.22028632    -8.25165       -7.9212253      0.030497697    50218.233      36.893836      36.893836      36.893836    
    206000   0.21968999    -8.254091      -7.9245607      0.0080046636   50218.233      36.893836      36.893836      36.893836    
    207000   0.2200833     -8.2518764     -7.9217562      0.023581195    50218.233      36.893836      36.893836      36.893836    
    208000   0.21928427    -8.2552544     -7.9263326     -0.0010252879   50218.233      36.893836      36.893836      36.893836    
    209000   0.22016318    -8.2521113     -7.9218712      0.023953259    50218.233      36.893836      36.893836      36.893836    
    210000   0.22022437    -8.2521877     -7.9218559      0.027564835    50218.233      36.893836      36.893836      36.893836    
    211000   0.22037613    -8.2528622     -7.9223027      0.024114099    50218.233      36.893836      36.893836      36.893836    
    212000   0.21972921    -8.2523178     -7.9227287      0.021140357    50218.233      36.893836      36.893836      36.893836    
    213000   0.21954204    -8.2523365     -7.9230282      0.024085899    50218.233      36.893836      36.893836      36.893836    
    214000   0.22116742    -8.2522895     -7.9205431      0.027066947    50218.233      36.893836      36.893836      36.893836    
    215000   0.21984106    -8.2509195     -7.9211626      0.037972305    50218.233      36.893836      36.893836      36.893836    
    216000   0.21975327    -8.2532156     -7.9235904      0.018899926    50218.233      36.893836      36.893836      36.893836    
    217000   0.22020194    -8.2535955     -7.9232973      0.013340616    50218.233      36.893836      36.893836      36.893836    
    218000   0.22005978    -8.2517864     -7.9217014      0.027700752    50218.233      36.893836      36.893836      36.893836    
    219000   0.21959317    -8.2511406     -7.9217555      0.034814313    50218.233      36.893836      36.893836      36.893836    
    220000   0.21945724    -8.2517832     -7.922602       0.032646823    50218.233      36.893836      36.893836      36.893836    
    221000   0.21986458    -8.2519776     -7.9221855      0.029057915    50218.233      36.893836      36.893836      36.893836    
    222000   0.21901214    -8.2523748     -7.9238612      0.028254337    50218.233      36.893836      36.893836      36.893836    
    223000   0.21943894    -8.2532834     -7.9241297      0.014144791    50218.233      36.893836      36.893836      36.893836    
    224000   0.21971353    -8.2520024     -7.9224368      0.020633089    50218.233      36.893836      36.893836      36.893836    
    225000   0.21971986    -8.2504886     -7.9209135      0.046533669    50218.233      36.893836      36.893836      36.893836    
    226000   0.21898851    -8.2507487     -7.9222706      0.030886107    50218.233      36.893836      36.893836      36.893836    
    227000   0.21933833    -8.2509181     -7.9219153      0.030830224    50218.233      36.893836      36.893836      36.893836    
    228000   0.22069192    -8.2500051     -7.9189719      0.046270511    50218.233      36.893836      36.893836      36.893836    
    229000   0.22067395    -8.2506963     -7.9196901      0.038827788    50218.233      36.893836      36.893836      36.893836    
    230000   0.21935086    -8.2525176     -7.923496       0.020619582    50218.233      36.893836      36.893836      36.893836    
    231000   0.2187538     -8.2525764     -7.9244504      0.015852726    50218.233      36.893836      36.893836      36.893836    
    232000   0.21934124    -8.2497287     -7.9207215      0.041456945    50218.233      36.893836      36.893836      36.893836    
    233000   0.22000569    -8.2507287     -7.9207249      0.02819827     50218.233      36.893836      36.893836      36.893836    
    234000   0.21925145    -8.2520921     -7.9232196      0.025072505    50218.233      36.893836      36.893836      36.893836    
    235000   0.21986759    -8.2524296     -7.922633       0.025732591    50218.233      36.893836      36.893836      36.893836    
    236000   0.21977755    -8.2536316     -7.92397        0.014365697    50218.233      36.893836      36.893836      36.893836    
    237000   0.21956304    -8.2537059     -7.924366       0.011730715    50218.233      36.893836      36.893836      36.893836    
    238000   0.2194366     -8.2530537     -7.9239034      0.014067035    50218.233      36.893836      36.893836      36.893836    
    239000   0.22283237    -8.251924      -7.9176802      0.025123273    50218.233      36.893836      36.893836      36.893836    
    240000   0.21909245    -8.2527846     -7.9241506      0.021340707    50218.233      36.893836      36.893836      36.893836    
    241000   0.21964952    -8.2506313     -7.9211618      0.037580371    50218.233      36.893836      36.893836      36.893836    
    242000   0.21918399    -8.2523734     -7.9236021      0.02464513     50218.233      36.893836      36.893836      36.893836    
    243000   0.22085772    -8.2525733     -7.9212914      0.019737771    50218.233      36.893836      36.893836      36.893836    
    244000   0.22094976    -8.2496596     -7.9182397      0.047309214    50218.233      36.893836      36.893836      36.893836    
    245000   0.22072058    -8.2513655     -7.9202894      0.034076413    50218.233      36.893836      36.893836      36.893836    
    246000   0.2203607     -8.2543507     -7.9238144      0.011645422    50218.233      36.893836      36.893836      36.893836    
    247000   0.21871085    -8.2537256     -7.925664       0.012321413    50218.233      36.893836      36.893836      36.893836    
    248000   0.21971509    -8.2536745     -7.9241065      0.023654216    50218.233      36.893836      36.893836      36.893836    
    249000   0.21795277    -8.2512406     -7.9243161      0.025221397    50218.233      36.893836      36.893836      36.893836    
    250000   0.21919091    -8.2542325     -7.9254508      0.0099705563   50218.233      36.893836      36.893836      36.893836    
    251000   0.21991038    -8.2547132     -7.9248523     -0.0022867921   50218.233      36.893836      36.893836      36.893836    
    252000   0.22033862    -8.2521374     -7.9216342      0.027903785    50218.233      36.893836      36.893836      36.893836    
    253000   0.21973262    -8.2544478     -7.9248536      0.0167752      50218.233      36.893836      36.893836      36.893836    
    254000   0.21968185    -8.2534174     -7.9238993      0.015981147    50218.233      36.893836      36.893836      36.893836    
    255000   0.22079014    -8.2526459     -7.9214654      0.02142868     50218.233      36.893836      36.893836      36.893836    
    256000   0.21911873    -8.2512901     -7.9226167      0.034456973    50218.233      36.893836      36.893836      36.893836    
    257000   0.22003372    -8.2544792     -7.9244333      0.011408462    50218.233      36.893836      36.893836      36.893836    
    258000   0.22077374    -8.2522911     -7.9211352      0.024015783    50218.233      36.893836      36.893836      36.893836    
    259000   0.21960208    -8.2520385     -7.9226401      0.029431061    50218.233      36.893836      36.893836      36.893836    
    260000   0.22071673    -8.2549935     -7.9239231      0.0064842376   50218.233      36.893836      36.893836      36.893836    
    261000   0.21970188    -8.2524997     -7.9229516      0.022168469    50218.233      36.893836      36.893836      36.893836    
    262000   0.21944459    -8.251655      -7.9224928      0.033946984    50218.233      36.893836      36.893836      36.893836    
    263000   0.22111801    -8.2513841     -7.9197118      0.031263296    50218.233      36.893836      36.893836      36.893836    
    264000   0.21995755    -8.2544183     -7.9244867      0.015232585    50218.233      36.893836      36.893836      36.893836    
    265000   0.22000605    -8.25188       -7.9218756      0.028785648    50218.233      36.893836      36.893836      36.893836    
    266000   0.21987855    -8.2538214     -7.9240083      0.012378819    50218.233      36.893836      36.893836      36.893836    
    267000   0.22108015    -8.2537496     -7.9221341      0.010276493    50218.233      36.893836      36.893836      36.893836    
    268000   0.218776      -8.2529589     -7.9247996      0.013759532    50218.233      36.893836      36.893836      36.893836    
    269000   0.22049802    -8.2522365     -7.9214942      0.029672194    50218.233      36.893836      36.893836      36.893836    
    270000   0.22023087    -8.2519963     -7.9216547      0.02552922     50218.233      36.893836      36.893836      36.893836    
    271000   0.22079668    -8.251419      -7.9202287      0.035990724    50218.233      36.893836      36.893836      36.893836    
    272000   0.22053718    -8.2517448     -7.9209437      0.026967033    50218.233      36.893836      36.893836      36.893836    
    273000   0.22005098    -8.2508266     -7.9207548      0.03904786     50218.233      36.893836      36.893836      36.893836    
    274000   0.22010282    -8.2512318     -7.9210823      0.035205513    50218.233      36.893836      36.893836      36.893836    
    275000   0.21999875    -8.251411      -7.9214175      0.031853778    50218.233      36.893836      36.893836      36.893836    
    276000   0.21954316    -8.2508703     -7.9215603      0.034955992    50218.233      36.893836      36.893836      36.893836    
    277000   0.22048985    -8.2517474     -7.9210173      0.036329876    50218.233      36.893836      36.893836      36.893836    
    278000   0.22012164    -8.252856      -7.9226783      0.030562747    50218.233      36.893836      36.893836      36.893836    
    279000   0.22047028    -8.2529976     -7.9222969      0.020123883    50218.233      36.893836      36.893836      36.893836    
    280000   0.21959888    -8.2527011     -7.9233075      0.021744418    50218.233      36.893836      36.893836      36.893836    
    281000   0.22091752    -8.2508459     -7.9194744      0.037045065    50218.233      36.893836      36.893836      36.893836    
    282000   0.21961135    -8.2536848     -7.9242724      0.012343744    50218.233      36.893836      36.893836      36.893836    
    283000   0.2209721     -8.2532442     -7.9217907      0.019824956    50218.233      36.893836      36.893836      36.893836    
    284000   0.21960805    -8.25304       -7.9236326      0.023973263    50218.233      36.893836      36.893836      36.893836    
    285000   0.21979073    -8.251151      -7.9214696      0.026548262    50218.233      36.893836      36.893836      36.893836    
    286000   0.22147567    -8.2513374     -7.9191286      0.033687694    50218.233      36.893836      36.893836      36.893836    
    287000   0.21960302    -8.2522032     -7.9228034      0.027410689    50218.233      36.893836      36.893836      36.893836    
    288000   0.22036562    -8.253436      -7.9228922      0.017266862    50218.233      36.893836      36.893836      36.893836    
    289000   0.21979405    -8.2525875     -7.9229011      0.016138952    50218.233      36.893836      36.893836      36.893836    
    290000   0.21962775    -8.2536255     -7.9241886      0.014401963    50218.233      36.893836      36.893836      36.893836    
    291000   0.22001236    -8.2534067     -7.9233929      0.010238058    50218.233      36.893836      36.893836      36.893836    
    292000   0.2201484     -8.253211      -7.9229931      0.023640118    50218.233      36.893836      36.893836      36.893836    
    293000   0.22001296    -8.2533263     -7.9233116      0.01112394     50218.233      36.893836      36.893836      36.893836    
    294000   0.22041144    -8.2550709     -7.9244584      0.0029258409   50218.233      36.893836      36.893836      36.893836    
    295000   0.2206208     -8.2539364     -7.9230099      0.010271514    50218.233      36.893836      36.893836      36.893836    
    296000   0.21981269    -8.2526373     -7.9229229      0.027275765    50218.233      36.893836      36.893836      36.893836    
    297000   0.22236346    -8.2532461     -7.9197056      0.012811932    50218.233      36.893836      36.893836      36.893836    
    298000   0.21980996    -8.2541255     -7.9244153      0.017363797    50218.233      36.893836      36.893836      36.893836    
    299000   0.22001543    -8.2536512     -7.9236327      0.016753879    50218.233      36.893836      36.893836      36.893836    
    300000   0.21995849    -8.2541706     -7.9242376      0.013388588    50218.233      36.893836      36.893836      36.893836    
    301000   0.21992642    -8.2524467     -7.9225618      0.030165056    50218.233      36.893836      36.893836      36.893836    
    302000   0.21991591    -8.2514493     -7.9215801      0.027967084    50218.233      36.893836      36.893836      36.893836    
    303000   0.22010811    -8.2532363     -7.9230789      0.022010011    50218.233      36.893836      36.893836      36.893836    
    304000   0.2209911     -8.2525534     -7.9210715      0.020586494    50218.233      36.893836      36.893836      36.893836    
    305000   0.22035194    -8.2507606     -7.9202374      0.040042177    50218.233      36.893836      36.893836      36.893836    
    306000   0.22049587    -8.2525699     -7.9218308      0.025527306    50218.233      36.893836      36.893836      36.893836    
    307000   0.22049536    -8.252197      -7.9214587      0.033328242    50218.233      36.893836      36.893836      36.893836    
    308000   0.22003649    -8.2503715     -7.9203215      0.039456648    50218.233      36.893836      36.893836      36.893836    
    309000   0.2196946     -8.2516917     -7.9221544      0.029193238    50218.233      36.893836      36.893836      36.893836    
    310000   0.21974018    -8.2526897     -7.9230841      0.020289551    50218.233      36.893836      36.893836      36.893836    
    311000   0.22107       -8.2523237     -7.9207234      0.024919565    50218.233      36.893836      36.893836      36.893836    
    312000   0.21962701    -8.2510149     -7.9215791      0.034692405    50218.233      36.893836      36.893836      36.893836    
    313000   0.21884016    -8.2514848     -7.9232292      0.032658536    50218.233      36.893836      36.893836      36.893836    
    314000   0.22004752    -8.2533442     -7.9232776      0.020310673    50218.233      36.893836      36.893836      36.893836    
    315000   0.22060345    -8.2513591     -7.9204586      0.034403256    50218.233      36.893836      36.893836      36.893836    
    316000   0.22034749    -8.2503935     -7.9198769      0.038455499    50218.233      36.893836      36.893836      36.893836    
    317000   0.21871485    -8.2513769     -7.9233093      0.028467946    50218.233      36.893836      36.893836      36.893836    
    318000   0.2195944     -8.251964      -7.9225771      0.020672522    50218.233      36.893836      36.893836      36.893836    
    319000   0.22007751    -8.2510591     -7.9209476      0.039233917    50218.233      36.893836      36.893836      36.893836    
    320000   0.22023446    -8.2522288     -7.9218818      0.02614342     50218.233      36.893836      36.893836      36.893836    
    321000   0.22041679    -8.2501056     -7.9194851      0.046522945    50218.233      36.893836      36.893836      36.893836    
    322000   0.22066394    -8.2521436     -7.9211524      0.026232436    50218.233      36.893836      36.893836      36.893836    
    323000   0.22006579    -8.2533369     -7.9232429      0.022207709    50218.233      36.893836      36.893836      36.893836    
    324000   0.21995205    -8.252664      -7.9227406      0.032168568    50218.233      36.893836      36.893836      36.893836    
    325000   0.2219308     -8.2503323     -7.9174408      0.040507984    50218.233      36.893836      36.893836      36.893836    
    326000   0.21947159    -8.2526681     -7.9234654      0.02570157     50218.233      36.893836      36.893836      36.893836    
    327000   0.22100565    -8.2522955     -7.9207918      0.022636114    50218.233      36.893836      36.893836      36.893836    
    328000   0.21904562    -8.2520586     -7.9234948      0.030986807    50218.233      36.893836      36.893836      36.893836    
    329000   0.21872022    -8.2521829     -7.9241073      0.026258277    50218.233      36.893836      36.893836      36.893836    
    330000   0.22045742    -8.2523818     -7.9217004      0.022376226    50218.233      36.893836      36.893836      36.893836    
    331000   0.22078183    -8.2525539     -7.9213859      0.029678223    50218.233      36.893836      36.893836      36.893836    
    332000   0.22096947    -8.2516222     -7.9201727      0.034581156    50218.233      36.893836      36.893836      36.893836    
    333000   0.2198469     -8.2508999     -7.9211342      0.032993942    50218.233      36.893836      36.893836      36.893836    
    334000   0.21983099    -8.2537043     -7.9239625      0.012401043    50218.233      36.893836      36.893836      36.893836    
    335000   0.22027542    -8.2527826     -7.9223741      0.021596669    50218.233      36.893836      36.893836      36.893836    
    336000   0.22099721    -8.2515292     -7.9200381      0.032067748    50218.233      36.893836      36.893836      36.893836    
    337000   0.21955768    -8.2537773     -7.9244455      0.01233663     50218.233      36.893836      36.893836      36.893836    
    338000   0.21970113    -8.2531712     -7.9236242      0.019153577    50218.233      36.893836      36.893836      36.893836    
    339000   0.22056803    -8.2532385     -7.9223912      0.01924675     50218.233      36.893836      36.893836      36.893836    
    340000   0.21986323    -8.253166      -7.9233758      0.018914536    50218.233      36.893836      36.893836      36.893836    
    341000   0.21961852    -8.2522825     -7.9228594      0.026679911    50218.233      36.893836      36.893836      36.893836    
    342000   0.21941094    -8.253226      -7.9241143      0.015521951    50218.233      36.893836      36.893836      36.893836    
    343000   0.22080955    -8.2519203     -7.9207107      0.032581448    50218.233      36.893836      36.893836      36.893836    
    344000   0.22073579    -8.2535521     -7.9224531      0.010069932    50218.233      36.893836      36.893836      36.893836    
    345000   0.2190249     -8.2529285     -7.9243958      0.014339596    50218.233      36.893836      36.893836      36.893836    
    346000   0.21833503    -8.2529613     -7.9254634      0.017325669    50218.233      36.893836      36.893836      36.893836    
    347000   0.21869529    -8.2531229     -7.9250846      0.015662302    50218.233      36.893836      36.893836      36.893836    
    348000   0.22113302    -8.255381      -7.9236862      0.0048878056   50218.233      36.893836      36.893836      36.893836    
    349000   0.22029966    -8.2524154     -7.9219706      0.017830061    50218.233      36.893836      36.893836      36.893836    
    350000   0.21903088    -8.2538585     -7.9253168      0.0084990788   50218.233      36.893836      36.893836      36.893836    
    351000   0.21901949    -8.2532677     -7.9247432      0.016059412    50218.233      36.893836      36.893836      36.893836    
    352000   0.22074402    -8.2542511     -7.9231398      0.016943819    50218.233      36.893836      36.893836      36.893836    
    353000   0.21974871    -8.2530496     -7.9234312      0.023387637    50218.233      36.893836      36.893836      36.893836    
    354000   0.21976803    -8.2526531     -7.9230057      0.026076308    50218.233      36.893836      36.893836      36.893836    
    355000   0.22132303    -8.2540193     -7.9220395      0.013936477    50218.233      36.893836      36.893836      36.893836    
    356000   0.22089753    -8.2523311     -7.9209895      0.022917281    50218.233      36.893836      36.893836      36.893836    
    357000   0.2192754     -8.25189       -7.9229815      0.020687727    50218.233      36.893836      36.893836      36.893836    
    358000   0.22059346    -8.2538931     -7.9230077      0.0080255647   50218.233      36.893836      36.893836      36.893836    
    359000   0.2195772     -8.2530065     -7.9236454      0.015871558    50218.233      36.893836      36.893836      36.893836    
    360000   0.21999018    -8.253886      -7.9239054      0.010164008    50218.233      36.893836      36.893836      36.893836    
    361000   0.22017523    -8.254691      -7.9244329      0.013009979    50218.233      36.893836      36.893836      36.893836    
    362000   0.21944381    -8.2537369     -7.9245759      0.014030577    50218.233      36.893836      36.893836      36.893836    
    363000   0.22057432    -8.2534487     -7.9225919      0.018948238    50218.233      36.893836      36.893836      36.893836    
    364000   0.2202198     -8.2529115     -7.9225865      0.026253953    50218.233      36.893836      36.893836      36.893836    
    365000   0.22012012    -8.253437      -7.9232615      0.011575886    50218.233      36.893836      36.893836      36.893836    
    366000   0.21952171    -8.252727      -7.9234491      0.021248048    50218.233      36.893836      36.893836      36.893836    
    367000   0.22100567    -8.2524322     -7.9209284      0.030498962    50218.233      36.893836      36.893836      36.893836    
    368000   0.22093307    -8.2529023     -7.9215074      0.013415882    50218.233      36.893836      36.893836      36.893836    
    369000   0.21995944    -8.2515528     -7.9216184      0.031205003    50218.233      36.893836      36.893836      36.893836    
    370000   0.22037709    -8.2533114     -7.9227505      0.015276846    50218.233      36.893836      36.893836      36.893836    
    371000   0.22122553    -8.2531083     -7.9212747      0.015011337    50218.233      36.893836      36.893836      36.893836    
    372000   0.21890127    -8.2519406     -7.9235933      0.036741055    50218.233      36.893836      36.893836      36.893836    
    373000   0.22130621    -8.250949      -7.9189945      0.044306497    50218.233      36.893836      36.893836      36.893836    
    374000   0.21891467    -8.2512103     -7.922843       0.028988554    50218.233      36.893836      36.893836      36.893836    
    375000   0.21891843    -8.2526761     -7.9243031      0.018291556    50218.233      36.893836      36.893836      36.893836    
    376000   0.22099156    -8.2523411     -7.9208585      0.028057822    50218.233      36.893836      36.893836      36.893836    
    377000   0.21925602    -8.2528415     -7.9239621      0.016623684    50218.233      36.893836      36.893836      36.893836    
    378000   0.22044955    -8.2512554     -7.9205858      0.033272081    50218.233      36.893836      36.893836      36.893836    
    379000   0.22044637    -8.2521401     -7.9214752      0.029370684    50218.233      36.893836      36.893836      36.893836    
    380000   0.21981753    -8.2513688     -7.9216473      0.036446782    50218.233      36.893836      36.893836      36.893836    
    381000   0.22012004    -8.2508645     -7.9206891      0.038727505    50218.233      36.893836      36.893836      36.893836    
    382000   0.22150352    -8.2502064     -7.9179558      0.04545252     50218.233      36.893836      36.893836      36.893836    
    383000   0.21930716    -8.2526158     -7.9236598      0.027464536    50218.233      36.893836      36.893836      36.893836    
    384000   0.22040649    -8.2501595     -7.9195544      0.045265985    50218.233      36.893836      36.893836      36.893836    
    385000   0.22068006    -8.2540029     -7.9229875      0.010937458    50218.233      36.893836      36.893836      36.893836    
    386000   0.22075356    -8.2545771     -7.9234515      0.011721261    50218.233      36.893836      36.893836      36.893836    
    387000   0.21959246    -8.2525726     -7.9231886      0.022214053    50218.233      36.893836      36.893836      36.893836    
    388000   0.22001631    -8.2529009     -7.9228812      0.018768665    50218.233      36.893836      36.893836      36.893836    
    389000   0.22003141    -8.2524616     -7.9224192      0.025545085    50218.233      36.893836      36.893836      36.893836    
    390000   0.22017663    -8.2526917     -7.9224315      0.020539972    50218.233      36.893836      36.893836      36.893836    
    391000   0.22026003    -8.2529621     -7.9225767      0.02233672     50218.233      36.893836      36.893836      36.893836    
    392000   0.21975064    -8.2517909     -7.9221696      0.03547687     50218.233      36.893836      36.893836      36.893836    
    393000   0.21975845    -8.2510663     -7.9214333      0.033071546    50218.233      36.893836      36.893836      36.893836    
    394000   0.22096978    -8.2536068     -7.9221569      0.018306013    50218.233      36.893836      36.893836      36.893836    
    395000   0.21857698    -8.2539246     -7.9260638      0.011830574    50218.233      36.893836      36.893836      36.893836    
    396000   0.21956345    -8.2515547     -7.9222142      0.027507759    50218.233      36.893836      36.893836      36.893836    
    397000   0.21930096    -8.2528363     -7.9238895      0.027566609    50218.233      36.893836      36.893836      36.893836    
    398000   0.21981231    -8.2531662     -7.9234525      0.023825311    50218.233      36.893836      36.893836      36.893836    
    399000   0.22001855    -8.2536094     -7.9235863      0.013401164    50218.233      36.893836      36.893836      36.893836    
    400000   0.21866768    -8.2534184     -7.9254216      0.014258552    50218.233      36.893836      36.893836      36.893836    
    401000   0.21998617    -8.2531719     -7.9231974      0.0093138186   50218.233      36.893836      36.893836      36.893836    
    402000   0.21939151    -8.2558086     -7.926726       0.00023399728  50218.233      36.893836      36.893836      36.893836    
    403000   0.21942057    -8.2519706     -7.9228444      0.03144704     50218.233      36.893836      36.893836      36.893836    
    404000   0.21986691    -8.2530774     -7.9232817      0.02090437     50218.233      36.893836      36.893836      36.893836    
    405000   0.2194155     -8.2539985     -7.92488        0.0096006532   50218.233      36.893836      36.893836      36.893836    
    406000   0.22061483    -8.2535886     -7.9226711      0.01702699     50218.233      36.893836      36.893836      36.893836    
    407000   0.21978733    -8.2540202     -7.9243439      0.0076143172   50218.233      36.893836      36.893836      36.893836    
    408000   0.219648      -8.2516784     -7.9222111      0.021734252    50218.233      36.893836      36.893836      36.893836    
    409000   0.2193095     -8.253228      -7.9242684      0.019106856    50218.233      36.893836      36.893836      36.893836    
    410000   0.22037805    -8.2539446     -7.9233823      0.014958184    50218.233      36.893836      36.893836      36.893836    
    411000   0.21986353    -8.2519768     -7.9221862      0.03036069     50218.233      36.893836      36.893836      36.893836    
    412000   0.22128128    -8.2535451     -7.9216279      0.016703384    50218.233      36.893836      36.893836      36.893836    
    413000   0.2203555     -8.2512277     -7.9206991      0.03311674     50218.233      36.893836      36.893836      36.893836    
    414000   0.21983455    -8.2511427     -7.9213956      0.035454144    50218.233      36.893836      36.893836      36.893836    
    415000   0.218476      -8.2540052     -7.9262959      0.011907073    50218.233      36.893836      36.893836      36.893836    
    416000   0.21979658    -8.252971      -7.9232808      0.015844836    50218.233      36.893836      36.893836      36.893836    
    417000   0.21839517    -8.2535805     -7.9259924      0.0093010294   50218.233      36.893836      36.893836      36.893836    
    418000   0.22042507    -8.2495483     -7.9189154      0.038862812    50218.233      36.893836      36.893836      36.893836    
    419000   0.22125587    -8.2540519     -7.9221728      0.017566598    50218.233      36.893836      36.893836      36.893836    
    420000   0.22012153    -8.2526797     -7.9225021      0.026818396    50218.233      36.893836      36.893836      36.893836    
    421000   0.21980181    -8.2520784     -7.9223804      0.02981931     50218.233      36.893836      36.893836      36.893836    
    422000   0.21888698    -8.2528926     -7.9245668      0.01693724     50218.233      36.893836      36.893836      36.893836    
    423000   0.22032982    -8.2531109     -7.9226209      0.019369178    50218.233      36.893836      36.893836      36.893836    
    424000   0.22057671    -8.2513457     -7.9204854      0.031379972    50218.233      36.893836      36.893836      36.893836    
    425000   0.22054874    -8.2522275     -7.9214091      0.027322363    50218.233      36.893836      36.893836      36.893836    
    426000   0.22102561    -8.2522811     -7.9207474      0.023724715    50218.233      36.893836      36.893836      36.893836    
    427000   0.21966315    -8.2523053     -7.9228153      0.02908286     50218.233      36.893836      36.893836      36.893836    
    428000   0.21981253    -8.2532341     -7.92352        0.018363601    50218.233      36.893836      36.893836      36.893836    
    429000   0.2194461     -8.2520432     -7.9228787      0.028443872    50218.233      36.893836      36.893836      36.893836    
    430000   0.22029722    -8.2520371     -7.9215959      0.031602759    50218.233      36.893836      36.893836      36.893836    
    431000   0.22029669    -8.2514613     -7.921021       0.026735233    50218.233      36.893836      36.893836      36.893836    
    432000   0.22063437    -8.2509145     -7.9199677      0.03659444     50218.233      36.893836      36.893836      36.893836    
    433000   0.22009924    -8.2524506     -7.9223065      0.024308194    50218.233      36.893836      36.893836      36.893836    
    434000   0.22037113    -8.2522314     -7.9216794      0.022721102    50218.233      36.893836      36.893836      36.893836    
    435000   0.22012838    -8.2524335     -7.9222456      0.024481875    50218.233      36.893836      36.893836      36.893836    
    436000   0.22041648    -8.2519788     -7.9213588      0.026751418    50218.233      36.893836      36.893836      36.893836    
    437000   0.21907301    -8.2531121     -7.9245073      0.01308758     50218.233      36.893836      36.893836      36.893836    
    438000   0.21899951    -8.2527734     -7.9242788      0.020277776    50218.233      36.893836      36.893836      36.893836    
    439000   0.22053191    -8.2518718     -7.9210786      0.027341276    50218.233      36.893836      36.893836      36.893836    
    440000   0.21954317    -8.2509301     -7.92162        0.035293748    50218.233      36.893836      36.893836      36.893836    
    441000   0.22034616    -8.2523721     -7.9218575      0.020567839    50218.233      36.893836      36.893836      36.893836    
    442000   0.22072049    -8.2513031     -7.9202271      0.026956059    50218.233      36.893836      36.893836      36.893836    
    443000   0.220985      -8.2515294     -7.9200566      0.02962965     50218.233      36.893836      36.893836      36.893836    
    444000   0.21929511    -8.2538322     -7.9248942      0.014705773    50218.233      36.893836      36.893836      36.893836    
    445000   0.2201905     -8.2530122     -7.9227312      0.018780932    50218.233      36.893836      36.893836      36.893836    
    446000   0.21974731    -8.2536914     -7.9240751      0.013034201    50218.233      36.893836      36.893836      36.893836    
    447000   0.2201483     -8.2550094     -7.9247917      0.0069845847   50218.233      36.893836      36.893836      36.893836    
    448000   0.22075081    -8.2539534     -7.9228319      0.012213563    50218.233      36.893836      36.893836      36.893836    
    449000   0.22004074    -8.2533328     -7.9232764      0.0098206906   50218.233      36.893836      36.893836      36.893836    
    450000   0.22109668    -8.2539926     -7.9223523      0.015751709    50218.233      36.893836      36.893836      36.893836    
    451000   0.22005967    -8.2541777     -7.9240929      0.011410129    50218.233      36.893836      36.893836      36.893836    
    452000   0.21919562    -8.2529581     -7.9241694      0.012955695    50218.233      36.893836      36.893836      36.893836    
    453000   0.21978527    -8.2517998     -7.9221266      0.029845354    50218.233      36.893836      36.893836      36.893836    
    454000   0.21868851    -8.2521399     -7.9241118      0.031159449    50218.233      36.893836      36.893836      36.893836    
    455000   0.22041773    -8.2531807     -7.9225588      0.024761193    50218.233      36.893836      36.893836      36.893836    
    456000   0.22020363    -8.2526866     -7.9223859      0.02183716     50218.233      36.893836      36.893836      36.893836    
    457000   0.21873802    -8.2526842     -7.9245819      0.021305955    50218.233      36.893836      36.893836      36.893836    
    458000   0.21976052    -8.2521056     -7.9224695      0.037503852    50218.233      36.893836      36.893836      36.893836    
    459000   0.22109297    -8.2514789     -7.9198441      0.033752053    50218.233      36.893836      36.893836      36.893836    
    460000   0.2195264     -8.2523606     -7.9230757      0.027366383    50218.233      36.893836      36.893836      36.893836    
    461000   0.22082523    -8.2531998     -7.9219667      0.016995571    50218.233      36.893836      36.893836      36.893836    
    462000   0.22064149    -8.2526258     -7.9216683      0.020396819    50218.233      36.893836      36.893836      36.893836    
    463000   0.22131194    -8.2509049     -7.9189417      0.033597333    50218.233      36.893836      36.893836      36.893836    
    464000   0.21930453    -8.2516316     -7.9226795      0.026039392    50218.233      36.893836      36.893836      36.893836    
    465000   0.22066711    -8.2511765     -7.9201805      0.039005979    50218.233      36.893836      36.893836      36.893836    
    466000   0.2200315     -8.2520713     -7.9220288      0.026629489    50218.233      36.893836      36.893836      36.893836    
    467000   0.21998828    -8.2520596     -7.9220818      0.036048623    50218.233      36.893836      36.893836      36.893836    
    468000   0.21937196    -8.2510989     -7.9220457      0.034299743    50218.233      36.893836      36.893836      36.893836    
    469000   0.22011447    -8.2536393     -7.9234722      0.016417434    50218.233      36.893836      36.893836      36.893836    
    470000   0.21872562    -8.252092      -7.9240082      0.025589176    50218.233      36.893836      36.893836      36.893836    
    471000   0.21936478    -8.2520947     -7.9230522      0.025884559    50218.233      36.893836      36.893836      36.893836    
    472000   0.22088094    -8.252486      -7.9211693      0.021298445    50218.233      36.893836      36.893836      36.893836    
    473000   0.21880314    -8.2508563     -7.9226562      0.030853559    50218.233      36.893836      36.893836      36.893836    
    474000   0.21954557    -8.2517496     -7.922436       0.03057883     50218.233      36.893836      36.893836      36.893836    
    475000   0.22113365    -8.2498772     -7.9181815      0.042997298    50218.233      36.893836      36.893836      36.893836    
    476000   0.22049146    -8.2525217     -7.9217892      0.029622754    50218.233      36.893836      36.893836      36.893836    
    477000   0.22032427    -8.2527496     -7.922268       0.023107878    50218.233      36.893836      36.893836      36.893836    
    478000   0.21997205    -8.2504259     -7.9204725      0.041120025    50218.233      36.893836      36.893836      36.893836    
    479000   0.21895037    -8.2517628     -7.9233419      0.030077742    50218.233      36.893836      36.893836      36.893836    
    480000   0.21978808    -8.2521091     -7.9224317      0.02218559     50218.233      36.893836      36.893836      36.893836    
    481000   0.22085896    -8.2538238     -7.92254        0.016785069    50218.233      36.893836      36.893836      36.893836    
    482000   0.2201782     -8.2515882     -7.9213256      0.025592452    50218.233      36.893836      36.893836      36.893836    
    483000   0.22038299    -8.2517993     -7.9212296      0.028907501    50218.233      36.893836      36.893836      36.893836    
    484000   0.22065413    -8.25075       -7.9197735      0.036356169    50218.233      36.893836      36.893836      36.893836    
    485000   0.21933719    -8.2534744     -7.9244732      0.012498867    50218.233      36.893836      36.893836      36.893836    
    486000   0.22203837    -8.2530649     -7.920012       0.025395213    50218.233      36.893836      36.893836      36.893836    
    487000   0.21996653    -8.2534194     -7.9234743      0.015951809    50218.233      36.893836      36.893836      36.893836    
    488000   0.21855607    -8.2520205     -7.9241911      0.024940858    50218.233      36.893836      36.893836      36.893836    
    489000   0.21975001    -8.2520428     -7.9224225      0.023860014    50218.233      36.893836      36.893836      36.893836    
    490000   0.21892079    -8.2535465     -7.92517        0.019079859    50218.233      36.893836      36.893836      36.893836    
    491000   0.2189089     -8.2513999     -7.9230413      0.027193926    50218.233      36.893836      36.893836      36.893836    
    492000   0.22044531    -8.2539902     -7.923327       0.013048867    50218.233      36.893836      36.893836      36.893836    
    493000   0.21977667    -8.2531531     -7.9234928      0.014429781    50218.233      36.893836      36.893836      36.893836    
    494000   0.22024574    -8.2519845     -7.9216206      0.028577974    50218.233      36.893836      36.893836      36.893836    
    495000   0.21983247    -8.2523908     -7.9226467      0.025183924    50218.233      36.893836      36.893836      36.893836    
    496000   0.21910153    -8.2538885     -7.9252409      0.0056189902   50218.233      36.893836      36.893836      36.893836    
    497000   0.22093464    -8.2519128     -7.9205155      0.023647231    50218.233      36.893836      36.893836      36.893836    
    498000   0.22068766    -8.2528897     -7.921863       0.021265703    50218.233      36.893836      36.893836      36.893836    
    499000   0.22075799    -8.2547361     -7.9236039      0.0050889025   50218.233      36.893836      36.893836      36.893836    
    500000   0.22091329    -8.2529765     -7.9216113      0.024850963    50218.233      36.893836      36.893836      36.893836    
    501000   0.2201366     -8.2545025     -7.9243023      0.011219612    50218.233      36.893836      36.893836      36.893836    
    502000   0.21907206    -8.2525179     -7.9239144      0.030810193    50218.233      36.893836      36.893836      36.893836    
    503000   0.21911497    -8.2542524     -7.9255846      0.01071381     50218.233      36.893836      36.893836      36.893836    
    504000   0.21940858    -8.254624      -7.9255158      0.00075115211  50218.233      36.893836      36.893836      36.893836    
    505000   0.21950027    -8.2543059     -7.9250602      0.0034635257   50218.233      36.893836      36.893836      36.893836    
    506000   0.2201817     -8.2541104     -7.9238425      0.01268163     50218.233      36.893836      36.893836      36.893836    
    507000   0.21921109    -8.2519475     -7.9231356      0.025783284    50218.233      36.893836      36.893836      36.893836    
    508000   0.21952543    -8.2536361     -7.9243526      0.017163111    50218.233      36.893836      36.893836      36.893836    
    509000   0.219322      -8.2530854     -7.9241071      0.021673871    50218.233      36.893836      36.893836      36.893836    
    510000   0.22017454    -8.2528638     -7.9226067      0.025071628    50218.233      36.893836      36.893836      36.893836    
    511000   0.21979676    -8.2520748     -7.9223844      0.021582252    50218.233      36.893836      36.893836      36.893836    
    512000   0.22018073    -8.2537036     -7.9234372      0.023706947    50218.233      36.893836      36.893836      36.893836    
    513000   0.2203756     -8.2513777     -7.920819       0.036934891    50218.233      36.893836      36.893836      36.893836    
    514000   0.22065149    -8.2527717     -7.9217991      0.017130096    50218.233      36.893836      36.893836      36.893836    
    515000   0.21930426    -8.2515605     -7.9226088      0.02771646     50218.233      36.893836      36.893836      36.893836    
    516000   0.22025717    -8.2513312     -7.9209501      0.035884801    50218.233      36.893836      36.893836      36.893836    
    517000   0.22047786    -8.2521864     -7.9214743      0.031326755    50218.233      36.893836      36.893836      36.893836    
    518000   0.22123378    -8.2513815     -7.9195356      0.034535333    50218.233      36.893836      36.893836      36.893836    
    519000   0.22029646    -8.2505921     -7.9201521      0.034219125    50218.233      36.893836      36.893836      36.893836    
    520000   0.21914045    -8.2515652     -7.9228592      0.024561127    50218.233      36.893836      36.893836      36.893836    
    521000   0.21988551    -8.2514858     -7.9216623      0.036848093    50218.233      36.893836      36.893836      36.893836    
    522000   0.22186652    -8.2536395     -7.9208445      0.0196887      50218.233      36.893836      36.893836      36.893836    
    523000   0.2205998     -8.2517959     -7.9209009      0.022425408    50218.233      36.893836      36.893836      36.893836    
    524000   0.21988564    -8.2515627     -7.9217389      0.035582698    50218.233      36.893836      36.893836      36.893836    
    525000   0.22015748    -8.2517748     -7.9215433      0.029895864    50218.233      36.893836      36.893836      36.893836    
    526000   0.21992962    -8.2517671     -7.9218773      0.02535394     50218.233      36.893836      36.893836      36.893836    
    527000   0.22067149    -8.2519477     -7.9209451      0.028765001    50218.233      36.893836      36.893836      36.893836    
    528000   0.22048703    -8.2512481     -7.9205222      0.040435951    50218.233      36.893836      36.893836      36.893836    
    529000   0.22005215    -8.2508598     -7.9207863      0.030868054    50218.233      36.893836      36.893836      36.893836    
    530000   0.2206575     -8.2521182     -7.9211366      0.025657797    50218.233      36.893836      36.893836      36.893836    
    531000   0.22012717    -8.2528094     -7.9226233      0.026382774    50218.233      36.893836      36.893836      36.893836    
    532000   0.22034661    -8.2536734     -7.9231582      0.019043502    50218.233      36.893836      36.893836      36.893836    
    533000   0.22041806    -8.2525531     -7.9219307      0.019991633    50218.233      36.893836      36.893836      36.893836    
    534000   0.21932427    -8.2512298     -7.9222481      0.035105759    50218.233      36.893836      36.893836      36.893836    
    535000   0.2197504     -8.2513676     -7.9217467      0.036110463    50218.233      36.893836      36.893836      36.893836    
    536000   0.22030017    -8.2510732     -7.9206276      0.034804163    50218.233      36.893836      36.893836      36.893836    
    537000   0.22004349    -8.2518002     -7.9217397      0.026438455    50218.233      36.893836      36.893836      36.893836    
    538000   0.2198768     -8.2526777     -7.9228672      0.016292654    50218.233      36.893836      36.893836      36.893836    
    539000   0.21907537    -8.2534137     -7.9248054      0.013317454    50218.233      36.893836      36.893836      36.893836    
    540000   0.2214707     -8.251581      -7.9193796      0.037585961    50218.233      36.893836      36.893836      36.893836    
    541000   0.2197799     -8.2527778     -7.9231127      0.019282366    50218.233      36.893836      36.893836      36.893836    
    542000   0.22086617    -8.252754      -7.9214595      0.018509272    50218.233      36.893836      36.893836      36.893836    
    543000   0.22082962    -8.2526459     -7.9214062      0.023892858    50218.233      36.893836      36.893836      36.893836    
    544000   0.21995634    -8.253327      -7.9233972      0.01843369     50218.233      36.893836      36.893836      36.893836    
    545000   0.22025781    -8.2540631     -7.923681       0.010202535    50218.233      36.893836      36.893836      36.893836    
    546000   0.22020068    -8.2527823     -7.922486       0.022301668    50218.233      36.893836      36.893836      36.893836    
    547000   0.21925962    -8.2519565     -7.9230718      0.023112392    50218.233      36.893836      36.893836      36.893836    
    548000   0.21894394    -8.253818      -7.9254068      0.01710448     50218.233      36.893836      36.893836      36.893836    
    549000   0.21934051    -8.2535236     -7.9245175      0.0085011705   50218.233      36.893836      36.893836      36.893836    
    550000   0.22051209    -8.25369       -7.9229266      0.0086981653   50218.233      36.893836      36.893836      36.893836    
    551000   0.22015048    -8.2533185     -7.9230974      0.021053016    50218.233      36.893836      36.893836      36.893836    
    552000   0.22095517    -8.2527682     -7.9213401      0.02098369     50218.233      36.893836      36.893836      36.893836    
    553000   0.21959509    -8.253795      -7.9244071      0.010426128    50218.233      36.893836      36.893836      36.893836    
    554000   0.21894778    -8.2514186     -7.9230016      0.026805836    50218.233      36.893836      36.893836      36.893836    
    555000   0.21994586    -8.2525194     -7.9226053      0.021628605    50218.233      36.893836      36.893836      36.893836    
    556000   0.21921576    -8.2536499     -7.924831       0.0080718157   50218.233      36.893836      36.893836      36.893836    
    557000   0.22017481    -8.2533241     -7.9230666      0.020701281    50218.233      36.893836      36.893836      36.893836    
    558000   0.21987649    -8.2532189     -7.9234088      0.0096950633   50218.233      36.893836      36.893836      36.893836    
    559000   0.21980073    -8.2530363     -7.9233399      0.019676314    50218.233      36.893836      36.893836      36.893836    
    560000   0.21998678    -8.2522758     -7.9223003      0.020889018    50218.233      36.893836      36.893836      36.893836    
    561000   0.21973364    -8.2510828     -7.9214871      0.037319319    50218.233      36.893836      36.893836      36.893836    
    562000   0.2203294     -8.2519007     -7.9214113      0.028518337    50218.233      36.893836      36.893836      36.893836    
    563000   0.22155952    -8.2527559     -7.9204213      0.027103189    50218.233      36.893836      36.893836      36.893836    
    564000   0.22040698    -8.2519972     -7.9213915      0.030189462    50218.233      36.893836      36.893836      36.893836    
    565000   0.2177359     -8.2531593     -7.9265601      0.013228926    50218.233      36.893836      36.893836      36.893836    
    566000   0.21896162    -8.2534546     -7.9250168      0.012198537    50218.233      36.893836      36.893836      36.893836    
    567000   0.21926052    -8.2514095     -7.9225234      0.033356717    50218.233      36.893836      36.893836      36.893836    
    568000   0.21987315    -8.2539942     -7.9241892      0.010255931    50218.233      36.893836      36.893836      36.893836    
    569000   0.2213091     -8.2501426     -7.9181837      0.047170311    50218.233      36.893836      36.893836      36.893836    
    570000   0.22074291    -8.2530503     -7.9219406      0.016742098    50218.233      36.893836      36.893836      36.893836    
    571000   0.22117794    -8.2520927     -7.9203305      0.029464178    50218.233      36.893836      36.893836      36.893836    
    572000   0.21923297    -8.2534371     -7.9245923      0.017487758    50218.233      36.893836      36.893836      36.893836    
    573000   0.21902461    -8.2508379     -7.9223057      0.036186543    50218.233      36.893836      36.893836      36.893836    
    574000   0.2194849     -8.2514622     -7.9222396      0.031500045    50218.233      36.893836      36.893836      36.893836    
    575000   0.22125962    -8.2524264     -7.9205417      0.026220724    50218.233      36.893836      36.893836      36.893836    
    576000   0.21983073    -8.2530145     -7.9232731      0.022105484    50218.233      36.893836      36.893836      36.893836    
    577000   0.21986585    -8.2508846     -7.9210905      0.035182985    50218.233      36.893836      36.893836      36.893836    
    578000   0.22008247    -8.2523423     -7.9222233      0.022157284    50218.233      36.893836      36.893836      36.893836    
    579000   0.22006135    -8.2503215     -7.9202342      0.040515066    50218.233      36.893836      36.893836      36.893836    
    580000   0.2202592     -8.2512507     -7.9208666      0.030027182    50218.233      36.893836      36.893836      36.893836    
    581000   0.21996336    -8.2516987     -7.9217584      0.028209918    50218.233      36.893836      36.893836      36.893836    
    582000   0.22023897    -8.2523396     -7.9219858      0.028743545    50218.233      36.893836      36.893836      36.893836    
    583000   0.22030351    -8.2528063     -7.9223557      0.01620057     50218.233      36.893836      36.893836      36.893836    
    584000   0.22041704    -8.2513391     -7.9207182      0.030615729    50218.233      36.893836      36.893836      36.893836    
    585000   0.220484      -8.253172      -7.9224507      0.027941801    50218.233      36.893836      36.893836      36.893836    
    586000   0.21999565    -8.253103      -7.9231143      0.010693615    50218.233      36.893836      36.893836      36.893836    
    587000   0.21916704    -8.2543413     -7.9255955      0.0097382774   50218.233      36.893836      36.893836      36.893836    
    588000   0.21976381    -8.2525087     -7.9228677      0.025543564    50218.233      36.893836      36.893836      36.893836    
    589000   0.21873117    -8.2538618     -7.9257697      0.011496665    50218.233      36.893836      36.893836      36.893836    
    590000   0.21974487    -8.2525037     -7.9228911      0.020910868    50218.233      36.893836      36.893836      36.893836    
    591000   0.22070727    -8.2537494     -7.9226932      0.013028686    50218.233      36.893836      36.893836      36.893836    
    592000   0.21950639    -8.2549228     -7.9256679     -0.0019389556   50218.233      36.893836      36.893836      36.893836    
    593000   0.21962587    -8.2536221     -7.924188       0.01313408     50218.233      36.893836      36.893836      36.893836    
    594000   0.21930906    -8.2526465     -7.9236876      0.025177014    50218.233      36.893836      36.893836      36.893836    
    595000   0.22021402    -8.2538568     -7.9235404      0.0066124431   50218.233      36.893836      36.893836      36.893836    
    596000   0.22037021    -8.2519585     -7.9214079      0.028144287    50218.233      36.893836      36.893836      36.893836    
    597000   0.22033697    -8.251985      -7.9214842      0.020488029    50218.233      36.893836      36.893836      36.893836    
    598000   0.22053464    -8.253622      -7.9228247      0.021587701    50218.233      36.893836      36.893836      36.893836    
    599000   0.22052992    -8.2519795     -7.9211893      0.030065657    50218.233      36.893836      36.893836      36.893836    
    600000   0.21975054    -8.2538541     -7.924233       0.013447107    50218.233      36.893836      36.893836      36.893836    
    601000   0.22005994    -8.2529066     -7.9228214      0.01757817     50218.233      36.893836      36.893836      36.893836    
    602000   0.21876086    -8.2542408     -7.9261042      0.00078246214  50218.233      36.893836      36.893836      36.893836    
    603000   0.22063954    -8.2544439     -7.9234893      0.00054998995  50218.233      36.893836      36.893836      36.893836    
    604000   0.22005178    -8.2524892     -7.9224162      0.027262953    50218.233      36.893836      36.893836      36.893836    
    605000   0.21985323    -8.2525486     -7.9227735      0.024350798    50218.233      36.893836      36.893836      36.893836    
    606000   0.22087459    -8.2538675     -7.9225603      0.011162449    50218.233      36.893836      36.893836      36.893836    
    607000   0.2190685     -8.2531506     -7.9245525      0.023109686    50218.233      36.893836      36.893836      36.893836    
    608000   0.22105666    -8.2532064     -7.9216261      0.01824945     50218.233      36.893836      36.893836      36.893836    
    609000   0.22053333    -8.2527181     -7.9219228      0.025121382    50218.233      36.893836      36.893836      36.893836    
    610000   0.21978548    -8.2530633     -7.9233898      0.014570129    50218.233      36.893836      36.893836      36.893836    
    611000   0.21881057    -8.252239      -7.9240278      0.030196423    50218.233      36.893836      36.893836      36.893836    
    612000   0.21983184    -8.252802      -7.923059       0.01551675     50218.233      36.893836      36.893836      36.893836    
    613000   0.22041637    -8.250698      -7.9200781      0.042498683    50218.233      36.893836      36.893836      36.893836    
    614000   0.22020763    -8.2496923     -7.9193856      0.03983898     50218.233      36.893836      36.893836      36.893836    
    615000   0.21967495    -8.2505915     -7.9210838      0.038489529    50218.233      36.893836      36.893836      36.893836    
    616000   0.22013075    -8.2496067     -7.9194152      0.046519503    50218.233      36.893836      36.893836      36.893836    
    617000   0.22039105    -8.2512087     -7.9206269      0.03056008     50218.233      36.893836      36.893836      36.893836    
    618000   0.21907292    -8.2517774     -7.9231727      0.021047363    50218.233      36.893836      36.893836      36.893836    
    619000   0.22072579    -8.2527422     -7.9216582      0.028163526    50218.233      36.893836      36.893836      36.893836    
    620000   0.22080339    -8.2527706     -7.9215702      0.026606257    50218.233      36.893836      36.893836      36.893836    
    621000   0.22036736    -8.2515036     -7.9209573      0.026431796    50218.233      36.893836      36.893836      36.893836    
    622000   0.21867327    -8.2523991     -7.9243939      0.026003037    50218.233      36.893836      36.893836      36.893836    
    623000   0.21937968    -8.251279      -7.9222142      0.03589921     50218.233      36.893836      36.893836      36.893836    
    624000   0.2197142     -8.2520214     -7.9224548      0.02381834     50218.233      36.893836      36.893836      36.893836    
    625000   0.22132308    -8.2503579     -7.918378       0.044438346    50218.233      36.893836      36.893836      36.893836    
    626000   0.2206853     -8.2498342     -7.918811       0.04082094     50218.233      36.893836      36.893836      36.893836    
    627000   0.2205005     -8.2520602     -7.9213142      0.020903818    50218.233      36.893836      36.893836      36.893836    
    628000   0.21913785    -8.2511087     -7.9224065      0.034778594    50218.233      36.893836      36.893836      36.893836    
    629000   0.22103528    -8.2505577     -7.9190095      0.037557197    50218.233      36.893836      36.893836      36.893836    
    630000   0.22074538    -8.2513813     -7.9202679      0.030051943    50218.233      36.893836      36.893836      36.893836    
    631000   0.21990175    -8.252297      -7.9224491      0.018054085    50218.233      36.893836      36.893836      36.893836    
    632000   0.22068708    -8.2499894     -7.9189635      0.052033033    50218.233      36.893836      36.893836      36.893836    
    633000   0.22134289    -8.2511693     -7.9191597      0.032836172    50218.233      36.893836      36.893836      36.893836    
    634000   0.21956259    -8.2524105     -7.9230713      0.023866632    50218.233      36.893836      36.893836      36.893836    
    635000   0.21924221    -8.2533014     -7.9244428      0.017138047    50218.233      36.893836      36.893836      36.893836    
    636000   0.2199552     -8.2521428     -7.9222147      0.022277649    50218.233      36.893836      36.893836      36.893836    
    637000   0.22017735    -8.2520956     -7.9218343      0.022737927    50218.233      36.893836      36.893836      36.893836    
    638000   0.21979999    -8.252501      -7.9228057      0.017322167    50218.233      36.893836      36.893836      36.893836    
    639000   0.22016032    -8.251159      -7.9209232      0.035854719    50218.233      36.893836      36.893836      36.893836    
    640000   0.21959043    -8.2542168     -7.9248359      0.0085466202   50218.233      36.893836      36.893836      36.893836    
    641000   0.21885687    -8.2524097     -7.9241291      0.021233508    50218.233      36.893836      36.893836      36.893836    
    642000   0.22108687    -8.2512962     -7.9196707      0.033996282    50218.233      36.893836      36.893836      36.893836    
    643000   0.22039513    -8.2532076     -7.9226196      0.019350762    50218.233      36.893836      36.893836      36.893836    
    644000   0.22000533    -8.2525114     -7.9225081      0.026349188    50218.233      36.893836      36.893836      36.893836    
    645000   0.21975971    -8.2498523     -7.9202174      0.041472705    50218.233      36.893836      36.893836      36.893836    
    646000   0.21998758    -8.2524663     -7.9224896      0.015247272    50218.233      36.893836      36.893836      36.893836    
    647000   0.22036361    -8.2541091     -7.9235683      0.01307281     50218.233      36.893836      36.893836      36.893836    
    648000   0.22067033    -8.2539105     -7.9229097      0.016321385    50218.233      36.893836      36.893836      36.893836    
    649000   0.21996692    -8.2533959     -7.9234502      0.010764417    50218.233      36.893836      36.893836      36.893836    
    650000   0.22009127    -8.2510898     -7.9209576      0.038534074    50218.233      36.893836      36.893836      36.893836    
    651000   0.22007865    -8.2514574     -7.9213441      0.027747375    50218.233      36.893836      36.893836      36.893836    
    652000   0.22031506    -8.2537568     -7.9232889      0.014131979    50218.233      36.893836      36.893836      36.893836    
    653000   0.21977204    -8.2521233     -7.92247        0.027483382    50218.233      36.893836      36.893836      36.893836    
    654000   0.22149545    -8.25431       -7.9220716      0.017381034    50218.233      36.893836      36.893836      36.893836    
    655000   0.21984385    -8.2535446     -7.9237836      0.013026581    50218.233      36.893836      36.893836      36.893836    
    656000   0.22034001    -8.2538493     -7.923344       0.015597201    50218.233      36.893836      36.893836      36.893836    
    657000   0.2202734     -8.2533695     -7.9229641      0.017832027    50218.233      36.893836      36.893836      36.893836    
    658000   0.22120798    -8.2532761     -7.9214689      0.02277293     50218.233      36.893836      36.893836      36.893836    
    659000   0.21988488    -8.2522506     -7.922428       0.024295881    50218.233      36.893836      36.893836      36.893836    
    660000   0.21949871    -8.2527565     -7.9235131      0.024370052    50218.233      36.893836      36.893836      36.893836    
    661000   0.22036273    -8.253507      -7.9229676      0.0042414082   50218.233      36.893836      36.893836      36.893836    
    662000   0.21980664    -8.2522488     -7.9225436      0.022819006    50218.233      36.893836      36.893836      36.893836    
    663000   0.22050153    -8.2514118     -7.9206642      0.030383768    50218.233      36.893836      36.893836      36.893836    
    664000   0.22072893    -8.2522176     -7.9211289      0.030407495    50218.233      36.893836      36.893836      36.893836    
    665000   0.21994586    -8.2523705     -7.9224564      0.021767891    50218.233      36.893836      36.893836      36.893836    
    666000   0.22015443    -8.2524799     -7.922253       0.026491496    50218.233      36.893836      36.893836      36.893836    
    667000   0.22006087    -8.2513418     -7.9212552      0.03148318     50218.233      36.893836      36.893836      36.893836    
    668000   0.21907395    -8.2521297     -7.9235235      0.034844329    50218.233      36.893836      36.893836      36.893836    
    669000   0.22109513    -8.2513204     -7.9196824      0.03283023     50218.233      36.893836      36.893836      36.893836    
    670000   0.2199912     -8.2530232     -7.9230411      0.020620764    50218.233      36.893836      36.893836      36.893836    
    671000   0.22051647    -8.2500098     -7.9192398      0.038308737    50218.233      36.893836      36.893836      36.893836    
    672000   0.21955321    -8.2526333     -7.9233081      0.019529391    50218.233      36.893836      36.893836      36.893836    
    673000   0.21844172    -8.2530025     -7.9253446      0.018963526    50218.233      36.893836      36.893836      36.893836    
    674000   0.22082601    -8.2510409     -7.9198066      0.03471459     50218.233      36.893836      36.893836      36.893836    
    675000   0.22027645    -8.2508866     -7.9204766      0.033715787    50218.233      36.893836      36.893836      36.893836    
    676000   0.21866211    -8.2524566     -7.9244681      0.01534406     50218.233      36.893836      36.893836      36.893836    
    677000   0.22024827    -8.2495054     -7.9191377      0.047837641    50218.233      36.893836      36.893836      36.893836    
    678000   0.21805699    -8.2518292     -7.9247484      0.032081054    50218.233      36.893836      36.893836      36.893836    
    679000   0.21968337    -8.2508657     -7.9213454      0.037029693    50218.233      36.893836      36.893836      36.893836    
    680000   0.21987089    -8.2504207     -7.920619       0.040108019    50218.233      36.893836      36.893836      36.893836    
    681000   0.21874189    -8.2532332     -7.925125       0.011455497    50218.233      36.893836      36.893836      36.893836    
    682000   0.22019705    -8.2542689     -7.923978       0.011042355    50218.233      36.893836      36.893836      36.893836    
    683000   0.22037465    -8.2522565     -7.9216992      0.021368038    50218.233      36.893836      36.893836      36.893836    
    684000   0.22000526    -8.2516647     -7.9216615      0.030986645    50218.233      36.893836      36.893836      36.893836    
    685000   0.21984383    -8.2508432     -7.9210821      0.028086296    50218.233      36.893836      36.893836      36.893836    
    686000   0.22073273    -8.2515661     -7.9204717      0.031926422    50218.233      36.893836      36.893836      36.893836    
    687000   0.21970751    -8.2522624     -7.9227059      0.019074689    50218.233      36.893836      36.893836      36.893836    
    688000   0.22109085    -8.2532943     -7.9216627      0.021574688    50218.233      36.893836      36.893836      36.893836    
    689000   0.2193293     -8.2532723     -7.9242831      0.014722169    50218.233      36.893836      36.893836      36.893836    
    690000   0.220573      -8.2546613     -7.9238065      0.0029548717   50218.233      36.893836      36.893836      36.893836    
    691000   0.2200668     -8.2530033     -7.9229078      0.020904307    50218.233      36.893836      36.893836      36.893836    
    692000   0.22056323    -8.2511327     -7.9202925      0.03312784     50218.233      36.893836      36.893836      36.893836    
    693000   0.21889175    -8.2531667     -7.9248338      0.016959794    50218.233      36.893836      36.893836      36.893836    
    694000   0.22134379    -8.2529798     -7.9209689      0.019604359    50218.233      36.893836      36.893836      36.893836    
    695000   0.22012133    -8.2515958     -7.9214185      0.028564615    50218.233      36.893836      36.893836      36.893836    
    696000   0.22129989    -8.2522909     -7.9203458      0.032991503    50218.233      36.893836      36.893836      36.893836    
    697000   0.22048509    -8.2536513     -7.9229284      0.016098537    50218.233      36.893836      36.893836      36.893836    
    698000   0.22094064    -8.2521868     -7.9207806      0.025923253    50218.233      36.893836      36.893836      36.893836    
    699000   0.22023777    -8.2525685     -7.9222165      0.026003823    50218.233      36.893836      36.893836      36.893836    
    700000   0.22005032    -8.2526057     -7.922535       0.031480907    50218.233      36.893836      36.893836      36.893836    
    701000   0.21967465    -8.2521609     -7.9226536      0.024251536    50218.233      36.893836      36.893836      36.893836    
    702000   0.22012046    -8.2524407     -7.9222647      0.011211904    50218.233      36.893836      36.893836      36.893836    
    703000   0.22044366    -8.2536363     -7.9229755      0.0075727162   50218.233      36.893836      36.893836      36.893836    
    704000   0.22018992    -8.2527267     -7.9224465      0.024448078    50218.233      36.893836      36.893836      36.893836    
    705000   0.22062267    -8.2528107     -7.9218814      0.01735323     50218.233      36.893836      36.893836      36.893836    
    706000   0.2184654     -8.2524839     -7.9247905      0.018727899    50218.233      36.893836      36.893836      36.893836    
    707000   0.21913136    -8.2537895     -7.9250971      0.008927762    50218.233      36.893836      36.893836      36.893836    
    708000   0.22067116    -8.2521443     -7.9211422      0.031620285    50218.233      36.893836      36.893836      36.893836    
    709000   0.21928943    -8.2541023     -7.9251729      0.0088486036   50218.233      36.893836      36.893836      36.893836    
    710000   0.22005198    -8.252435      -7.9223617      0.029650553    50218.233      36.893836      36.893836      36.893836    
    711000   0.22023761    -8.2520428     -7.9216911      0.028515446    50218.233      36.893836      36.893836      36.893836    
    712000   0.22041764    -8.251458      -7.9208363      0.035366698    50218.233      36.893836      36.893836      36.893836    
    713000   0.22074392    -8.2535383     -7.9224272      0.016868696    50218.233      36.893836      36.893836      36.893836    
    714000   0.22003017    -8.2520572     -7.9220167      0.02728647     50218.233      36.893836      36.893836      36.893836    
    715000   0.21908894    -8.2523468     -7.923718       0.019564965    50218.233      36.893836      36.893836      36.893836    
    716000   0.22045302    -8.2526641     -7.9219893      0.024588926    50218.233      36.893836      36.893836      36.893836    
    717000   0.22012436    -8.2524628     -7.9222809      0.020284082    50218.233      36.893836      36.893836      36.893836    
    718000   0.22035423    -8.2516139     -7.9210872      0.029787443    50218.233      36.893836      36.893836      36.893836    
    719000   0.22084745    -8.2503259     -7.9190594      0.049009638    50218.233      36.893836      36.893836      36.893836    
    720000   0.21980424    -8.2509439     -7.9212422      0.036371955    50218.233      36.893836      36.893836      36.893836    
    721000   0.22048376    -8.2531769     -7.9224559      0.022645512    50218.233      36.893836      36.893836      36.893836    
    722000   0.22010417    -8.2514116     -7.9212601      0.036746528    50218.233      36.893836      36.893836      36.893836    
    723000   0.22030795    -8.2524407     -7.9219835      0.025988141    50218.233      36.893836      36.893836      36.893836    
    724000   0.2200555     -8.2524925     -7.922414       0.025107563    50218.233      36.893836      36.893836      36.893836    
    725000   0.2193965     -8.2527467     -7.9236566      0.020217282    50218.233      36.893836      36.893836      36.893836    
    726000   0.21969532    -8.2522556     -7.9227173      0.021804971    50218.233      36.893836      36.893836      36.893836    
    727000   0.21967837    -8.2511394     -7.9216265      0.029578223    50218.233      36.893836      36.893836      36.893836    
    728000   0.22019764    -8.2527139     -7.9224222      0.022696605    50218.233      36.893836      36.893836      36.893836    
    729000   0.22065986    -8.2499551     -7.91897        0.04392957     50218.233      36.893836      36.893836      36.893836    
    730000   0.22093589    -8.2518498     -7.9204506      0.027720292    50218.233      36.893836      36.893836      36.893836    
    731000   0.2200918     -8.2526102     -7.9224772      0.019331816    50218.233      36.893836      36.893836      36.893836    
    732000   0.22018878    -8.2528478     -7.9225693      0.017855793    50218.233      36.893836      36.893836      36.893836    
    733000   0.21949146    -8.2510626     -7.9218301      0.031542192    50218.233      36.893836      36.893836      36.893836    
    734000   0.22069056    -8.2501055     -7.9190743      0.042993869    50218.233      36.893836      36.893836      36.893836    
    735000   0.21918621    -8.2522584     -7.9234838      0.025706136    50218.233      36.893836      36.893836      36.893836    
    736000   0.21994695    -8.2525706     -7.9226549      0.022367489    50218.233      36.893836      36.893836      36.893836    
    737000   0.21919635    -8.2536926     -7.9249027      0.011365429    50218.233      36.893836      36.893836      36.893836    
    738000   0.22017136    -8.2521466     -7.9218942      0.027870803    50218.233      36.893836      36.893836      36.893836    
    739000   0.21952807    -8.252359      -7.9230716      0.028401494    50218.233      36.893836      36.893836      36.893836    
    740000   0.22059487    -8.2519131     -7.9210254      0.031699437    50218.233      36.893836      36.893836      36.893836    
    741000   0.2202115     -8.2533863     -7.9230738      0.014659324    50218.233      36.893836      36.893836      36.893836    
    742000   0.21994199    -8.2527303     -7.922822       0.030194206    50218.233      36.893836      36.893836      36.893836    
    743000   0.2199572     -8.2536352     -7.9237041      0.01777081     50218.233      36.893836      36.893836      36.893836    
    744000   0.22052802    -8.2520723     -7.921285       0.02657471     50218.233      36.893836      36.893836      36.893836    
    745000   0.21974815    -8.2535463     -7.9239288      0.0088790192   50218.233      36.893836      36.893836      36.893836    
    746000   0.21959245    -8.2528953     -7.9235113      0.015359492    50218.233      36.893836      36.893836      36.893836    
    747000   0.22123132    -8.2534684     -7.9216261      0.017004329    50218.233      36.893836      36.893836      36.893836    
    748000   0.21990049    -8.2534847     -7.9236386      0.012096267    50218.233      36.893836      36.893836      36.893836    
    749000   0.22004819    -8.2532974     -7.9232298      0.015027078    50218.233      36.893836      36.893836      36.893836    
    750000   0.21966806    -8.2536736     -7.9241762      0.015347002    50218.233      36.893836      36.893836      36.893836    
    751000   0.2186511     -8.2528751     -7.9249031      0.011556727    50218.233      36.893836      36.893836      36.893836    
    752000   0.21970109    -8.254314      -7.924767       0.0076854438   50218.233      36.893836      36.893836      36.893836    
    753000   0.21983626    -8.2535041     -7.9237544      0.0056409946   50218.233      36.893836      36.893836      36.893836    
    754000   0.21963812    -8.2531955     -7.923743       0.014359906    50218.233      36.893836      36.893836      36.893836    
    755000   0.22027589    -8.2528156     -7.9224065      0.018961226    50218.233      36.893836      36.893836      36.893836    
    756000   0.21972086    -8.2538366     -7.92426        0.018182874    50218.233      36.893836      36.893836      36.893836    
    757000   0.21957294    -8.2529012     -7.9235464      0.019673439    50218.233      36.893836      36.893836      36.893836    
    758000   0.21947256    -8.2545779     -7.9253738      0.004991747    50218.233      36.893836      36.893836      36.893836    
    759000   0.21937921    -8.2530597     -7.9239956      0.015058688    50218.233      36.893836      36.893836      36.893836    
    760000   0.22003908    -8.2531872     -7.9231333      0.017655306    50218.233      36.893836      36.893836      36.893836    
    761000   0.22023527    -8.251746      -7.9213978      0.024423663    50218.233      36.893836      36.893836      36.893836    
    762000   0.21952876    -8.2533347     -7.9240462      0.011640542    50218.233      36.893836      36.893836      36.893836    
    763000   0.22026099    -8.2522925     -7.9219057      0.019065719    50218.233      36.893836      36.893836      36.893836    
    764000   0.2197007     -8.2531794     -7.923633       0.01062628     50218.233      36.893836      36.893836      36.893836    
    765000   0.22004578    -8.2530169     -7.922953       0.015172126    50218.233      36.893836      36.893836      36.893836    
    766000   0.21965254    -8.25148       -7.9220058      0.031981413    50218.233      36.893836      36.893836      36.893836    
    767000   0.21985522    -8.2525097     -7.9227315      0.022049894    50218.233      36.893836      36.893836      36.893836    
    768000   0.22035904    -8.251476      -7.9209421      0.035840022    50218.233      36.893836      36.893836      36.893836    
    769000   0.21947226    -8.2514511     -7.9222474      0.028974535    50218.233      36.893836      36.893836      36.893836    
    770000   0.22009387    -8.2540293     -7.9238932      0.011913411    50218.233      36.893836      36.893836      36.893836    
    771000   0.22099621    -8.2515764     -7.9200868      0.028943026    50218.233      36.893836      36.893836      36.893836    
    772000   0.22016289    -8.2526502     -7.9224106      0.018884442    50218.233      36.893836      36.893836      36.893836    
    773000   0.21932916    -8.2513098     -7.9223207      0.032841956    50218.233      36.893836      36.893836      36.893836    
    774000   0.21896804    -8.2508503     -7.9224029      0.037419015    50218.233      36.893836      36.893836      36.893836    
    775000   0.22055712    -8.2504871     -7.9196561      0.038817588    50218.233      36.893836      36.893836      36.893836    
    776000   0.21941154    -8.2513639     -7.9222513      0.033244511    50218.233      36.893836      36.893836      36.893836    
    777000   0.22061441    -8.2528542     -7.9219373      0.019978463    50218.233      36.893836      36.893836      36.893836    
    778000   0.22030259    -8.2533917     -7.9229425      0.011650215    50218.233      36.893836      36.893836      36.893836    
    779000   0.22044264    -8.2517696     -7.9211103      0.025197219    50218.233      36.893836      36.893836      36.893836    
    780000   0.21961885    -8.2511661     -7.9217425      0.032031717    50218.233      36.893836      36.893836      36.893836    
    781000   0.22055154    -8.2516917     -7.9208691      0.037472754    50218.233      36.893836      36.893836      36.893836    
    782000   0.21968762    -8.250634      -7.9211073      0.040774339    50218.233      36.893836      36.893836      36.893836    
    783000   0.22066788    -8.2522886     -7.9212915      0.0282841      50218.233      36.893836      36.893836      36.893836    
    784000   0.21983468    -8.252561      -7.9228137      0.018203266    50218.233      36.893836      36.893836      36.893836    
    785000   0.21907881    -8.2523921     -7.9237785      0.02772242     50218.233      36.893836      36.893836      36.893836    
    786000   0.21931661    -8.2515614     -7.9225912      0.023014651    50218.233      36.893836      36.893836      36.893836    
    787000   0.2206653     -8.2512511     -7.9202579      0.045305082    50218.233      36.893836      36.893836      36.893836    
    788000   0.22039406    -8.2540009     -7.9234145      0.011322434    50218.233      36.893836      36.893836      36.893836    
    789000   0.22056482    -8.2520185     -7.9211759      0.030515735    50218.233      36.893836      36.893836      36.893836    
    790000   0.21958112    -8.2524467     -7.9230797      0.018391805    50218.233      36.893836      36.893836      36.893836    
    791000   0.22045411    -8.2530189     -7.9223424      0.016574326    50218.233      36.893836      36.893836      36.893836    
    792000   0.22038126    -8.2530185     -7.9224513      0.018863485    50218.233      36.893836      36.893836      36.893836    
    793000   0.21975536    -8.2521453     -7.922517       0.021912735    50218.233      36.893836      36.893836      36.893836    
    794000   0.22111258    -8.2532193     -7.9215552      0.021007151    50218.233      36.893836      36.893836      36.893836    
    795000   0.22112479    -8.2533131     -7.9216307      0.021870382    50218.233      36.893836      36.893836      36.893836    
    796000   0.22114947    -8.2517249     -7.9200054      0.03380363     50218.233      36.893836      36.893836      36.893836    
    797000   0.22048777    -8.2551856     -7.9244586     -0.0058778509   50218.233      36.893836      36.893836      36.893836    
    798000   0.21981829    -8.2520244     -7.9223017      0.028505098    50218.233      36.893836      36.893836      36.893836    
    799000   0.22031682    -8.2527089     -7.9222384      0.023738529    50218.233      36.893836      36.893836      36.893836    
    800000   0.22072836    -8.2537184     -7.9226306      0.010278062    50218.233      36.893836      36.893836      36.893836    
    801000   0.21952593    -8.2515454     -7.9222612      0.036318816    50218.233      36.893836      36.893836      36.893836    
    802000   0.22053995    -8.2534586     -7.9226533      0.012183795    50218.233      36.893836      36.893836      36.893836    
    803000   0.22033182    -8.251239      -7.920746       0.031496377    50218.233      36.893836      36.893836      36.893836    
    804000   0.22179269    -8.2533515     -7.9206672      0.020936101    50218.233      36.893836      36.893836      36.893836    
    805000   0.22020592    -8.2519571     -7.9216529      0.027381603    50218.233      36.893836      36.893836      36.893836    
    806000   0.21963064    -8.2534403     -7.923999       0.018466529    50218.233      36.893836      36.893836      36.893836    
    807000   0.22030091    -8.253347      -7.9229003      0.014568753    50218.233      36.893836      36.893836      36.893836    
    808000   0.22094807    -8.2535755     -7.9221581      0.016289978    50218.233      36.893836      36.893836      36.893836    
    809000   0.22011972    -8.2512661     -7.9210913      0.03421977     50218.233      36.893836      36.893836      36.893836    
    810000   0.21995426    -8.2551752     -7.9252485     -0.0045932959   50218.233      36.893836      36.893836      36.893836    
    811000   0.22033152    -8.2526185     -7.922126       0.022344155    50218.233      36.893836      36.893836      36.893836    
    812000   0.21964022    -8.2540328     -7.9245772      0.011426715    50218.233      36.893836      36.893836      36.893836    
    813000   0.22038903    -8.2519594     -7.9213805      0.033512691    50218.233      36.893836      36.893836      36.893836    
    814000   0.21991479    -8.252581      -7.9227135      0.025039087    50218.233      36.893836      36.893836      36.893836    
    815000   0.22064907    -8.2527945     -7.9218256      0.023811332    50218.233      36.893836      36.893836      36.893836    
    816000   0.21978024    -8.2526167     -7.9229511      0.018608216    50218.233      36.893836      36.893836      36.893836    
    817000   0.22021821    -8.2524535     -7.9221309      0.027024126    50218.233      36.893836      36.893836      36.893836    
    818000   0.21988903    -8.2537025     -7.9238737      0.015655019    50218.233      36.893836      36.893836      36.893836    
    819000   0.22017954    -8.252246      -7.9219814      0.022817417    50218.233      36.893836      36.893836      36.893836    
    820000   0.22065691    -8.2514997     -7.9205191      0.026368534    50218.233      36.893836      36.893836      36.893836    
    821000   0.21885029    -8.2514929     -7.9232222      0.038287203    50218.233      36.893836      36.893836      36.893836    
    822000   0.2192285     -8.2524812     -7.9236431      0.027785566    50218.233      36.893836      36.893836      36.893836    
    823000   0.22042928    -8.2519533     -7.9213141      0.030076842    50218.233      36.893836      36.893836      36.893836    
    824000   0.22011385    -8.2505887     -7.9204226      0.040184216    50218.233      36.893836      36.893836      36.893836    
    825000   0.2203646     -8.2524414     -7.9218992      0.022903086    50218.233      36.893836      36.893836      36.893836    
    826000   0.21888568    -8.2521501     -7.9238262      0.023695766    50218.233      36.893836      36.893836      36.893836    
    827000   0.22033905    -8.2531797     -7.9226758      0.020646975    50218.233      36.893836      36.893836      36.893836    
    828000   0.22047389    -8.251955      -7.9212489      0.029304582    50218.233      36.893836      36.893836      36.893836    
    829000   0.21957782    -8.2508412     -7.9214791      0.040419461    50218.233      36.893836      36.893836      36.893836    
    830000   0.21908054    -8.2508587     -7.9222426      0.031236065    50218.233      36.893836      36.893836      36.893836    
    831000   0.22089498    -8.2526954     -7.9213577      0.019313518    50218.233      36.893836      36.893836      36.893836    
    832000   0.22033635    -8.2515745     -7.9210747      0.037157535    50218.233      36.893836      36.893836      36.893836    
    833000   0.21932534    -8.2529178     -7.9239345      0.015176984    50218.233      36.893836      36.893836      36.893836    
    834000   0.21987638    -8.2508442     -7.9210344      0.036363151    50218.233      36.893836      36.893836      36.893836    
    835000   0.22039634    -8.2518368     -7.921247       0.022904568    50218.233      36.893836      36.893836      36.893836    
    836000   0.22042598    -8.2525068     -7.9218725      0.026106469    50218.233      36.893836      36.893836      36.893836    
    837000   0.21987509    -8.2509365     -7.9211285      0.038429856    50218.233      36.893836      36.893836      36.893836    
    838000   0.22086463    -8.2518983     -7.9206061      0.026124071    50218.233      36.893836      36.893836      36.893836    
    839000   0.22039295    -8.2529669     -7.9223821      0.026896936    50218.233      36.893836      36.893836      36.893836    
    840000   0.22100624    -8.252349      -7.9208443      0.022804718    50218.233      36.893836      36.893836      36.893836    
    841000   0.21901965    -8.2521599     -7.9236351      0.019423731    50218.233      36.893836      36.893836      36.893836    
    842000   0.2188342     -8.2494097     -7.9211631      0.045842343    50218.233      36.893836      36.893836      36.893836    
    843000   0.21867056    -8.2531486     -7.9251474      0.020678641    50218.233      36.893836      36.893836      36.893836    
    844000   0.22034227    -8.2536756     -7.9231669      0.013744018    50218.233      36.893836      36.893836      36.893836    
    845000   0.21932141    -8.2548702     -7.9258927      0.0077308592   50218.233      36.893836      36.893836      36.893836    
    846000   0.22041281    -8.2535867     -7.9229722      0.0093886495   50218.233      36.893836      36.893836      36.893836    
    847000   0.21933084    -8.2537513     -7.9247597      0.011438778    50218.233      36.893836      36.893836      36.893836    
    848000   0.21944068    -8.2519312     -7.9227749      0.0221272      50218.233      36.893836      36.893836      36.893836    
    849000   0.22096423    -8.2546985     -7.9232569      0.013375903    50218.233      36.893836      36.893836      36.893836    
    850000   0.22031264    -8.253569      -7.9231047      0.0084030585   50218.233      36.893836      36.893836      36.893836    
    851000   0.22040466    -8.2521039     -7.9215016      0.028622923    50218.233      36.893836      36.893836      36.893836    
    852000   0.21995871    -8.2555514     -7.925618      -0.0040275829   50218.233      36.893836      36.893836      36.893836    
    853000   0.21998525    -8.2539481     -7.923975       0.013164218    50218.233      36.893836      36.893836      36.893836    
    854000   0.21979992    -8.2517236     -7.9220284      0.027970872    50218.233      36.893836      36.893836      36.893836    
    855000   0.21934307    -8.2521564     -7.9231465      0.03403625     50218.233      36.893836      36.893836      36.893836    
    856000   0.21951272    -8.2540035     -7.9247391      0.0064526306   50218.233      36.893836      36.893836      36.893836    
    857000   0.21921288    -8.252948      -7.9241334      0.01082573     50218.233      36.893836      36.893836      36.893836    
    858000   0.21984456    -8.251846      -7.9220838      0.023971328    50218.233      36.893836      36.893836      36.893836    
    859000   0.2212486     -8.2524263     -7.9205581      0.028064159    50218.233      36.893836      36.893836      36.893836    
    860000   0.21976099    -8.2535979     -7.9239611      0.01372378     50218.233      36.893836      36.893836      36.893836    
    861000   0.22058564    -8.25157       -7.9206963      0.026417941    50218.233      36.893836      36.893836      36.893836    
    862000   0.22032768    -8.2524907     -7.9220039      0.030742536    50218.233      36.893836      36.893836      36.893836    
    863000   0.21946885    -8.2531494     -7.9239508      0.016310747    50218.233      36.893836      36.893836      36.893836    
    864000   0.21969096    -8.2528972     -7.9233654      0.026363733    50218.233      36.893836      36.893836      36.893836    
    865000   0.22003635    -8.2543531     -7.9243033      0.0083046524   50218.233      36.893836      36.893836      36.893836    
    866000   0.21927123    -8.2503958     -7.9214936      0.039810148    50218.233      36.893836      36.893836      36.893836    
    867000   0.21926276    -8.2530179     -7.9241285      0.0172298      50218.233      36.893836      36.893836      36.893836    
    868000   0.21885399    -8.2510023     -7.922726       0.03240654     50218.233      36.893836      36.893836      36.893836    
    869000   0.22015991    -8.2531428     -7.9229076      0.02396127     50218.233      36.893836      36.893836      36.893836    
    870000   0.21958312    -8.2499636     -7.9205936      0.039262123    50218.233      36.893836      36.893836      36.893836    
    871000   0.22057908    -8.2516875     -7.9208236      0.025700816    50218.233      36.893836      36.893836      36.893836    
    872000   0.22154791    -8.2514833     -7.9191662      0.031685835    50218.233      36.893836      36.893836      36.893836    
    873000   0.22034172    -8.2504135     -7.9199057      0.039936417    50218.233      36.893836      36.893836      36.893836    
    874000   0.21962882    -8.2512797     -7.9218411      0.027754055    50218.233      36.893836      36.893836      36.893836    
    875000   0.21968469    -8.2522621     -7.9227397      0.010448166    50218.233      36.893836      36.893836      36.893836    
    876000   0.22036937    -8.251671      -7.9211217      0.027619438    50218.233      36.893836      36.893836      36.893836    
    877000   0.21958215    -8.250372      -7.9210035      0.039491398    50218.233      36.893836      36.893836      36.893836    
    878000   0.22030153    -8.2518357     -7.9213881      0.036517109    50218.233      36.893836      36.893836      36.893836    
    879000   0.22037248    -8.2531961     -7.9226421      0.022070414    50218.233      36.893836      36.893836      36.893836    
    880000   0.21980546    -8.2524887     -7.9227852      0.024787633    50218.233      36.893836      36.893836      36.893836    
    881000   0.22034762    -8.252233      -7.9217162      0.023382708    50218.233      36.893836      36.893836      36.893836    
    882000   0.21916394    -8.2520629     -7.9233216      0.020554383    50218.233      36.893836      36.893836      36.893836    
    883000   0.21981381    -8.2526805     -7.9229645      0.015462797    50218.233      36.893836      36.893836      36.893836    
    884000   0.22016809    -8.2530193     -7.9227719      0.021376478    50218.233      36.893836      36.893836      36.893836    
    885000   0.21974509    -8.2522028     -7.9225898      0.026011049    50218.233      36.893836      36.893836      36.893836    
    886000   0.219852      -8.2515232     -7.9217499      0.029572952    50218.233      36.893836      36.893836      36.893836    
    887000   0.2203018     -8.2532968     -7.9228488      0.013120941    50218.233      36.893836      36.893836      36.893836    
    888000   0.22092719    -8.2526734     -7.9212873      0.027670495    50218.233      36.893836      36.893836      36.893836    
    889000   0.21967578    -8.2521299     -7.9226209      0.021927691    50218.233      36.893836      36.893836      36.893836    
    890000   0.22021394    -8.2534444     -7.9231282      0.01429683     50218.233      36.893836      36.893836      36.893836    
    891000   0.22081069    -8.2538268     -7.9226155      0.016739833    50218.233      36.893836      36.893836      36.893836    
    892000   0.22105361    -8.253523      -7.9219473      0.01333345     50218.233      36.893836      36.893836      36.893836    
    893000   0.21883993    -8.2533916     -7.9251364      0.017063403    50218.233      36.893836      36.893836      36.893836    
    894000   0.22084005    -8.2541721     -7.9229168      0.0040147563   50218.233      36.893836      36.893836      36.893836    
    895000   0.21843204    -8.2521304     -7.924487       0.018284741    50218.233      36.893836      36.893836      36.893836    
    896000   0.21844886    -8.2547157     -7.9270471      0.0044697388   50218.233      36.893836      36.893836      36.893836    
    897000   0.22071847    -8.2524331     -7.9213601      0.023617237    50218.233      36.893836      36.893836      36.893836    
    898000   0.22020913    -8.2534879     -7.9231789      0.016694735    50218.233      36.893836      36.893836      36.893836    
    899000   0.21953116    -8.253203      -7.9239109      0.018137125    50218.233      36.893836      36.893836      36.893836    
    900000   0.21993612    -8.2550445     -7.925145       0.0055669741   50218.233      36.893836      36.893836      36.893836    
    901000   0.22053607    -8.2526064     -7.921807       0.022166275    50218.233      36.893836      36.893836      36.893836    
    902000   0.22041813    -8.2525443     -7.9219218      0.029830263    50218.233      36.893836      36.893836      36.893836    
    903000   0.21786685    -8.2523888     -7.9255932      0.023651797    50218.233      36.893836      36.893836      36.893836    
    904000   0.2205628     -8.252898      -7.9220585      0.027685505    50218.233      36.893836      36.893836      36.893836    
    905000   0.21913382    -8.2537063     -7.9250102      0.017357042    50218.233      36.893836      36.893836      36.893836    
    906000   0.22111515    -8.2522553     -7.9205873      0.029423099    50218.233      36.893836      36.893836      36.893836    
    907000   0.22015714    -8.2524392     -7.9222082      0.025269777    50218.233      36.893836      36.893836      36.893836    
    908000   0.22036932    -8.2521738     -7.9216245      0.02954728     50218.233      36.893836      36.893836      36.893836    
    909000   0.21949169    -8.2517134     -7.9224806      0.024746919    50218.233      36.893836      36.893836      36.893836    
    910000   0.22014226    -8.2518759     -7.9216673      0.026842907    50218.233      36.893836      36.893836      36.893836    
    911000   0.2192953     -8.252044      -7.9231057      0.022758106    50218.233      36.893836      36.893836      36.893836    
    912000   0.22026478    -8.2508967     -7.9205043      0.029426413    50218.233      36.893836      36.893836      36.893836    
    913000   0.22028453    -8.2532843     -7.9228622      0.019097349    50218.233      36.893836      36.893836      36.893836    
    914000   0.21901979    -8.2524705     -7.9239455      0.023086055    50218.233      36.893836      36.893836      36.893836    
    915000   0.22019116    -8.2506519     -7.9203699      0.040170343    50218.233      36.893836      36.893836      36.893836    
    916000   0.21827911    -8.2518448     -7.9244308      0.021571933    50218.233      36.893836      36.893836      36.893836    
    917000   0.22061388    -8.251548      -7.9206319      0.038037584    50218.233      36.893836      36.893836      36.893836    
    918000   0.22057699    -8.2519521     -7.9210913      0.030444422    50218.233      36.893836      36.893836      36.893836    
    919000   0.22187154    -8.2511984     -7.9183958      0.033335303    50218.233      36.893836      36.893836      36.893836    
    920000   0.21945364    -8.2511837     -7.9220079      0.026056168    50218.233      36.893836      36.893836      36.893836    
    921000   0.2203183     -8.2514456     -7.9209728      0.030847779    50218.233      36.893836      36.893836      36.893836    
    922000   0.21888943    -8.2531834     -7.924854       0.016277441    50218.233      36.893836      36.893836      36.893836    
    923000   0.21983195    -8.2518008     -7.9220576      0.030268254    50218.233      36.893836      36.893836      36.893836    
    924000   0.22019515    -8.2516582     -7.9213702      0.030092649    50218.233      36.893836      36.893836      36.893836    
    925000   0.22128957    -8.2515331     -7.9196035      0.029868148    50218.233      36.893836      36.893836      36.893836    
    926000   0.22016737    -8.2539809     -7.9237345      0.019780541    50218.233      36.893836      36.893836      36.893836    
    927000   0.22105395    -8.2518197     -7.9202435      0.033875483    50218.233      36.893836      36.893836      36.893836    
    928000   0.21938049    -8.250707      -7.9216409      0.036488511    50218.233      36.893836      36.893836      36.893836    
    929000   0.21985598    -8.2518488     -7.9220695      0.024829409    50218.233      36.893836      36.893836      36.893836    
    930000   0.22008774    -8.2531946     -7.9230677      0.012551874    50218.233      36.893836      36.893836      36.893836    
    931000   0.21924949    -8.250307      -7.9214374      0.030875349    50218.233      36.893836      36.893836      36.893836    
    932000   0.21923538    -8.2513745     -7.9225261      0.035441986    50218.233      36.893836      36.893836      36.893836    
    933000   0.21956452    -8.2533443     -7.9240022      0.017376184    50218.233      36.893836      36.893836      36.893836    
    934000   0.21927919    -8.2521282     -7.9232141      0.027255903    50218.233      36.893836      36.893836      36.893836    
    935000   0.22070201    -8.2524242     -7.9213758      0.023754818    50218.233      36.893836      36.893836      36.893836    
    936000   0.21959491    -8.2537342     -7.9243465      0.011632076    50218.233      36.893836      36.893836      36.893836    
    937000   0.22005915    -8.2506601     -7.920576       0.034375012    50218.233      36.893836      36.893836      36.893836    
    938000   0.22082929    -8.2508964     -7.9196571      0.045062835    50218.233      36.893836      36.893836      36.893836    
    939000   0.21955439    -8.252454      -7.9231271      0.029542585    50218.233      36.893836      36.893836      36.893836    
    940000   0.21975845    -8.2522786     -7.9226456      0.025477566    50218.233      36.893836      36.893836      36.893836    
    941000   0.22038453    -8.2526504     -7.9220783      0.020734152    50218.233      36.893836      36.893836      36.893836    
    942000   0.21908559    -8.251784      -7.9231603      0.019479336    50218.233      36.893836      36.893836      36.893836    
    943000   0.21917977    -8.2540839     -7.925319       0.0056660954   50218.233      36.893836      36.893836      36.893836    
    944000   0.22073059    -8.2523462     -7.921255       0.02324975     50218.233      36.893836      36.893836      36.893836    
    945000   0.22069857    -8.2512977     -7.9202546      0.043684629    50218.233      36.893836      36.893836      36.893836    
    946000   0.21843874    -8.2533042     -7.9256507      0.015594742    50218.233      36.893836      36.893836      36.893836    
    947000   0.21910973    -8.2543268     -7.9256669      0.012853022    50218.233      36.893836      36.893836      36.893836    
    948000   0.22069039    -8.2537807     -7.9227499      0.008245542    50218.233      36.893836      36.893836      36.893836    
    949000   0.21951538    -8.2525293     -7.9232609      0.024814442    50218.233      36.893836      36.893836      36.893836    
    950000   0.22076056    -8.2543736     -7.9232374      0.0084134059   50218.233      36.893836      36.893836      36.893836    
    951000   0.22072322    -8.2513046     -7.9202245      0.036805294    50218.233      36.893836      36.893836      36.893836    
    952000   0.22011988    -8.2531493     -7.9229742      0.012526877    50218.233      36.893836      36.893836      36.893836    
    953000   0.21937068    -8.2529054     -7.9238541      0.014225781    50218.233      36.893836      36.893836      36.893836    
    954000   0.22065578    -8.2547499     -7.923771       0.0033185376   50218.233      36.893836      36.893836      36.893836    
    955000   0.21963264    -8.2538642     -7.92442        0.011771387    50218.233      36.893836      36.893836      36.893836    
    956000   0.21912236    -8.2524833     -7.9238045      0.02127307     50218.233      36.893836      36.893836      36.893836    
    957000   0.21953098    -8.2522252     -7.9229335      0.021116825    50218.233      36.893836      36.893836      36.893836    
    958000   0.21972835    -8.2534808     -7.923893       0.022180858    50218.233      36.893836      36.893836      36.893836    
    959000   0.22004477    -8.2538408     -7.9237784      0.0068693869   50218.233      36.893836      36.893836      36.893836    
    960000   0.21987562    -8.2523615     -7.9225528      0.024906723    50218.233      36.893836      36.893836      36.893836    
    961000   0.2204398     -8.2519623     -7.9213073      0.022683646    50218.233      36.893836      36.893836      36.893836    
    962000   0.21897383    -8.2527621     -7.924306       0.016928406    50218.233      36.893836      36.893836      36.893836    
    963000   0.21934394    -8.2526171     -7.9236059      0.018426863    50218.233      36.893836      36.893836      36.893836    
    964000   0.22129639    -8.2547355     -7.9227957      0.011268506    50218.233      36.893836      36.893836      36.893836    
    965000   0.21917666    -8.2524734     -7.9237131      0.024490838    50218.233      36.893836      36.893836      36.893836    
    966000   0.2211412     -8.2532117     -7.9215046      0.014075139    50218.233      36.893836      36.893836      36.893836    
    967000   0.21863408    -8.2502665     -7.92232        0.041977401    50218.233      36.893836      36.893836      36.893836    
    968000   0.22009012    -8.2529164     -7.9227859      0.018363619    50218.233      36.893836      36.893836      36.893836    
    969000   0.22035753    -8.253768      -7.9232364      0.013255382    50218.233      36.893836      36.893836      36.893836    
    970000   0.21988861    -8.2527972     -7.922969       0.021498674    50218.233      36.893836      36.893836      36.893836    
    971000   0.22132779    -8.2517642     -7.9197773      0.031544439    50218.233      36.893836      36.893836      36.893836    
    972000   0.21886205    -8.2531098     -7.9248214      0.014447352    50218.233      36.893836      36.893836      36.893836    
    973000   0.21915831    -8.2494925     -7.9207597      0.050165319    50218.233      36.893836      36.893836      36.893836    
    974000   0.21969306    -8.2504308     -7.9208959      0.036959675    50218.233      36.893836      36.893836      36.893836    
    975000   0.22000455    -8.2532106     -7.9232085      0.020539256    50218.233      36.893836      36.893836      36.893836    
    976000   0.22040235    -8.2528765     -7.9222776      0.020459251    50218.233      36.893836      36.893836      36.893836    
    977000   0.21941902    -8.2519907     -7.9228669      0.026182778    50218.233      36.893836      36.893836      36.893836    
    978000   0.21964611    -8.251466      -7.9220015      0.026336621    50218.233      36.893836      36.893836      36.893836    
    979000   0.2205537     -8.2524528     -7.921627       0.018573783    50218.233      36.893836      36.893836      36.893836    
    980000   0.22078103    -8.2524689     -7.9213021      0.03251235     50218.233      36.893836      36.893836      36.893836    
    981000   0.22076963    -8.2520161     -7.9208664      0.02482943     50218.233      36.893836      36.893836      36.893836    
    982000   0.22003407    -8.2529868     -7.9229404      0.016859213    50218.233      36.893836      36.893836      36.893836    
    983000   0.21960304    -8.2528597     -7.9234598      0.021594571    50218.233      36.893836      36.893836      36.893836    
    984000   0.21856106    -8.2525102     -7.9246733      0.023653515    50218.233      36.893836      36.893836      36.893836    
    985000   0.21969749    -8.2539864     -7.9244448      0.0097374895   50218.233      36.893836      36.893836      36.893836    
    986000   0.22035445    -8.2504278     -7.9199009      0.038448726    50218.233      36.893836      36.893836      36.893836    
    987000   0.21893214    -8.2522346     -7.9238411      0.021837115    50218.233      36.893836      36.893836      36.893836    
    988000   0.21987617    -8.2517483     -7.9219387      0.027156328    50218.233      36.893836      36.893836      36.893836    
    989000   0.21983951    -8.2535992     -7.9238446      0.011139837    50218.233      36.893836      36.893836      36.893836    
    990000   0.21964631    -8.252613      -7.9231483      0.019037636    50218.233      36.893836      36.893836      36.893836    
    991000   0.21994196    -8.2534        -7.9234917      0.016303533    50218.233      36.893836      36.893836      36.893836    
    992000   0.22046824    -8.2522306     -7.921533       0.022038681    50218.233      36.893836      36.893836      36.893836    
    993000   0.21986082    -8.2542668     -7.9244803      0.0096397591   50218.233      36.893836      36.893836      36.893836    
    994000   0.22028813    -8.2519576     -7.9215302      0.030281717    50218.233      36.893836      36.893836      36.893836    
    995000   0.21986869    -8.2532742     -7.9234758      0.017757733    50218.233      36.893836      36.893836      36.893836    
    996000   0.22013765    -8.253189      -7.9229872      0.023701604    50218.233      36.893836      36.893836      36.893836    
    997000   0.22027746    -8.2503183     -7.9199068      0.035438973    50218.233      36.893836      36.893836      36.893836    
    998000   0.21962405    -8.2532215     -7.9237901      0.015297449    50218.233      36.893836      36.893836      36.893836    
    999000   0.21909045    -8.2521883     -7.9235573      0.031528378    50218.233      36.893836      36.893836      36.893836    
   1000000   0.22107039    -8.2529496     -7.9213487      0.026894015    50218.233      36.893836      36.893836      36.893836    
Loop time of 1490.52 on 4 procs for 1000000 steps with 70304 atoms

Performance: 579661.915 tau/day, 670.905 timesteps/s, 47.167 Matom-step/s
95.3% CPU use with 4 MPI tasks x 1 OpenMP threads

MPI task timing breakdown:
Section |  min time  |  avg time  |  max time  |%varavg| %total
---------------------------------------------------------------
Pair    | 401.74     | 516.01     | 658.72     | 431.6 | 34.62
Neigh   | 4.1504     | 4.3394     | 4.4575     |   6.0 |  0.29
Comm    | 206.4      | 208.44     | 209.26     |   8.2 | 13.98
Output  | 0.19976    | 0.2093     | 0.23037    |   2.7 |  0.01
Modify  | 541.03     | 682.82     | 798.14     | 374.2 | 45.81
Other   |            | 78.71      |            |       |  5.28

Nlocal:          17576 ave       17636 max       17513 min
Histogram: 1 0 0 0 1 1 0 0 0 1
Nghost:        16816.5 ave       16868 max       16785 min
Histogram: 1 1 0 1 0 0 0 0 0 1
Neighs:              0 ave           0 max           0 min
Histogram: 4 0 0 0 0 0 0 0 0 0

Total # of neighbors = 0
Ave neighs/atom = 0
Neighbor list builds = 139408
Dangerous builds = 0
clear
OMP_NUM_THREADS environment is not set. Defaulting to 1 thread. (src/comm.cpp:98)
  using 1 OpenMP thread(s) per MPI task
package gpu 0
jump dms200.lmp

variable T equal 200
# T = 1000* (temp in LJ unit)
variable f equal 1000
log log.${T}
log log.200
