variable TLJ equal (${T}/1000)
variable TLJ equal (515/1000)
variable NCyle equal 10
variable iStep equal (${f})
variable iStep equal (1000)
variable dumpStep equal (${f}*100)
variable dumpStep equal (1000*100)
variable runStep equal (${f}*100*${NCyle})
variable runStep equal (1000*100*${NCyle})
variable runStep equal (1000*100*10)

units       lj
atom_style  atomic
dimension 3
boundary     p p p
pair_style  lj/cut 2.5
read_data  ../data/T${T}.dat
read_data  ../data/T515.dat
Reading data file ...
  orthogonal box = (0.97250269 0.97250269 0.97250269) to (37.866338 37.866338 37.866338)
  1 by 1 by 1 MPI processor grid
  reading atoms ...
  70304 atoms
  reading velocities ...
  70304 velocities
  read_data CPU = 0.282 seconds
change_box all triclinic
Changing box ...
  triclinic box = (0.97250269 0.97250269 0.97250269) to (37.866338 37.866338 37.866338) with tilt (0 0 0)
mass 1 1
mass 2 1
pair_modify shift yes
pair_coeff  1 1 1 1
pair_coeff  1 2 1.5 0.8
pair_coeff  2 2 0.5 0.88


timestep 0.01
thermo ${iStep}
thermo 1000
reset_timestep 0
thermo_style custom step temp pe etotal press vol lx ly lz
fix             1 all nvt temp ${TLJ}  ${TLJ}  0.1
fix             1 all nvt temp 0.515  ${TLJ}  0.1
fix             1 all nvt temp 0.515  0.515  0.1
thermo_modify flush yes

fix dsf all deform 1 xy  wiggle 0.5  ${f}   units box
fix dsf all deform 1 xy  wiggle 0.5  1000   units box
fix ps1 all ave/time 1 1 ${iStep} c_thermo_press[1] c_thermo_press[2]  c_thermo_press[3] c_thermo_press[4]  c_thermo_press[5] c_thermo_press[6]  file  stress.${T}
fix ps1 all ave/time 1 1 1000 c_thermo_press[1] c_thermo_press[2]  c_thermo_press[3] c_thermo_press[4]  c_thermo_press[5] c_thermo_press[6]  file  stress.${T}
fix ps1 all ave/time 1 1 1000 c_thermo_press[1] c_thermo_press[2]  c_thermo_press[3] c_thermo_press[4]  c_thermo_press[5] c_thermo_press[6]  file  stress.515
dump            1 all custom ${dumpStep} dump.${T} id type x y z
dump            1 all custom 100000 dump.${T} id type x y z
dump            1 all custom 100000 dump.515 id type x y z
dump_modify 1 sort id
fix nodrift all momentum 1  linear 1 1 1
fix com_seed all recenter INIT INIT INIT shift all
run ${runStep}
run 1000000
Generated 0 of 1 mixed pair_coeff terms from geometric mixing rule
Per MPI rank memory allocation (min/avg/max) = 21.18 | 21.18 | 21.18 Mbytes
   Step          Temp          PotEng         TotEng         Press          Volume           Lx             Ly             Lz      
         0   0.51193476    -7.7959563     -7.0280651      3.8275204      50218.233      36.893836      36.893836      36.893836    
      1000   0.51556413    -7.786161      -7.0128258      3.8864647      50218.233      36.893836      36.893836      36.893836    
      2000   0.51681595    -7.7888877     -7.0136748      3.8688039      50218.233      36.893836      36.893836      36.893836    
      3000   0.51361149    -7.7818836     -7.0114773      3.9131631      50218.233      36.893836      36.893836      36.893836    
      4000   0.51382078    -7.7858631     -7.0151429      3.8958148      50218.233      36.893836      36.893836      36.893836    
      5000   0.51390418    -7.7867057     -7.0158604      3.8851489      50218.233      36.893836      36.893836      36.893836    
      6000   0.5138821     -7.7873959     -7.0165837      3.8765803      50218.233      36.893836      36.893836      36.893836    
      7000   0.5127978     -7.7813034     -7.0121177      3.9119609      50218.233      36.893836      36.893836      36.893836    
      8000   0.5138941     -7.7850904     -7.0142602      3.8977457      50218.233      36.893836      36.893836      36.893836    
      9000   0.5156074     -7.7883266     -7.0149265      3.8840741      50218.233      36.893836      36.893836      36.893836    
     10000   0.51379451    -7.7866774     -7.0159967      3.8930191      50218.233      36.893836      36.893836      36.893836    
     11000   0.5185847     -7.7834211     -7.0055551      3.9090568      50218.233      36.893836      36.893836      36.893836    
     12000   0.51844433    -7.7886836     -7.0110281      3.8736475      50218.233      36.893836      36.893836      36.893836    
     13000   0.51736417    -7.7872919     -7.0112567      3.8909728      50218.233      36.893836      36.893836      36.893836    
     14000   0.5138307     -7.7846053     -7.0138702      3.9057217      50218.233      36.893836      36.893836      36.893836    
     15000   0.51498322    -7.7853834     -7.0129195      3.8936448      50218.233      36.893836      36.893836      36.893836    
     16000   0.5167845     -7.7833227     -7.008157       3.9088696      50218.233      36.893836      36.893836      36.893836    
     17000   0.5139641     -7.7874553     -7.0165201      3.8776411      50218.233      36.893836      36.893836      36.893836    
     18000   0.51427568    -7.7840968     -7.0126943      3.9117004      50218.233      36.893836      36.893836      36.893836    
     19000   0.51426988    -7.7849508     -7.0135569      3.8965239      50218.233      36.893836      36.893836      36.893836    
     20000   0.51452306    -7.7809398     -7.0091662      3.9204207      50218.233      36.893836      36.893836      36.893836    
     21000   0.51594552    -7.7871469     -7.0132397      3.8760964      50218.233      36.893836      36.893836      36.893836    
     22000   0.51773237    -7.79082       -7.0142325      3.8603684      50218.233      36.893836      36.893836      36.893836    
     23000   0.51500068    -7.7865553     -7.0140652      3.880996       50218.233      36.893836      36.893836      36.893836    
     24000   0.51427223    -7.7888391     -7.0174418      3.8678136      50218.233      36.893836      36.893836      36.893836    
     25000   0.51484435    -7.7837193     -7.0114638      3.9139041      50218.233      36.893836      36.893836      36.893836    
     26000   0.5151533     -7.7857419     -7.0130229      3.8866759      50218.233      36.893836      36.893836      36.893836    
     27000   0.51596865    -7.7801195     -7.0061775      3.941707       50218.233      36.893836      36.893836      36.893836    
     28000   0.51640639    -7.7854249     -7.0108263      3.8923013      50218.233      36.893836      36.893836      36.893836    
     29000   0.51553462    -7.7838264     -7.0105355      3.9148002      50218.233      36.893836      36.893836      36.893836    
     30000   0.51402736    -7.7844389     -7.0134088      3.9128307      50218.233      36.893836      36.893836      36.893836    
     31000   0.5174251     -7.7813854     -7.0052588      3.9218232      50218.233      36.893836      36.893836      36.893836    
     32000   0.5153617     -7.7848388     -7.0118073      3.9006938      50218.233      36.893836      36.893836      36.893836    
     33000   0.51365023    -7.7841869     -7.0137225      3.9035745      50218.233      36.893836      36.893836      36.893836    
     34000   0.51209446    -7.7858483     -7.0177176      3.891402       50218.233      36.893836      36.893836      36.893836    
     35000   0.51345643    -7.7832914     -7.0131177      3.9141134      50218.233      36.893836      36.893836      36.893836    
     36000   0.51403063    -7.7811705     -7.0101355      3.9349469      50218.233      36.893836      36.893836      36.893836    
     37000   0.51333851    -7.7875543     -7.0175575      3.8581752      50218.233      36.893836      36.893836      36.893836    
     38000   0.51443059    -7.781486      -7.0098511      3.9355318      50218.233      36.893836      36.893836      36.893836    
     39000   0.51681333    -7.7908029     -7.0155939      3.8692463      50218.233      36.893836      36.893836      36.893836    
     40000   0.5161592     -7.780223      -7.0059953      3.9373144      50218.233      36.893836      36.893836      36.893836    
     41000   0.51476737    -7.7821302     -7.0099902      3.9217624      50218.233      36.893836      36.893836      36.893836    
     42000   0.51812391    -7.7860793     -7.0089045      3.898924       50218.233      36.893836      36.893836      36.893836    
     43000   0.5119432     -7.7842179     -7.016314       3.8998076      50218.233      36.893836      36.893836      36.893836    
     44000   0.51725852    -7.7840273     -7.0081506      3.9197656      50218.233      36.893836      36.893836      36.893836    
     45000   0.5135409     -7.7805022     -7.0102018      3.9329986      50218.233      36.893836      36.893836      36.893836    
     46000   0.51661662    -7.7807968     -7.0058829      3.9325736      50218.233      36.893836      36.893836      36.893836    
     47000   0.51507963    -7.7809941     -7.0083856      3.9310032      50218.233      36.893836      36.893836      36.893836    
     48000   0.5162711     -7.7821868     -7.0077912      3.9172861      50218.233      36.893836      36.893836      36.893836    
     49000   0.51616231    -7.7828812     -7.0086488      3.9170509      50218.233      36.893836      36.893836      36.893836    
     50000   0.51213284    -7.7859297     -7.0177414      3.8965041      50218.233      36.893836      36.893836      36.893836    
     51000   0.5130188     -7.7854892     -7.0159719      3.8907937      50218.233      36.893836      36.893836      36.893836    
     52000   0.51485931    -7.7877485     -7.0154706      3.8861831      50218.233      36.893836      36.893836      36.893836    
     53000   0.51395413    -7.7864662     -7.015546       3.8890487      50218.233      36.893836      36.893836      36.893836    
     54000   0.5160289     -7.7876736     -7.0136413      3.8777376      50218.233      36.893836      36.893836      36.893836    
     55000   0.51296417    -7.7847725     -7.0153372      3.8954534      50218.233      36.893836      36.893836      36.893836    
     56000   0.51279518    -7.7836236     -7.0144418      3.9056092      50218.233      36.893836      36.893836      36.893836    
     57000   0.51402742    -7.7822749     -7.0112447      3.9246758      50218.233      36.893836      36.893836      36.893836    
     58000   0.51317735    -7.7844322     -7.0146772      3.9007245      50218.233      36.893836      36.893836      36.893836    
     59000   0.51622461    -7.7826879     -7.0083619      3.9117331      50218.233      36.893836      36.893836      36.893836    
     60000   0.51216934    -7.7810366     -7.0127935      3.9186015      50218.233      36.893836      36.893836      36.893836    
     61000   0.51345577    -7.7839519     -7.0137792      3.9009988      50218.233      36.893836      36.893836      36.893836    
     62000   0.51189955    -7.7859049     -7.0180665      3.877163       50218.233      36.893836      36.893836      36.893836    
     63000   0.51350782    -7.7841658     -7.013915       3.8975704      50218.233      36.893836      36.893836      36.893836    
     64000   0.51483936    -7.7813005     -7.0090525      3.9254692      50218.233      36.893836      36.893836      36.893836    
     65000   0.51534186    -7.7796898     -7.006688       3.9375193      50218.233      36.893836      36.893836      36.893836    
     66000   0.51700485    -7.7821667     -7.0066704      3.9319556      50218.233      36.893836      36.893836      36.893836    
     67000   0.51504833    -7.7816873     -7.0091258      3.9132903      50218.233      36.893836      36.893836      36.893836    
     68000   0.51511062    -7.780635      -7.0079801      3.9240084      50218.233      36.893836      36.893836      36.893836    
     69000   0.51354442    -7.7826495     -7.0123438      3.9102973      50218.233      36.893836      36.893836      36.893836    
     70000   0.51378018    -7.7825033     -7.011844       3.9156379      50218.233      36.893836      36.893836      36.893836    
     71000   0.51464457    -7.7801056     -7.0081498      3.9302112      50218.233      36.893836      36.893836      36.893836    
     72000   0.51278512    -7.7837056     -7.0145388      3.9153026      50218.233      36.893836      36.893836      36.893836    
     73000   0.51461827    -7.782362      -7.0104456      3.9119819      50218.233      36.893836      36.893836      36.893836    
     74000   0.5147806     -7.7824423     -7.0102824      3.922862       50218.233      36.893836      36.893836      36.893836    
     75000   0.51386662    -7.7761057     -7.0053167      3.9651376      50218.233      36.893836      36.893836      36.893836    
     76000   0.51773029    -7.7789245     -7.0023402      3.9520067      50218.233      36.893836      36.893836      36.893836    
     77000   0.51457691    -7.781548      -7.0096936      3.9265812      50218.233      36.893836      36.893836      36.893836    
     78000   0.51505245    -7.783545      -7.0109773      3.9123436      50218.233      36.893836      36.893836      36.893836    
     79000   0.51753812    -7.7841756     -7.0078795      3.9004922      50218.233      36.893836      36.893836      36.893836    
     80000   0.5165723     -7.7841083     -7.0092609      3.9126487      50218.233      36.893836      36.893836      36.893836    
     81000   0.51300386    -7.7821529     -7.0126581      3.9136781      50218.233      36.893836      36.893836      36.893836    
     82000   0.51524952    -7.7794934     -7.0066301      3.9332092      50218.233      36.893836      36.893836      36.893836    
     83000   0.51722002    -7.7832441     -7.0074251      3.9115007      50218.233      36.893836      36.893836      36.893836    
     84000   0.51767138    -7.7843154     -7.0078194      3.9080328      50218.233      36.893836      36.893836      36.893836    
     85000   0.51475912    -7.7832367     -7.011109       3.9150409      50218.233      36.893836      36.893836      36.893836    
     86000   0.51768442    -7.7817236     -7.005208       3.9165315      50218.233      36.893836      36.893836      36.893836    
     87000   0.51636823    -7.7838451     -7.0093038      3.9045879      50218.233      36.893836      36.893836      36.893836    
     88000   0.5154368     -7.7804159     -7.0072717      3.9371329      50218.233      36.893836      36.893836      36.893836    
     89000   0.51708109    -7.787352      -7.0117414      3.8798046      50218.233      36.893836      36.893836      36.893836    
     90000   0.51233119    -7.7824892     -7.0140033      3.9090999      50218.233      36.893836      36.893836      36.893836    
     91000   0.51397109    -7.7823461     -7.0114004      3.9196013      50218.233      36.893836      36.893836      36.893836    
     92000   0.51096492    -7.7881494     -7.021713       3.8712797      50218.233      36.893836      36.893836      36.893836    
     93000   0.51392562    -7.7900507     -7.0191732      3.8605281      50218.233      36.893836      36.893836      36.893836    
     94000   0.51680646    -7.7874168     -7.0122182      3.8880431      50218.233      36.893836      36.893836      36.893836    
     95000   0.51397521    -7.7812356     -7.0102838      3.9235316      50218.233      36.893836      36.893836      36.893836    
     96000   0.51681453    -7.7858338     -7.0106231      3.8862204      50218.233      36.893836      36.893836      36.893836    
     97000   0.51642158    -7.7840673     -7.009446       3.9085034      50218.233      36.893836      36.893836      36.893836    
     98000   0.51401197    -7.7833494     -7.0123424      3.9127366      50218.233      36.893836      36.893836      36.893836    
     99000   0.51567556    -7.7842803     -7.010778       3.9050224      50218.233      36.893836      36.893836      36.893836    
    100000   0.5177623     -7.7837093     -7.0070769      3.9165579      50218.233      36.893836      36.893836      36.893836    
    101000   0.51402936    -7.7854624     -7.0144293      3.8857187      50218.233      36.893836      36.893836      36.893836    
    102000   0.51633328    -7.7851545     -7.0106656      3.9059566      50218.233      36.893836      36.893836      36.893836    
    103000   0.51472725    -7.7849716     -7.0128918      3.9009206      50218.233      36.893836      36.893836      36.893836    
    104000   0.5145859     -7.7883335     -7.0164657      3.8748619      50218.233      36.893836      36.893836      36.893836    
    105000   0.51582725    -7.7877243     -7.0139944      3.879608       50218.233      36.893836      36.893836      36.893836    
    106000   0.51680012    -7.7826316     -7.0074424      3.9294506      50218.233      36.893836      36.893836      36.893836    
    107000   0.51628603    -7.7809961     -7.0065781      3.9402136      50218.233      36.893836      36.893836      36.893836    
    108000   0.51473086    -7.7792783     -7.007193       3.9340083      50218.233      36.893836      36.893836      36.893836    
    109000   0.51540289    -7.7850934     -7.012          3.8950498      50218.233      36.893836      36.893836      36.893836    
    110000   0.51343991    -7.7846998     -7.0145509      3.8972777      50218.233      36.893836      36.893836      36.893836    
    111000   0.51378497    -7.7822255     -7.011559       3.905919       50218.233      36.893836      36.893836      36.893836    
    112000   0.51602085    -7.786921      -7.0129007      3.878824       50218.233      36.893836      36.893836      36.893836    
    113000   0.51578368    -7.7848005     -7.011136       3.9023436      50218.233      36.893836      36.893836      36.893836    
    114000   0.513396      -7.7819563     -7.0118733      3.9174104      50218.233      36.893836      36.893836      36.893836    
    115000   0.51551773    -7.7851155     -7.0118499      3.9006688      50218.233      36.893836      36.893836      36.893836    
    116000   0.51330308    -7.7827683     -7.0128246      3.9126218      50218.233      36.893836      36.893836      36.893836    
    117000   0.51506586    -7.7831859     -7.0105981      3.9058365      50218.233      36.893836      36.893836      36.893836    
    118000   0.51356061    -7.783081      -7.012751       3.9100226      50218.233      36.893836      36.893836      36.893836    
    119000   0.51503447    -7.7859065     -7.0133658      3.8859036      50218.233      36.893836      36.893836      36.893836    
    120000   0.51491166    -7.7846518     -7.0122953      3.9020083      50218.233      36.893836      36.893836      36.893836    
    121000   0.51667246    -7.781905      -7.0069074      3.9150697      50218.233      36.893836      36.893836      36.893836    
    122000   0.51753592    -7.7861661     -7.0098733      3.8936454      50218.233      36.893836      36.893836      36.893836    
    123000   0.51381161    -7.783169      -7.0124625      3.9151494      50218.233      36.893836      36.893836      36.893836    
    124000   0.51654646    -7.7869903     -7.0121816      3.8802619      50218.233      36.893836      36.893836      36.893836    
    125000   0.51411993    -7.7833509     -7.012182       3.9120942      50218.233      36.893836      36.893836      36.893836    
    126000   0.51469974    -7.7855609     -7.0135223      3.8936267      50218.233      36.893836      36.893836      36.893836    
    127000   0.51701179    -7.7852911     -7.0097844      3.8977916      50218.233      36.893836      36.893836      36.893836    
    128000   0.51559363    -7.7800087     -7.0066293      3.9386615      50218.233      36.893836      36.893836      36.893836    
    129000   0.51521018    -7.7808992     -7.008095       3.9361741      50218.233      36.893836      36.893836      36.893836    
    130000   0.51256048    -7.7863352     -7.0175054      3.8856019      50218.233      36.893836      36.893836      36.893836    
    131000   0.51324042    -7.7804675     -7.0106179      3.9313105      50218.233      36.893836      36.893836      36.893836    
    132000   0.51224329    -7.7816647     -7.0133107      3.9221008      50218.233      36.893836      36.893836      36.893836    
    133000   0.51636149    -7.7865733     -7.0120421      3.8931244      50218.233      36.893836      36.893836      36.893836    
    134000   0.51258377    -7.7808687     -7.012004       3.9235985      50218.233      36.893836      36.893836      36.893836    
    135000   0.5146155     -7.7826239     -7.0107116      3.9232454      50218.233      36.893836      36.893836      36.893836    
    136000   0.51607882    -7.7803833     -7.0062761      3.9303405      50218.233      36.893836      36.893836      36.893836    
    137000   0.51613376    -7.7796484     -7.0054587      3.9408415      50218.233      36.893836      36.893836      36.893836    
    138000   0.51532213    -7.783081      -7.0101088      3.918242       50218.233      36.893836      36.893836      36.893836    
    139000   0.51371875    -7.7850119     -7.0144447      3.8998623      50218.233      36.893836      36.893836      36.893836    
    140000   0.51286194    -7.7846289     -7.0153469      3.8999559      50218.233      36.893836      36.893836      36.893836    
    141000   0.51430448    -7.782815      -7.0113693      3.9211179      50218.233      36.893836      36.893836      36.893836    
    142000   0.51564605    -7.7857787     -7.0123207      3.8956735      50218.233      36.893836      36.893836      36.893836    
    143000   0.51412325    -7.783753      -7.0125791      3.9080418      50218.233      36.893836      36.893836      36.893836    
    144000   0.51489674    -7.7862042     -7.0138701      3.8934699      50218.233      36.893836      36.893836      36.893836    
    145000   0.51343806    -7.7823466     -7.0122005      3.921165       50218.233      36.893836      36.893836      36.893836    
    146000   0.51412253    -7.7815647     -7.0103919      3.9184365      50218.233      36.893836      36.893836      36.893836    
    147000   0.51491268    -7.7833711     -7.0110131      3.9075342      50218.233      36.893836      36.893836      36.893836    
    148000   0.515573      -7.7853595     -7.012011       3.8999501      50218.233      36.893836      36.893836      36.893836    
    149000   0.51845329    -7.7837412     -7.0060724      3.9143749      50218.233      36.893836      36.893836      36.893836    
    150000   0.51539619    -7.7815624     -7.0084791      3.9148585      50218.233      36.893836      36.893836      36.893836    
    151000   0.5146817     -7.7822451     -7.0102336      3.921153       50218.233      36.893836      36.893836      36.893836    
    152000   0.51369313    -7.7803926     -7.0098639      3.9223601      50218.233      36.893836      36.893836      36.893836    
    153000   0.5153729     -7.7771209     -7.0040726      3.9633591      50218.233      36.893836      36.893836      36.893836    
    154000   0.51451196    -7.7801548     -7.0083979      3.9430108      50218.233      36.893836      36.893836      36.893836    
    155000   0.51645286    -7.78186       -7.0071917      3.9263421      50218.233      36.893836      36.893836      36.893836    
    156000   0.5146686     -7.7842899     -7.012298       3.901406       50218.233      36.893836      36.893836      36.893836    
    157000   0.51480726    -7.7820065     -7.0098066      3.9240616      50218.233      36.893836      36.893836      36.893836    
    158000   0.51412352    -7.7781797     -7.0070054      3.9386679      50218.233      36.893836      36.893836      36.893836    
    159000   0.51552418    -7.7854583     -7.012183       3.9106652      50218.233      36.893836      36.893836      36.893836    
    160000   0.51432923    -7.783028      -7.0115451      3.9045829      50218.233      36.893836      36.893836      36.893836    
    161000   0.5125885     -7.7780952     -7.0092234      3.9545623      50218.233      36.893836      36.893836      36.893836    
    162000   0.51820142    -7.7834419     -7.0061508      3.9227124      50218.233      36.893836      36.893836      36.893836    
    163000   0.51435457    -7.7807845     -7.0092637      3.9270047      50218.233      36.893836      36.893836      36.893836    
    164000   0.51482959    -7.7806669     -7.0084335      3.9438233      50218.233      36.893836      36.893836      36.893836    
    165000   0.51457044    -7.7835627     -7.011718       3.9017525      50218.233      36.893836      36.893836      36.893836    
    166000   0.51786673    -7.7799575     -7.0031685      3.9389328      50218.233      36.893836      36.893836      36.893836    
    167000   0.51446758    -7.7830402     -7.0113498      3.9184869      50218.233      36.893836      36.893836      36.893836    
    168000   0.5173201     -7.7835393     -7.0075702      3.910836       50218.233      36.893836      36.893836      36.893836    
    169000   0.51319615    -7.7828217     -7.0130384      3.910401       50218.233      36.893836      36.893836      36.893836    
    170000   0.51565548    -7.7831501     -7.0096778      3.9228329      50218.233      36.893836      36.893836      36.893836    
    171000   0.51473603    -7.7799119     -7.0078189      3.9476354      50218.233      36.893836      36.893836      36.893836    
    172000   0.51074634    -7.7827783     -7.0166697      3.9159206      50218.233      36.893836      36.893836      36.893836    
    173000   0.51503112    -7.7813131     -7.0087774      3.9348         50218.233      36.893836      36.893836      36.893836    
    174000   0.51459864    -7.7801556     -7.0082686      3.9365931      50218.233      36.893836      36.893836      36.893836    
    175000   0.51887107    -7.7836016     -7.0053061      3.9138492      50218.233      36.893836      36.893836      36.893836    
    176000   0.51523174    -7.7810304     -7.0081938      3.9279203      50218.233      36.893836      36.893836      36.893836    
    177000   0.51416647    -7.7818978     -7.010659       3.919593       50218.233      36.893836      36.893836      36.893836    
    178000   0.51476233    -7.7820676     -7.0099351      3.9172696      50218.233      36.893836      36.893836      36.893836    
    179000   0.51768811    -7.7771606     -7.0006395      3.9575982      50218.233      36.893836      36.893836      36.893836    
    180000   0.51467294    -7.7832053     -7.0112069      3.9213924      50218.233      36.893836      36.893836      36.893836    
    181000   0.5166208     -7.7793041     -7.0043839      3.9543235      50218.233      36.893836      36.893836      36.893836    
    182000   0.51495642    -7.7791997     -7.006776       3.9389004      50218.233      36.893836      36.893836      36.893836    
    183000   0.51501419    -7.7824638     -7.0099535      3.9187331      50218.233      36.893836      36.893836      36.893836    
    184000   0.51589674    -7.7765949     -7.0027608      3.9571511      50218.233      36.893836      36.893836      36.893836    
    185000   0.51440457    -7.7793906     -7.0077948      3.9441088      50218.233      36.893836      36.893836      36.893836    
    186000   0.51491126    -7.781049      -7.008693       3.9242337      50218.233      36.893836      36.893836      36.893836    
    187000   0.51493982    -7.7817408     -7.0093421      3.9352798      50218.233      36.893836      36.893836      36.893836    
    188000   0.51380066    -7.7842542     -7.0135642      3.91446        50218.233      36.893836      36.893836      36.893836    
    189000   0.51440013    -7.7808953     -7.0093061      3.9452146      50218.233      36.893836      36.893836      36.893836    
    190000   0.51505422    -7.783047      -7.0104766      3.9194936      50218.233      36.893836      36.893836      36.893836    
    191000   0.51672824    -7.7846873     -7.009606       3.9027869      50218.233      36.893836      36.893836      36.893836    
    192000   0.51601762    -7.7820214     -7.008006       3.9309802      50218.233      36.893836      36.893836      36.893836    
    193000   0.51418923    -7.7764464     -7.0051735      3.9558921      50218.233      36.893836      36.893836      36.893836    
    194000   0.51678982    -7.7796264     -7.0044527      3.9421747      50218.233      36.893836      36.893836      36.893836    
    195000   0.51489301    -7.7783972     -7.0060686      3.9398213      50218.233      36.893836      36.893836      36.893836    
    196000   0.51285158    -7.7800351     -7.0107687      3.923966       50218.233      36.893836      36.893836      36.893836    
    197000   0.51430212    -7.7795391     -7.0080969      3.9416076      50218.233      36.893836      36.893836      36.893836    
    198000   0.51336357    -7.7804925     -7.0104581      3.9327622      50218.233      36.893836      36.893836      36.893836    
    199000   0.51572114    -7.7811124     -7.0075417      3.9347968      50218.233      36.893836      36.893836      36.893836    
    200000   0.51580345    -7.7825493     -7.0088551      3.9140833      50218.233      36.893836      36.893836      36.893836    
    201000   0.51453923    -7.7838384     -7.0120406      3.8904848      50218.233      36.893836      36.893836      36.893836    
    202000   0.51129841    -7.7811671     -7.0142304      3.9147616      50218.233      36.893836      36.893836      36.893836    
    203000   0.51382823    -7.785971      -7.0152396      3.879277       50218.233      36.893836      36.893836      36.893836    
    204000   0.51301209    -7.7799265     -7.0104193      3.9418601      50218.233      36.893836      36.893836      36.893836    
    205000   0.51409273    -7.7827416     -7.0116135      3.9005534      50218.233      36.893836      36.893836      36.893836    
    206000   0.51571304    -7.7866693     -7.0131107      3.8927225      50218.233      36.893836      36.893836      36.893836    
    207000   0.51742393    -7.784305      -7.0081801      3.8963518      50218.233      36.893836      36.893836      36.893836    
    208000   0.51299188    -7.7818049     -7.012328       3.9284282      50218.233      36.893836      36.893836      36.893836    
    209000   0.51552047    -7.7802358     -7.0069661      3.9427793      50218.233      36.893836      36.893836      36.893836    
    210000   0.51404801    -7.7828684     -7.0118073      3.9093468      50218.233      36.893836      36.893836      36.893836    
    211000   0.51415276    -7.7800025     -7.0087843      3.9259786      50218.233      36.893836      36.893836      36.893836    
    212000   0.51464464    -7.7806327     -7.0086767      3.927825       50218.233      36.893836      36.893836      36.893836    
    213000   0.51721496    -7.7813823     -7.0055708      3.9223859      50218.233      36.893836      36.893836      36.893836    
    214000   0.515805      -7.7843601     -7.0106636      3.903902       50218.233      36.893836      36.893836      36.893836    
    215000   0.51442697    -7.7830063     -7.0113768      3.9008145      50218.233      36.893836      36.893836      36.893836    
    216000   0.51420176    -7.7824505     -7.0111588      3.9169196      50218.233      36.893836      36.893836      36.893836    
    217000   0.51475518    -7.7849745     -7.0128527      3.9107963      50218.233      36.893836      36.893836      36.893836    
    218000   0.51491695    -7.7792382     -7.0068737      3.9449207      50218.233      36.893836      36.893836      36.893836    
    219000   0.51268297    -7.7814744     -7.0124609      3.9286314      50218.233      36.893836      36.893836      36.893836    
    220000   0.51493902    -7.7811838     -7.0087862      3.9257822      50218.233      36.893836      36.893836      36.893836    
    221000   0.5175167     -7.7807825     -7.0045185      3.9161966      50218.233      36.893836      36.893836      36.893836    
    222000   0.51224987    -7.7826205     -7.0142566      3.9145592      50218.233      36.893836      36.893836      36.893836    
    223000   0.51521299    -7.7794961     -7.0066876      3.9285087      50218.233      36.893836      36.893836      36.893836    
    224000   0.51556549    -7.7832773     -7.00994        3.9038638      50218.233      36.893836      36.893836      36.893836    
    225000   0.51838527    -7.7878022     -7.0102354      3.8804131      50218.233      36.893836      36.893836      36.893836    
    226000   0.51362698    -7.7831638     -7.0127343      3.9179776      50218.233      36.893836      36.893836      36.893836    
    227000   0.51364265    -7.7852561     -7.0148031      3.8908249      50218.233      36.893836      36.893836      36.893836    
    228000   0.51627191    -7.7807695     -7.0063727      3.9277452      50218.233      36.893836      36.893836      36.893836    
    229000   0.51456382    -7.7801995     -7.0083647      3.9250518      50218.233      36.893836      36.893836      36.893836    
    230000   0.51472992    -7.7875758     -7.0154919      3.8764316      50218.233      36.893836      36.893836      36.893836    
    231000   0.51436659    -7.7807785     -7.0092396      3.9250551      50218.233      36.893836      36.893836      36.893836    
    232000   0.51656535    -7.7833273     -7.0084903      3.907885       50218.233      36.893836      36.893836      36.893836    
    233000   0.51794409    -7.7843876     -7.0074825      3.9030502      50218.233      36.893836      36.893836      36.893836    
    234000   0.51508477    -7.7798842     -7.0072681      3.9427561      50218.233      36.893836      36.893836      36.893836    
    235000   0.51573831    -7.7800891     -7.0064926      3.9409455      50218.233      36.893836      36.893836      36.893836    
    236000   0.51515547    -7.7809062     -7.008184       3.9361101      50218.233      36.893836      36.893836      36.893836    
    237000   0.51409524    -7.7838649     -7.012733       3.902806       50218.233      36.893836      36.893836      36.893836    
    238000   0.51645899    -7.7857288     -7.0110513      3.8952126      50218.233      36.893836      36.893836      36.893836    
    239000   0.51590737    -7.7861133     -7.0122633      3.8854999      50218.233      36.893836      36.893836      36.893836    
    240000   0.51489076    -7.7826382     -7.0103131      3.926367       50218.233      36.893836      36.893836      36.893836    
    241000   0.51367454    -7.7826604     -7.0121596      3.914772       50218.233      36.893836      36.893836      36.893836    
    242000   0.51480618    -7.7819334     -7.0097351      3.9254661      50218.233      36.893836      36.893836      36.893836    
    243000   0.51115778    -7.7825004     -7.0157746      3.9100878      50218.233      36.893836      36.893836      36.893836    
    244000   0.5153196     -7.7774688     -7.0045004      3.9640614      50218.233      36.893836      36.893836      36.893836    
    245000   0.51502626    -7.7798636     -7.0073352      3.9231367      50218.233      36.893836      36.893836      36.893836    
    246000   0.51540855    -7.7862347     -7.0131329      3.8864828      50218.233      36.893836      36.893836      36.893836    
    247000   0.51532769    -7.7784674     -7.0054868      3.943312       50218.233      36.893836      36.893836      36.893836    
    248000   0.5162705     -7.7830278     -7.0086331      3.9065781      50218.233      36.893836      36.893836      36.893836    
    249000   0.51391769    -7.7872486     -7.016383       3.8898403      50218.233      36.893836      36.893836      36.893836    
    250000   0.51757209    -7.7839468     -7.0075997      3.9070779      50218.233      36.893836      36.893836      36.893836    
    251000   0.51277583    -7.7824758     -7.013323       3.912058       50218.233      36.893836      36.893836      36.893836    
    252000   0.51147981    -7.7844889     -7.0172801      3.883917       50218.233      36.893836      36.893836      36.893836    
    253000   0.51401457    -7.782095      -7.0110841      3.9171561      50218.233      36.893836      36.893836      36.893836    
    254000   0.5129553     -7.7859492     -7.0165272      3.8834507      50218.233      36.893836      36.893836      36.893836    
    255000   0.51418823    -7.781384      -7.0101126      3.915651       50218.233      36.893836      36.893836      36.893836    
    256000   0.51469725    -7.7834528     -7.0114179      3.9055952      50218.233      36.893836      36.893836      36.893836    
    257000   0.51408353    -7.7798389     -7.0087246      3.9333669      50218.233      36.893836      36.893836      36.893836    
    258000   0.51550666    -7.7752851     -7.0020361      3.9598306      50218.233      36.893836      36.893836      36.893836    
    259000   0.51593213    -7.7813282     -7.007441       3.9284075      50218.233      36.893836      36.893836      36.893836    
    260000   0.51570418    -7.7797665     -7.0062213      3.9308899      50218.233      36.893836      36.893836      36.893836    
    261000   0.51620345    -7.7828586     -7.0085645      3.9118841      50218.233      36.893836      36.893836      36.893836    
    262000   0.51551735    -7.7792373     -7.0059723      3.9318715      50218.233      36.893836      36.893836      36.893836    
    263000   0.51478529    -7.7796062     -7.0074392      3.92682        50218.233      36.893836      36.893836      36.893836    
    264000   0.51514936    -7.7777657     -7.0050526      3.9461392      50218.233      36.893836      36.893836      36.893836    
    265000   0.51441239    -7.7804073     -7.0087997      3.9385911      50218.233      36.893836      36.893836      36.893836    
    266000   0.51490328    -7.7799175     -7.0075736      3.9435472      50218.233      36.893836      36.893836      36.893836    
    267000   0.51354265    -7.7811922     -7.0108892      3.9205905      50218.233      36.893836      36.893836      36.893836    
    268000   0.51467227    -7.7854215     -7.0134241      3.8927512      50218.233      36.893836      36.893836      36.893836    
    269000   0.51380944    -7.7800484     -7.0093452      3.9378929      50218.233      36.893836      36.893836      36.893836    
    270000   0.51442181    -7.7840704     -7.0124487      3.8948714      50218.233      36.893836      36.893836      36.893836    
    271000   0.51364379    -7.7833438     -7.0128891      3.9053154      50218.233      36.893836      36.893836      36.893836    
    272000   0.51822282    -7.7810353     -7.0037122      3.9326045      50218.233      36.893836      36.893836      36.893836    
    273000   0.51304899    -7.7773375     -7.007775       3.9562268      50218.233      36.893836      36.893836      36.893836    
    274000   0.51651804    -7.7796619     -7.0048959      3.9333102      50218.233      36.893836      36.893836      36.893836    
    275000   0.51379168    -7.7812026     -7.0105261      3.9228534      50218.233      36.893836      36.893836      36.893836    
    276000   0.5151734     -7.7807191     -7.00797        3.932903       50218.233      36.893836      36.893836      36.893836    
    277000   0.51309565    -7.7795058     -7.0098733      3.9390724      50218.233      36.893836      36.893836      36.893836    
    278000   0.51588238    -7.7803886     -7.006576       3.9336818      50218.233      36.893836      36.893836      36.893836    
    279000   0.51568293    -7.7829271     -7.0094137      3.9184346      50218.233      36.893836      36.893836      36.893836    
    280000   0.51499133    -7.7854128     -7.0129368      3.8923712      50218.233      36.893836      36.893836      36.893836    
    281000   0.51418267    -7.7851528     -7.0138898      3.8805943      50218.233      36.893836      36.893836      36.893836    
    282000   0.51639412    -7.777808      -7.0032279      3.9504157      50218.233      36.893836      36.893836      36.893836    
    283000   0.51356686    -7.7790348     -7.0086954      3.9430534      50218.233      36.893836      36.893836      36.893836    
    284000   0.51565179    -7.7831617     -7.009695       3.9208571      50218.233      36.893836      36.893836      36.893836    
    285000   0.51339057    -7.7820861     -7.0120112      3.9250183      50218.233      36.893836      36.893836      36.893836    
    286000   0.51464792    -7.7805667     -7.0086058      3.9311138      50218.233      36.893836      36.893836      36.893836    
    287000   0.51474963    -7.7807903     -7.0086768      3.92033        50218.233      36.893836      36.893836      36.893836    
    288000   0.51532139    -7.7834776     -7.0105065      3.9096626      50218.233      36.893836      36.893836      36.893836    
    289000   0.51589722    -7.7816088     -7.007774       3.9235379      50218.233      36.893836      36.893836      36.893836    
    290000   0.51761572    -7.7802212     -7.0038087      3.9475355      50218.233      36.893836      36.893836      36.893836    
    291000   0.51520826    -7.7831095     -7.0103081      3.9098803      50218.233      36.893836      36.893836      36.893836    
    292000   0.51375028    -7.7835784     -7.0129639      3.895796       50218.233      36.893836      36.893836      36.893836    
    293000   0.51616558    -7.7816615     -7.0074241      3.9219718      50218.233      36.893836      36.893836      36.893836    
    294000   0.51218376    -7.7814421     -7.0131774      3.9226167      50218.233      36.893836      36.893836      36.893836    
    295000   0.51791072    -7.7850851     -7.0082301      3.9002909      50218.233      36.893836      36.893836      36.893836    
    296000   0.51283299    -7.7800245     -7.0107859      3.9366837      50218.233      36.893836      36.893836      36.893836    
    297000   0.5142568     -7.7798502     -7.008476       3.9296194      50218.233      36.893836      36.893836      36.893836    
    298000   0.51354116    -7.7839962     -7.0136954      3.9075204      50218.233      36.893836      36.893836      36.893836    
    299000   0.51500723    -7.7804517     -7.0079519      3.9323156      50218.233      36.893836      36.893836      36.893836    
    300000   0.5147543     -7.7849236     -7.0128032      3.8886657      50218.233      36.893836      36.893836      36.893836    
    301000   0.51388609    -7.7808646     -7.0100465      3.922922       50218.233      36.893836      36.893836      36.893836    
    302000   0.51765979    -7.7832781     -7.0067994      3.92091        50218.233      36.893836      36.893836      36.893836    
    303000   0.51470388    -7.7821242     -7.0100794      3.9143882      50218.233      36.893836      36.893836      36.893836    
    304000   0.51585993    -7.7796402     -7.0058614      3.9376729      50218.233      36.893836      36.893836      36.893836    
    305000   0.51796028    -7.7782122     -7.0012829      3.9505694      50218.233      36.893836      36.893836      36.893836    
    306000   0.51527546    -7.7866478     -7.0137456      3.8774943      50218.233      36.893836      36.893836      36.893836    
    307000   0.51373286    -7.7787251     -7.0081368      3.9397039      50218.233      36.893836      36.893836      36.893836    
    308000   0.51397286    -7.7798733     -7.008925       3.9355222      50218.233      36.893836      36.893836      36.893836    
    309000   0.51568337    -7.7854646     -7.0119505      3.8884135      50218.233      36.893836      36.893836      36.893836    
    310000   0.51842037    -7.7785676     -7.0009481      3.951134       50218.233      36.893836      36.893836      36.893836    
    311000   0.51365796    -7.7822606     -7.0117846      3.9032153      50218.233      36.893836      36.893836      36.893836    
    312000   0.51711721    -7.7819638     -7.006299       3.9266595      50218.233      36.893836      36.893836      36.893836    
    313000   0.5140998     -7.7825203     -7.0113815      3.9068387      50218.233      36.893836      36.893836      36.893836    
    314000   0.51604099    -7.7802545     -7.0062041      3.9332172      50218.233      36.893836      36.893836      36.893836    
    315000   0.51709456    -7.7851485     -7.0095177      3.8941744      50218.233      36.893836      36.893836      36.893836    
    316000   0.51443083    -7.7826849     -7.0110496      3.9141336      50218.233      36.893836      36.893836      36.893836    
    317000   0.51364782    -7.7797249     -7.0092642      3.9427634      50218.233      36.893836      36.893836      36.893836    
    318000   0.51525879    -7.7810874     -7.0082102      3.9390597      50218.233      36.893836      36.893836      36.893836    
    319000   0.51674636    -7.7808302     -7.0057217      3.930304       50218.233      36.893836      36.893836      36.893836    
    320000   0.51442565    -7.7797059     -7.0080784      3.9352387      50218.233      36.893836      36.893836      36.893836    
    321000   0.51566687    -7.7802107     -7.0067214      3.9392398      50218.233      36.893836      36.893836      36.893836    
    322000   0.51382614    -7.77992       -7.0091917      3.9431825      50218.233      36.893836      36.893836      36.893836    
    323000   0.51811521    -7.7810459     -7.0038841      3.9258707      50218.233      36.893836      36.893836      36.893836    
    324000   0.51658343    -7.7812532     -7.006389       3.9242793      50218.233      36.893836      36.893836      36.893836    
    325000   0.5161377     -7.780039      -7.0058434      3.9332077      50218.233      36.893836      36.893836      36.893836    
    326000   0.51418594    -7.783027      -7.011759       3.9034213      50218.233      36.893836      36.893836      36.893836    
    327000   0.51393346    -7.7785438     -7.0076546      3.9399241      50218.233      36.893836      36.893836      36.893836    
    328000   0.51654795    -7.7861112     -7.0113003      3.8900403      50218.233      36.893836      36.893836      36.893836    
    329000   0.5131993     -7.7838094     -7.0140214      3.9034697      50218.233      36.893836      36.893836      36.893836    
    330000   0.51622751    -7.7818125     -7.0074823      3.9140623      50218.233      36.893836      36.893836      36.893836    
    331000   0.51570339    -7.7784206     -7.0048765      3.9376614      50218.233      36.893836      36.893836      36.893836    
    332000   0.51374551    -7.7830318     -7.0124245      3.9067146      50218.233      36.893836      36.893836      36.893836    
    333000   0.514175      -7.7771827     -7.0059311      3.9525014      50218.233      36.893836      36.893836      36.893836    
    334000   0.51297188    -7.7793195     -7.0098727      3.9340595      50218.233      36.893836      36.893836      36.893836    
    335000   0.51362752    -7.7826481     -7.0122178      3.9091904      50218.233      36.893836      36.893836      36.893836    
    336000   0.51416274    -7.7817877     -7.0105546      3.9123581      50218.233      36.893836      36.893836      36.893836    
    337000   0.5155772     -7.7811387     -7.0077839      3.9187715      50218.233      36.893836      36.893836      36.893836    
    338000   0.51591159    -7.782046      -7.0081896      3.918996       50218.233      36.893836      36.893836      36.893836    
    339000   0.51621431    -7.78066       -7.0063495      3.919516       50218.233      36.893836      36.893836      36.893836    
    340000   0.515113      -7.7780749     -7.0054164      3.9486451      50218.233      36.893836      36.893836      36.893836    
    341000   0.5176061     -7.78119       -7.0047919      3.9267633      50218.233      36.893836      36.893836      36.893836    
    342000   0.51625853    -7.7844253     -7.0100485      3.8997183      50218.233      36.893836      36.893836      36.893836    
    343000   0.51335141    -7.7817466     -7.0117305      3.9139685      50218.233      36.893836      36.893836      36.893836    
    344000   0.51902119    -7.7797066     -7.0011859      3.9319669      50218.233      36.893836      36.893836      36.893836    
    345000   0.51626132    -7.7824671     -7.0080862      3.9170516      50218.233      36.893836      36.893836      36.893836    
    346000   0.51437313    -7.77755       -7.0060013      3.9534764      50218.233      36.893836      36.893836      36.893836    
    347000   0.51633477    -7.7837295     -7.0092384      3.9012489      50218.233      36.893836      36.893836      36.893836    
    348000   0.51438222    -7.7818464     -7.0102841      3.9224706      50218.233      36.893836      36.893836      36.893836    
    349000   0.51426132    -7.7788934     -7.0075124      3.9285577      50218.233      36.893836      36.893836      36.893836    
    350000   0.51474833    -7.7779622     -7.0058507      3.9406789      50218.233      36.893836      36.893836      36.893836    
    351000   0.51645812    -7.780263      -7.0055869      3.9294072      50218.233      36.893836      36.893836      36.893836    
    352000   0.51651468    -7.7822534     -7.0074924      3.9129136      50218.233      36.893836      36.893836      36.893836    
    353000   0.51498169    -7.7847207     -7.0122592      3.8933222      50218.233      36.893836      36.893836      36.893836    
    354000   0.51832269    -7.7828202     -7.0053472      3.905098       50218.233      36.893836      36.893836      36.893836    
    355000   0.51322372    -7.7805265     -7.0107019      3.9222262      50218.233      36.893836      36.893836      36.893836    
    356000   0.51644691    -7.7803442     -7.0056849      3.9287969      50218.233      36.893836      36.893836      36.893836    
    357000   0.5132682     -7.783538      -7.0136466      3.9081814      50218.233      36.893836      36.893836      36.893836    
    358000   0.51632669    -7.7851765     -7.0106974      3.8943695      50218.233      36.893836      36.893836      36.893836    
    359000   0.5151186     -7.7818888     -7.0092219      3.9145104      50218.233      36.893836      36.893836      36.893836    
    360000   0.51591844    -7.7823956     -7.0085289      3.9163749      50218.233      36.893836      36.893836      36.893836    
    361000   0.51427375    -7.7803668     -7.0089671      3.9251977      50218.233      36.893836      36.893836      36.893836    
    362000   0.51558299    -7.7803259     -7.0069624      3.9377572      50218.233      36.893836      36.893836      36.893836    
    363000   0.51784852    -7.7795491     -7.0027874      3.9443501      50218.233      36.893836      36.893836      36.893836    
    364000   0.51603417    -7.7779446     -7.0039044      3.9540993      50218.233      36.893836      36.893836      36.893836    
    365000   0.51593       -7.7825191     -7.0086352      3.9163338      50218.233      36.893836      36.893836      36.893836    
    366000   0.51556735    -7.7765532     -7.0032132      3.9543728      50218.233      36.893836      36.893836      36.893836    
    367000   0.5142779     -7.7814579     -7.010052       3.9295214      50218.233      36.893836      36.893836      36.893836    
    368000   0.5141168     -7.7762569     -7.0050927      3.96745        50218.233      36.893836      36.893836      36.893836    
    369000   0.51422454    -7.7813917     -7.0100659      3.9211667      50218.233      36.893836      36.893836      36.893836    
    370000   0.5162577     -7.7827205     -7.0083449      3.9074921      50218.233      36.893836      36.893836      36.893836    
    371000   0.5171111     -7.778629      -7.0029734      3.9440971      50218.233      36.893836      36.893836      36.893836    
    372000   0.51213176    -7.7800689     -7.0118822      3.9310229      50218.233      36.893836      36.893836      36.893836    
    373000   0.51628929    -7.7843833     -7.0099604      3.8918023      50218.233      36.893836      36.893836      36.893836    
    374000   0.51406599    -7.7828461     -7.011758       3.9014983      50218.233      36.893836      36.893836      36.893836    
    375000   0.51517064    -7.7826179     -7.0098729      3.9140725      50218.233      36.893836      36.893836      36.893836    
    376000   0.51384744    -7.7821496     -7.0113894      3.9048092      50218.233      36.893836      36.893836      36.893836    
    377000   0.51587443    -7.7843184     -7.0105178      3.8976857      50218.233      36.893836      36.893836      36.893836    
    378000   0.51551782    -7.780921      -7.0076553      3.9334325      50218.233      36.893836      36.893836      36.893836    
    379000   0.51534042    -7.784752      -7.0117524      3.904718       50218.233      36.893836      36.893836      36.893836    
    380000   0.51597805    -7.782243      -7.0082869      3.9231002      50218.233      36.893836      36.893836      36.893836    
    381000   0.51347283    -7.7830852     -7.0128869      3.9065704      50218.233      36.893836      36.893836      36.893836    
    382000   0.5159596     -7.7777472     -7.0038188      3.9413617      50218.233      36.893836      36.893836      36.893836    
    383000   0.51492089    -7.7827259     -7.0103555      3.9148937      50218.233      36.893836      36.893836      36.893836    
    384000   0.5142878     -7.7853452     -7.0139245      3.8900414      50218.233      36.893836      36.893836      36.893836    
    385000   0.51215572    -7.7832783     -7.0150557      3.9099095      50218.233      36.893836      36.893836      36.893836    
    386000   0.51519381    -7.7819754     -7.0091957      3.9149994      50218.233      36.893836      36.893836      36.893836    
    387000   0.51589484    -7.7808767     -7.0070455      3.9270142      50218.233      36.893836      36.893836      36.893836    
    388000   0.5138999     -7.7781441     -7.0073053      3.9456827      50218.233      36.893836      36.893836      36.893836    
    389000   0.51446458    -7.7847336     -7.0130477      3.8953178      50218.233      36.893836      36.893836      36.893836    
    390000   0.51494125    -7.7808716     -7.0084707      3.9270157      50218.233      36.893836      36.893836      36.893836    
    391000   0.51601316    -7.7821215     -7.0081128      3.9261664      50218.233      36.893836      36.893836      36.893836    
    392000   0.51130658    -7.7776685     -7.0107195      3.9448455      50218.233      36.893836      36.893836      36.893836    
    393000   0.51377934    -7.7818428     -7.0111847      3.9249522      50218.233      36.893836      36.893836      36.893836    
    394000   0.51543329    -7.7802043     -7.0070653      3.9305141      50218.233      36.893836      36.893836      36.893836    
    395000   0.51338477    -7.7827681     -7.0127019      3.9209507      50218.233      36.893836      36.893836      36.893836    
    396000   0.51605681    -7.784476      -7.0104018      3.9088854      50218.233      36.893836      36.893836      36.893836    
    397000   0.51827056    -7.781161      -7.0037662      3.9238234      50218.233      36.893836      36.893836      36.893836    
    398000   0.51316191    -7.7775386     -7.0078067      3.9554038      50218.233      36.893836      36.893836      36.893836    
    399000   0.51604593    -7.7809497     -7.0068918      3.9243614      50218.233      36.893836      36.893836      36.893836    
    400000   0.51486769    -7.7816503     -7.0093598      3.9114621      50218.233      36.893836      36.893836      36.893836    
    401000   0.51736623    -7.7830214     -7.0069831      3.9196917      50218.233      36.893836      36.893836      36.893836    
    402000   0.515706      -7.7826779     -7.0091299      3.9139165      50218.233      36.893836      36.893836      36.893836    
    403000   0.51265568    -7.7840624     -7.0150898      3.8966396      50218.233      36.893836      36.893836      36.893836    
    404000   0.51523188    -7.7825573     -7.0097204      3.915707       50218.233      36.893836      36.893836      36.893836    
    405000   0.51607104    -7.7800098     -7.0059142      3.9231742      50218.233      36.893836      36.893836      36.893836    
    406000   0.51537697    -7.7805041     -7.0074497      3.9277458      50218.233      36.893836      36.893836      36.893836    
    407000   0.51218077    -7.7815537     -7.0132934      3.9210011      50218.233      36.893836      36.893836      36.893836    
    408000   0.51453383    -7.7821633     -7.0103735      3.9210385      50218.233      36.893836      36.893836      36.893836    
    409000   0.51304989    -7.7800161     -7.0104523      3.9259842      50218.233      36.893836      36.893836      36.893836    
    410000   0.51545591    -7.7816931     -7.0085202      3.9205409      50218.233      36.893836      36.893836      36.893836    
    411000   0.51223212    -7.7863309     -7.0179937      3.8789622      50218.233      36.893836      36.893836      36.893836    
    412000   0.51393071    -7.7735704     -7.0026853      3.9827005      50218.233      36.893836      36.893836      36.893836    
    413000   0.5133252     -7.7795428     -7.0095659      3.9364257      50218.233      36.893836      36.893836      36.893836    
    414000   0.51289801    -7.7791594     -7.0098234      3.9381604      50218.233      36.893836      36.893836      36.893836    
    415000   0.514572      -7.7835106     -7.0116636      3.9124379      50218.233      36.893836      36.893836      36.893836    
    416000   0.515741      -7.7771297     -7.0035292      3.9592627      50218.233      36.893836      36.893836      36.893836    
    417000   0.5121816     -7.779065      -7.0108035      3.9412328      50218.233      36.893836      36.893836      36.893836    
    418000   0.51489734    -7.7768505     -7.0045155      3.9471621      50218.233      36.893836      36.893836      36.893836    
    419000   0.51681922    -7.7827116     -7.0074938      3.9079885      50218.233      36.893836      36.893836      36.893836    
    420000   0.51515895    -7.7803103     -7.0075829      3.9289846      50218.233      36.893836      36.893836      36.893836    
    421000   0.51642807    -7.7778211     -7.00319        3.9509896      50218.233      36.893836      36.893836      36.893836    
    422000   0.51722502    -7.7808838     -7.0050573      3.9264211      50218.233      36.893836      36.893836      36.893836    
    423000   0.51601132    -7.7824571     -7.0084512      3.9161594      50218.233      36.893836      36.893836      36.893836    
    424000   0.5160177     -7.7774288     -7.0034132      3.9664599      50218.233      36.893836      36.893836      36.893836    
    425000   0.51524327    -7.7796615     -7.0068076      3.9449858      50218.233      36.893836      36.893836      36.893836    
    426000   0.51586314    -7.7799505     -7.0061668      3.9320504      50218.233      36.893836      36.893836      36.893836    
    427000   0.51676408    -7.7809427     -7.0058077      3.9345775      50218.233      36.893836      36.893836      36.893836    
    428000   0.51474393    -7.7781564     -7.0060514      3.9521902      50218.233      36.893836      36.893836      36.893836    
    429000   0.51446028    -7.7798696     -7.0081901      3.9352944      50218.233      36.893836      36.893836      36.893836    
    430000   0.51483589    -7.7803023     -7.0080594      3.9369645      50218.233      36.893836      36.893836      36.893836    
    431000   0.51568264    -7.779057      -7.005544       3.9359983      50218.233      36.893836      36.893836      36.893836    
    432000   0.51546834    -7.7840685     -7.010877       3.9101598      50218.233      36.893836      36.893836      36.893836    
    433000   0.51627672    -7.7804526     -7.0060486      3.9257084      50218.233      36.893836      36.893836      36.893836    
    434000   0.51628914    -7.7799392     -7.0055165      3.9343871      50218.233      36.893836      36.893836      36.893836    
    435000   0.51127645    -7.7804361     -7.0135324      3.9313478      50218.233      36.893836      36.893836      36.893836    
    436000   0.51583593    -7.781885      -7.0081421      3.9289669      50218.233      36.893836      36.893836      36.893836    
    437000   0.51573266    -7.7815991     -7.0080112      3.930413       50218.233      36.893836      36.893836      36.893836    
    438000   0.51717412    -7.7822429     -7.0064928      3.9185292      50218.233      36.893836      36.893836      36.893836    
    439000   0.51572218    -7.7827946     -7.0092223      3.9116971      50218.233      36.893836      36.893836      36.893836    
    440000   0.51655864    -7.7771179     -7.002291       3.954553       50218.233      36.893836      36.893836      36.893836    
    441000   0.51372925    -7.7828396     -7.0122567      3.9177957      50218.233      36.893836      36.893836      36.893836    
    442000   0.51552003    -7.776746      -7.003477       3.952947       50218.233      36.893836      36.893836      36.893836    
    443000   0.51584027    -7.7788984     -7.005149       3.9469694      50218.233      36.893836      36.893836      36.893836    
    444000   0.5126487     -7.7799871     -7.011025       3.9220184      50218.233      36.893836      36.893836      36.893836    
    445000   0.51457874    -7.777834      -7.0059769      3.9515286      50218.233      36.893836      36.893836      36.893836    
    446000   0.51741936    -7.7814741     -7.0053561      3.9179774      50218.233      36.893836      36.893836      36.893836    
    447000   0.51473985    -7.7777315     -7.0056327      3.9514653      50218.233      36.893836      36.893836      36.893836    
    448000   0.51245453    -7.7812209     -7.01255        3.9198568      50218.233      36.893836      36.893836      36.893836    
    449000   0.5182305     -7.7768305     -6.9994959      3.9615395      50218.233      36.893836      36.893836      36.893836    
    450000   0.51317834    -7.7837757     -7.0140191      3.9010155      50218.233      36.893836      36.893836      36.893836    
    451000   0.51400581    -7.7752967     -7.004299       3.9666108      50218.233      36.893836      36.893836      36.893836    
    452000   0.51526655    -7.776801      -7.0039122      3.9566945      50218.233      36.893836      36.893836      36.893836    
    453000   0.51201848    -7.7785604     -7.0105436      3.9324503      50218.233      36.893836      36.893836      36.893836    
    454000   0.51380895    -7.779286      -7.0085836      3.9346783      50218.233      36.893836      36.893836      36.893836    
    455000   0.51448321    -7.7827664     -7.0110525      3.9183928      50218.233      36.893836      36.893836      36.893836    
    456000   0.51716404    -7.7780493     -7.0023143      3.9504419      50218.233      36.893836      36.893836      36.893836    
    457000   0.51210625    -7.7768035     -7.0086551      3.9536746      50218.233      36.893836      36.893836      36.893836    
    458000   0.5154365     -7.7785074     -7.0053636      3.9430725      50218.233      36.893836      36.893836      36.893836    
    459000   0.51402577    -7.7761065     -7.0050788      3.957004       50218.233      36.893836      36.893836      36.893836    
    460000   0.51472209    -7.7802517     -7.0081795      3.9309749      50218.233      36.893836      36.893836      36.893836    
    461000   0.51630243    -7.7777451     -7.0033025      3.9453276      50218.233      36.893836      36.893836      36.893836    
    462000   0.5142583     -7.7828825     -7.0115061      3.9060809      50218.233      36.893836      36.893836      36.893836    
    463000   0.51187673    -7.7798077     -7.0120036      3.9216832      50218.233      36.893836      36.893836      36.893836    
    464000   0.51328959    -7.7792644     -7.009341       3.9332669      50218.233      36.893836      36.893836      36.893836    
    465000   0.51645666    -7.7815397     -7.0068657      3.9281845      50218.233      36.893836      36.893836      36.893836    
    466000   0.51720919    -7.7810084     -7.0052057      3.933199       50218.233      36.893836      36.893836      36.893836    
    467000   0.51496873    -7.7798184     -7.0073763      3.9277233      50218.233      36.893836      36.893836      36.893836    
    468000   0.51684248    -7.7769541     -7.0017014      3.9496823      50218.233      36.893836      36.893836      36.893836    
    469000   0.5181698     -7.7801965     -7.0029529      3.9364861      50218.233      36.893836      36.893836      36.893836    
    470000   0.51348556    -7.7789722     -7.0087548      3.9320098      50218.233      36.893836      36.893836      36.893836    
    471000   0.51633441    -7.7853524     -7.0108618      3.8860055      50218.233      36.893836      36.893836      36.893836    
    472000   0.51443742    -7.7807571     -7.009112       3.9271957      50218.233      36.893836      36.893836      36.893836    
    473000   0.51454304    -7.7768829     -7.0050793      3.9548185      50218.233      36.893836      36.893836      36.893836    
    474000   0.51883438    -7.7782412     -7.0000007      3.9583365      50218.233      36.893836      36.893836      36.893836    
    475000   0.5154113     -7.7785548     -7.0054489      3.9338807      50218.233      36.893836      36.893836      36.893836    
    476000   0.51378575    -7.7784769     -7.0078092      3.9388609      50218.233      36.893836      36.893836      36.893836    
    477000   0.5121963     -7.7761647     -7.0078812      3.9588238      50218.233      36.893836      36.893836      36.893836    
    478000   0.51051878    -7.77521       -7.0094427      3.9647624      50218.233      36.893836      36.893836      36.893836    
    479000   0.51418129    -7.7783519     -7.0070909      3.9470827      50218.233      36.893836      36.893836      36.893836    
    480000   0.517486      -7.7801948     -7.0039768      3.9389595      50218.233      36.893836      36.893836      36.893836    
    481000   0.51212464    -7.780228      -7.012052       3.9167704      50218.233      36.893836      36.893836      36.893836    
    482000   0.51416835    -7.7820186     -7.010777       3.9214497      50218.233      36.893836      36.893836      36.893836    
    483000   0.51556739    -7.7749911     -7.001651       3.9728467      50218.233      36.893836      36.893836      36.893836    
    484000   0.51464773    -7.7765003     -7.0045397      3.9558896      50218.233      36.893836      36.893836      36.893836    
    485000   0.51736654    -7.7797826     -7.0037438      3.9429479      50218.233      36.893836      36.893836      36.893836    
    486000   0.51490463    -7.7798214     -7.0074754      3.938924       50218.233      36.893836      36.893836      36.893836    
    487000   0.51520062    -7.7816157     -7.0088258      3.9223702      50218.233      36.893836      36.893836      36.893836    
    488000   0.51455937    -7.7804151     -7.0085871      3.9238355      50218.233      36.893836      36.893836      36.893836    
    489000   0.514527      -7.7814204     -7.0096409      3.9064317      50218.233      36.893836      36.893836      36.893836    
    490000   0.51342786    -7.7785158     -7.008385       3.9371295      50218.233      36.893836      36.893836      36.893836    
    491000   0.51516373    -7.7764315     -7.0036969      3.9569628      50218.233      36.893836      36.893836      36.893836    
    492000   0.51269522    -7.7790529     -7.010021       3.9343594      50218.233      36.893836      36.893836      36.893836    
    493000   0.5143637     -7.77924       -7.0077054      3.9290176      50218.233      36.893836      36.893836      36.893836    
    494000   0.5166656     -7.7788392     -7.0038518      3.9387446      50218.233      36.893836      36.893836      36.893836    
    495000   0.51433817    -7.7801707     -7.0086744      3.9286077      50218.233      36.893836      36.893836      36.893836    
    496000   0.51564896    -7.7799529     -7.0064905      3.9269245      50218.233      36.893836      36.893836      36.893836    
    497000   0.51573305    -7.7783247     -7.0047361      3.9406388      50218.233      36.893836      36.893836      36.893836    
    498000   0.51495709    -7.7789105     -7.0064858      3.9380319      50218.233      36.893836      36.893836      36.893836    
    499000   0.51597899    -7.779696      -7.0057386      3.9390611      50218.233      36.893836      36.893836      36.893836    
    500000   0.51400143    -7.7791143     -7.0081232      3.9393118      50218.233      36.893836      36.893836      36.893836    
    501000   0.51686167    -7.780236      -7.0049545      3.9324262      50218.233      36.893836      36.893836      36.893836    
    502000   0.51425093    -7.7822031     -7.0108377      3.9173508      50218.233      36.893836      36.893836      36.893836    
    503000   0.51594003    -7.7799267     -7.0060277      3.9292476      50218.233      36.893836      36.893836      36.893836    
    504000   0.51813448    -7.7841524     -7.0069617      3.912605       50218.233      36.893836      36.893836      36.893836    
    505000   0.51474118    -7.7822893     -7.0101885      3.9188256      50218.233      36.893836      36.893836      36.893836    
    506000   0.51450631    -7.7805278     -7.0087793      3.9229032      50218.233      36.893836      36.893836      36.893836    
    507000   0.51529479    -7.7759072     -7.002976       3.9756066      50218.233      36.893836      36.893836      36.893836    
    508000   0.51362228    -7.7825499     -7.0121274      3.9055315      50218.233      36.893836      36.893836      36.893836    
    509000   0.51249285    -7.7806052     -7.0118768      3.9172479      50218.233      36.893836      36.893836      36.893836    
    510000   0.51259462    -7.7789237     -7.0100427      3.9451893      50218.233      36.893836      36.893836      36.893836    
    511000   0.513001      -7.7785965     -7.0091059      3.9422231      50218.233      36.893836      36.893836      36.893836    
    512000   0.51541111    -7.7785586     -7.005453       3.9378984      50218.233      36.893836      36.893836      36.893836    
    513000   0.51805845    -7.7756433     -6.9985666      3.9813164      50218.233      36.893836      36.893836      36.893836    
    514000   0.51285259    -7.7726447     -7.0033768      3.9893345      50218.233      36.893836      36.893836      36.893836    
    515000   0.51766189    -7.7763107     -6.9998289      3.9598416      50218.233      36.893836      36.893836      36.893836    
    516000   0.51498526    -7.7798769     -7.00741        3.9284747      50218.233      36.893836      36.893836      36.893836    
    517000   0.51354851    -7.7774057     -7.0070939      3.9539857      50218.233      36.893836      36.893836      36.893836    
    518000   0.51349269    -7.7776935     -7.0074654      3.9429057      50218.233      36.893836      36.893836      36.893836    
    519000   0.51356619    -7.7780785     -7.0077402      3.9426976      50218.233      36.893836      36.893836      36.893836    
    520000   0.51533136    -7.7832457     -7.0102596      3.911498       50218.233      36.893836      36.893836      36.893836    
    521000   0.51542485    -7.7768846     -7.0037583      3.9562555      50218.233      36.893836      36.893836      36.893836    
    522000   0.51442101    -7.7742306     -7.0026101      3.9819417      50218.233      36.893836      36.893836      36.893836    
    523000   0.51321111    -7.7746754     -7.0048696      3.9666637      50218.233      36.893836      36.893836      36.893836    
    524000   0.51511811    -7.782202      -7.0095358      3.9213183      50218.233      36.893836      36.893836      36.893836    
    525000   0.51683243    -7.7756031     -7.0003654      3.9665349      50218.233      36.893836      36.893836      36.893836    
    526000   0.51495752    -7.7782454     -7.0058201      3.9506319      50218.233      36.893836      36.893836      36.893836    
    527000   0.51560048    -7.7753243     -7.0019346      3.9772877      50218.233      36.893836      36.893836      36.893836    
    528000   0.51381193    -7.780746      -7.010039       3.9210803      50218.233      36.893836      36.893836      36.893836    
    529000   0.51510346    -7.7760117     -7.0033675      3.9736166      50218.233      36.893836      36.893836      36.893836    
    530000   0.51478435    -7.7754789     -7.0033134      3.9710506      50218.233      36.893836      36.893836      36.893836    
    531000   0.51721766    -7.7796292     -7.0038138      3.9378094      50218.233      36.893836      36.893836      36.893836    
    532000   0.51337321    -7.7785598     -7.008511       3.9379417      50218.233      36.893836      36.893836      36.893836    
    533000   0.51552196    -7.7802592     -7.0069872      3.9308936      50218.233      36.893836      36.893836      36.893836    
    534000   0.51813499    -7.7786043     -7.0014129      3.9512912      50218.233      36.893836      36.893836      36.893836    
    535000   0.517355      -7.7830311     -7.0070096      3.9095627      50218.233      36.893836      36.893836      36.893836    
    536000   0.51412727    -7.7763346     -7.0051546      3.9568278      50218.233      36.893836      36.893836      36.893836    
    537000   0.51608505    -7.7787401     -7.0046235      3.9411436      50218.233      36.893836      36.893836      36.893836    
    538000   0.51576713    -7.7798905     -7.0062508      3.9330381      50218.233      36.893836      36.893836      36.893836    
    539000   0.5132508     -7.7813491     -7.0114839      3.9334029      50218.233      36.893836      36.893836      36.893836    
    540000   0.51391957    -7.7798447     -7.0089763      3.9385654      50218.233      36.893836      36.893836      36.893836    
    541000   0.51380853    -7.7762583     -7.0055565      3.958105       50218.233      36.893836      36.893836      36.893836    
    542000   0.51396153    -7.7830975     -7.0121661      3.9104949      50218.233      36.893836      36.893836      36.893836    
    543000   0.51488795    -7.7812537     -7.0089327      3.9253401      50218.233      36.893836      36.893836      36.893836    
    544000   0.51635284    -7.7805209     -7.0060026      3.9322164      50218.233      36.893836      36.893836      36.893836    
    545000   0.51541099    -7.7828578     -7.0097523      3.9157877      50218.233      36.893836      36.893836      36.893836    
    546000   0.515768      -7.7758592     -7.0022183      3.9662294      50218.233      36.893836      36.893836      36.893836    
    547000   0.51504211    -7.7808925     -7.0083403      3.9265717      50218.233      36.893836      36.893836      36.893836    
    548000   0.51275959    -7.7803104     -7.011182       3.9278184      50218.233      36.893836      36.893836      36.893836    
    549000   0.5148347     -7.7848512     -7.0126101      3.8987618      50218.233      36.893836      36.893836      36.893836    
    550000   0.51346938    -7.7780807     -7.0078876      3.9494486      50218.233      36.893836      36.893836      36.893836    
    551000   0.51522079    -7.7757722     -7.002952       3.9663235      50218.233      36.893836      36.893836      36.893836    
    552000   0.51318602    -7.7826027     -7.0128346      3.9223051      50218.233      36.893836      36.893836      36.893836    
    553000   0.51542411    -7.7793504     -7.0062253      3.9354851      50218.233      36.893836      36.893836      36.893836    
    554000   0.51442753    -7.7756762     -7.0040459      3.9618536      50218.233      36.893836      36.893836      36.893836    
    555000   0.51448229    -7.7797298     -7.0080174      3.933741       50218.233      36.893836      36.893836      36.893836    
    556000   0.51798604    -7.7750035     -6.9980355      3.9796841      50218.233      36.893836      36.893836      36.893836    
    557000   0.51250329    -7.7792364     -7.0104924      3.9415472      50218.233      36.893836      36.893836      36.893836    
    558000   0.51827433    -7.7794326     -7.0020321      3.9364396      50218.233      36.893836      36.893836      36.893836    
    559000   0.51509543    -7.7758794     -7.0032473      3.9657021      50218.233      36.893836      36.893836      36.893836    
    560000   0.51462539    -7.7774515     -7.0055244      3.9633921      50218.233      36.893836      36.893836      36.893836    
    561000   0.51625593    -7.7776635     -7.0032906      3.9496134      50218.233      36.893836      36.893836      36.893836    
    562000   0.51322045    -7.7831534     -7.0133337      3.9086223      50218.233      36.893836      36.893836      36.893836    
    563000   0.51533599    -7.7795396     -7.0065466      3.9333794      50218.233      36.893836      36.893836      36.893836    
    564000   0.51602792    -7.7823273     -7.0082964      3.9113744      50218.233      36.893836      36.893836      36.893836    
    565000   0.51624275    -7.7770798     -7.0027267      3.9533223      50218.233      36.893836      36.893836      36.893836    
    566000   0.51583224    -7.7841315     -7.0103942      3.8972455      50218.233      36.893836      36.893836      36.893836    
    567000   0.51373169    -7.7776868     -7.0071002      3.9442734      50218.233      36.893836      36.893836      36.893836    
    568000   0.51779066    -7.7804333     -7.0037584      3.9322905      50218.233      36.893836      36.893836      36.893836    
    569000   0.51811505    -7.7779783     -7.0008168      3.9658295      50218.233      36.893836      36.893836      36.893836    
    570000   0.51523719    -7.7777043     -7.0048595      3.9604936      50218.233      36.893836      36.893836      36.893836    
    571000   0.51538019    -7.7768214     -7.0037621      3.9599321      50218.233      36.893836      36.893836      36.893836    
    572000   0.51365204    -7.7815632     -7.0110961      3.9302864      50218.233      36.893836      36.893836      36.893836    
    573000   0.51577777    -7.7789716     -7.0053159      3.9490532      50218.233      36.893836      36.893836      36.893836    
    574000   0.51450805    -7.7802916     -7.0085405      3.9361771      50218.233      36.893836      36.893836      36.893836    
    575000   0.51670238    -7.7756374     -7.0005949      3.971246       50218.233      36.893836      36.893836      36.893836    
    576000   0.51684545    -7.7778789     -7.0026217      3.9540982      50218.233      36.893836      36.893836      36.893836    
    577000   0.51502895    -7.7797734     -7.007241       3.9449409      50218.233      36.893836      36.893836      36.893836    
    578000   0.51669535    -7.7748457     -6.9998137      3.9743076      50218.233      36.893836      36.893836      36.893836    
    579000   0.5132906     -7.7785852     -7.0086602      3.9308866      50218.233      36.893836      36.893836      36.893836    
    580000   0.51665874    -7.783284      -7.0083069      3.914176       50218.233      36.893836      36.893836      36.893836    
    581000   0.51431608    -7.7758086     -7.0043455      3.9718862      50218.233      36.893836      36.893836      36.893836    
    582000   0.5136053     -7.7809224     -7.0105254      3.9372457      50218.233      36.893836      36.893836      36.893836    
    583000   0.51306616    -7.7755955     -7.0060072      3.9547455      50218.233      36.893836      36.893836      36.893836    
    584000   0.51423572    -7.7789463     -7.0076037      3.9618776      50218.233      36.893836      36.893836      36.893836    
    585000   0.51291655    -7.7787407     -7.0093769      3.9475448      50218.233      36.893836      36.893836      36.893836    
    586000   0.51325135    -7.7827115     -7.0128454      3.9100434      50218.233      36.893836      36.893836      36.893836    
    587000   0.51497074    -7.777686      -7.0052409      3.9633419      50218.233      36.893836      36.893836      36.893836    
    588000   0.51165431    -7.7784525     -7.0109819      3.9484172      50218.233      36.893836      36.893836      36.893836    
    589000   0.51561701    -7.7807896     -7.0073751      3.9318859      50218.233      36.893836      36.893836      36.893836    
    590000   0.51532017    -7.7781565     -7.0051872      3.9448936      50218.233      36.893836      36.893836      36.893836    
    591000   0.5179833     -7.7789682     -7.0020043      3.9441695      50218.233      36.893836      36.893836      36.893836    
    592000   0.51641306    -7.7794182     -7.0048096      3.9393365      50218.233      36.893836      36.893836      36.893836    
    593000   0.5157443     -7.778987      -7.0053815      3.9476125      50218.233      36.893836      36.893836      36.893836    
    594000   0.51434383    -7.7769317     -7.0054269      3.9699373      50218.233      36.893836      36.893836      36.893836    
    595000   0.515855      -7.7788854     -7.0051139      3.9525182      50218.233      36.893836      36.893836      36.893836    
    596000   0.51353142    -7.7801524     -7.0098662      3.9303216      50218.233      36.893836      36.893836      36.893836    
    597000   0.51654097    -7.7790419     -7.0042415      3.9502605      50218.233      36.893836      36.893836      36.893836    
    598000   0.51546032    -7.7789456     -7.0057661      3.9515673      50218.233      36.893836      36.893836      36.893836    
    599000   0.51737227    -7.7815842     -7.0055369      3.9212805      50218.233      36.893836      36.893836      36.893836    
    600000   0.51445666    -7.7814687     -7.0097947      3.9271736      50218.233      36.893836      36.893836      36.893836    
    601000   0.5152933     -7.7779702     -7.0050412      3.9454569      50218.233      36.893836      36.893836      36.893836    
    602000   0.51581663    -7.7789235     -7.0052096      3.9547275      50218.233      36.893836      36.893836      36.893836    
    603000   0.51484737    -7.7808255     -7.0085655      3.927651       50218.233      36.893836      36.893836      36.893836    
    604000   0.51724187    -7.7832414     -7.0073897      3.9200371      50218.233      36.893836      36.893836      36.893836    
    605000   0.5164528     -7.7788228     -7.0041547      3.9353329      50218.233      36.893836      36.893836      36.893836    
    606000   0.51292853    -7.7792852     -7.0099034      3.9334907      50218.233      36.893836      36.893836      36.893836    
    607000   0.51522693    -7.7812437     -7.0084143      3.9265412      50218.233      36.893836      36.893836      36.893836    
    608000   0.51382024    -7.7802223     -7.0095029      3.924706       50218.233      36.893836      36.893836      36.893836    
    609000   0.51533739    -7.7794383     -7.0064432      3.932947       50218.233      36.893836      36.893836      36.893836    
    610000   0.51526194    -7.7809432     -7.0080613      3.9281837      50218.233      36.893836      36.893836      36.893836    
    611000   0.51489354    -7.7759431     -7.0036138      3.9710333      50218.233      36.893836      36.893836      36.893836    
    612000   0.51561027    -7.7784718     -7.0050674      3.9447688      50218.233      36.893836      36.893836      36.893836    
    613000   0.51611901    -7.7770178     -7.0028503      3.9528682      50218.233      36.893836      36.893836      36.893836    
    614000   0.5154464     -7.7759614     -7.0028028      3.9687908      50218.233      36.893836      36.893836      36.893836    
    615000   0.51499522    -7.7739191     -7.0014373      3.9797141      50218.233      36.893836      36.893836      36.893836    
    616000   0.51516004    -7.7768886     -7.0041595      3.9567589      50218.233      36.893836      36.893836      36.893836    
    617000   0.51244275    -7.7769596     -7.0083064      3.9617664      50218.233      36.893836      36.893836      36.893836    
    618000   0.51459184    -7.7799815     -7.0081047      3.9461335      50218.233      36.893836      36.893836      36.893836    
    619000   0.51576235    -7.7770888     -7.0034563      3.9575141      50218.233      36.893836      36.893836      36.893836    
    620000   0.51766731    -7.7779085     -7.0014186      3.95954        50218.233      36.893836      36.893836      36.893836    
    621000   0.51552753    -7.7764692     -7.0031889      3.9675892      50218.233      36.893836      36.893836      36.893836    
    622000   0.51507131    -7.7782841     -7.0056881      3.9493004      50218.233      36.893836      36.893836      36.893836    
    623000   0.51615711    -7.7823273     -7.0081027      3.9113995      50218.233      36.893836      36.893836      36.893836    
    624000   0.51737058    -7.7803908     -7.004346       3.9333386      50218.233      36.893836      36.893836      36.893836    
    625000   0.5168553     -7.77909       -7.0038181      3.9299611      50218.233      36.893836      36.893836      36.893836    
    626000   0.5145814     -7.7790913     -7.0072301      3.9382187      50218.233      36.893836      36.893836      36.893836    
    627000   0.51379771    -7.7767851     -7.0060995      3.9440472      50218.233      36.893836      36.893836      36.893836    
    628000   0.51313208    -7.774897      -7.0052098      3.9703112      50218.233      36.893836      36.893836      36.893836    
    629000   0.51618194    -7.7802799     -7.006018       3.9278994      50218.233      36.893836      36.893836      36.893836    
    630000   0.51537057    -7.7786403     -7.0055954      3.9400009      50218.233      36.893836      36.893836      36.893836    
    631000   0.51857454    -7.7786931     -7.0008424      3.9412693      50218.233      36.893836      36.893836      36.893836    
    632000   0.51595733    -7.7813164     -7.0073915      3.9255024      50218.233      36.893836      36.893836      36.893836    
    633000   0.51715766    -7.7811057     -7.0053803      3.9318585      50218.233      36.893836      36.893836      36.893836    
    634000   0.51330944    -7.7797608     -7.0098076      3.9362226      50218.233      36.893836      36.893836      36.893836    
    635000   0.51488373    -7.7786426     -7.006328       3.9416008      50218.233      36.893836      36.893836      36.893836    
    636000   0.51774863    -7.7797112     -7.0030993      3.9469296      50218.233      36.893836      36.893836      36.893836    
    637000   0.51385603    -7.7799597     -7.0091866      3.9380173      50218.233      36.893836      36.893836      36.893836    
    638000   0.51328054    -7.7780459     -7.0081361      3.9552245      50218.233      36.893836      36.893836      36.893836    
    639000   0.51314989    -7.7800495     -7.0103356      3.9395385      50218.233      36.893836      36.893836      36.893836    
    640000   0.5154816     -7.7753149     -7.0021035      3.971226       50218.233      36.893836      36.893836      36.893836    
    641000   0.51560616    -7.7786334     -7.0052351      3.9494733      50218.233      36.893836      36.893836      36.893836    
    642000   0.51653595    -7.7782197     -7.0034268      3.9412097      50218.233      36.893836      36.893836      36.893836    
    643000   0.51724062    -7.7812488     -7.0053989      3.9344877      50218.233      36.893836      36.893836      36.893836    
    644000   0.51456469    -7.7757325     -7.0038965      3.9615621      50218.233      36.893836      36.893836      36.893836    
    645000   0.51563937    -7.7761231     -7.002675       3.9740322      50218.233      36.893836      36.893836      36.893836    
    646000   0.5140704     -7.7786517     -7.0075571      3.9426947      50218.233      36.893836      36.893836      36.893836    
    647000   0.51683061    -7.7825596     -7.0073247      3.9198143      50218.233      36.893836      36.893836      36.893836    
    648000   0.51511896    -7.7779082     -7.0052407      3.957751       50218.233      36.893836      36.893836      36.893836    
    649000   0.512713      -7.7754033     -7.0063448      3.9623635      50218.233      36.893836      36.893836      36.893836    
    650000   0.51680863    -7.7777292     -7.0025273      3.9558998      50218.233      36.893836      36.893836      36.893836    
    651000   0.51355731    -7.7726737     -7.0023487      3.9952205      50218.233      36.893836      36.893836      36.893836    
    652000   0.51521775    -7.7782691     -7.0054535      3.9454714      50218.233      36.893836      36.893836      36.893836    
    653000   0.51740662    -7.7774588     -7.0013599      3.947952       50218.233      36.893836      36.893836      36.893836    
    654000   0.51678476    -7.7796714     -7.0045053      3.9276259      50218.233      36.893836      36.893836      36.893836    
    655000   0.5168401     -7.78055       -7.0053009      3.920724       50218.233      36.893836      36.893836      36.893836    
    656000   0.51513073    -7.7786085     -7.0059234      3.9431823      50218.233      36.893836      36.893836      36.893836    
    657000   0.51419349    -7.7770675     -7.0057883      3.9614727      50218.233      36.893836      36.893836      36.893836    
    658000   0.51396432    -7.775819      -7.0048835      3.9667433      50218.233      36.893836      36.893836      36.893836    
    659000   0.51655861    -7.7770745     -7.0022476      3.9651243      50218.233      36.893836      36.893836      36.893836    
    660000   0.51502923    -7.7798516     -7.0073187      3.933451       50218.233      36.893836      36.893836      36.893836    
    661000   0.51638948    -7.7796217     -7.0050485      3.9419148      50218.233      36.893836      36.893836      36.893836    
    662000   0.51233102    -7.7732992     -7.0048136      3.9783387      50218.233      36.893836      36.893836      36.893836    
    663000   0.51353375    -7.7738252     -7.0035356      3.9732782      50218.233      36.893836      36.893836      36.893836    
    664000   0.51491624    -7.779107      -7.0067436      3.9429058      50218.233      36.893836      36.893836      36.893836    
    665000   0.51326117    -7.7828487     -7.0129679      3.9125852      50218.233      36.893836      36.893836      36.893836    
    666000   0.51472635    -7.7707283     -6.9986498      4.0037669      50218.233      36.893836      36.893836      36.893836    
    667000   0.51199444    -7.7813472     -7.0133665      3.9220913      50218.233      36.893836      36.893836      36.893836    
    668000   0.51617036    -7.7770112     -7.0027667      3.9456199      50218.233      36.893836      36.893836      36.893836    
    669000   0.51621956    -7.776685      -7.0023667      3.9604214      50218.233      36.893836      36.893836      36.893836    
    670000   0.51454532    -7.7809151     -7.0091081      3.935025       50218.233      36.893836      36.893836      36.893836    
    671000   0.51396178    -7.7816307     -7.010699       3.9210798      50218.233      36.893836      36.893836      36.893836    
    672000   0.51647967    -7.7759817     -7.0012732      3.9580097      50218.233      36.893836      36.893836      36.893836    
    673000   0.51348103    -7.7805533     -7.0103427      3.9322611      50218.233      36.893836      36.893836      36.893836    
    674000   0.5149311     -7.7751958     -7.0028101      3.9732487      50218.233      36.893836      36.893836      36.893836    
    675000   0.51602627    -7.7753228     -7.0012944      3.9637044      50218.233      36.893836      36.893836      36.893836    
    676000   0.51425541    -7.7810162     -7.0096441      3.9255385      50218.233      36.893836      36.893836      36.893836    
    677000   0.51405135    -7.776599      -7.005533       3.9556928      50218.233      36.893836      36.893836      36.893836    
    678000   0.51452482    -7.7809102     -7.009134       3.9271949      50218.233      36.893836      36.893836      36.893836    
    679000   0.51671317    -7.7789739     -7.0039152      3.9487277      50218.233      36.893836      36.893836      36.893836    
    680000   0.51170536    -7.7776134     -7.0100663      3.9427062      50218.233      36.893836      36.893836      36.893836    
    681000   0.51528991    -7.7814833     -7.0085595      3.9306236      50218.233      36.893836      36.893836      36.893836    
    682000   0.51307457    -7.7813937     -7.0117928      3.9249188      50218.233      36.893836      36.893836      36.893836    
    683000   0.51430081    -7.7851079     -7.0136676      3.9052751      50218.233      36.893836      36.893836      36.893836    
    684000   0.51467787    -7.7777935     -7.0057877      3.9512102      50218.233      36.893836      36.893836      36.893836    
    685000   0.51387693    -7.7835583     -7.0127538      3.9245876      50218.233      36.893836      36.893836      36.893836    
    686000   0.5138789     -7.7755298     -7.0047224      3.9698474      50218.233      36.893836      36.893836      36.893836    
    687000   0.51698378    -7.7804262     -7.0049616      3.9406332      50218.233      36.893836      36.893836      36.893836    
    688000   0.51508052    -7.779133      -7.0065232      3.9379826      50218.233      36.893836      36.893836      36.893836    
    689000   0.51680229    -7.7814919     -7.0062995      3.9284332      50218.233      36.893836      36.893836      36.893836    
    690000   0.51356293    -7.7795952     -7.0092617      3.9329989      50218.233      36.893836      36.893836      36.893836    
    691000   0.51994171    -7.7739282     -6.9940267      3.9876556      50218.233      36.893836      36.893836      36.893836    
    692000   0.51541495    -7.7813124     -7.0082009      3.9262707      50218.233      36.893836      36.893836      36.893836    
    693000   0.51606194    -7.7819545     -7.0078726      3.9211098      50218.233      36.893836      36.893836      36.893836    
    694000   0.51530396    -7.7746995     -7.0017546      3.9764526      50218.233      36.893836      36.893836      36.893836    
    695000   0.51654139    -7.7798498     -7.0050487      3.9363468      50218.233      36.893836      36.893836      36.893836    
    696000   0.51663936    -7.7783546     -7.0034066      3.953937       50218.233      36.893836      36.893836      36.893836    
    697000   0.51536022    -7.7813129     -7.0082835      3.9258825      50218.233      36.893836      36.893836      36.893836    
    698000   0.51420549    -7.7813788     -7.0100815      3.9218579      50218.233      36.893836      36.893836      36.893836    
    699000   0.51328774    -7.7796667     -7.0097461      3.9353037      50218.233      36.893836      36.893836      36.893836    
    700000   0.51407307    -7.7783899     -7.0072913      3.9552404      50218.233      36.893836      36.893836      36.893836    
    701000   0.51353681    -7.7809186     -7.0106244      3.9210545      50218.233      36.893836      36.893836      36.893836    
    702000   0.51283271    -7.7831853     -7.0139472      3.9146931      50218.233      36.893836      36.893836      36.893836    
    703000   0.51649494    -7.7815748     -7.0068435      3.9305214      50218.233      36.893836      36.893836      36.893836    
    704000   0.5131583     -7.7786627     -7.0089362      3.9372472      50218.233      36.893836      36.893836      36.893836    
    705000   0.51600167    -7.7820472     -7.0080557      3.9251557      50218.233      36.893836      36.893836      36.893836    
    706000   0.51423183    -7.7802623     -7.0089256      3.924871       50218.233      36.893836      36.893836      36.893836    
    707000   0.51483533    -7.7792689     -7.0070269      3.9344103      50218.233      36.893836      36.893836      36.893836    
    708000   0.51782217    -7.7772456     -7.0005234      3.9634434      50218.233      36.893836      36.893836      36.893836    
    709000   0.51384439    -7.7780316     -7.007276       3.9453937      50218.233      36.893836      36.893836      36.893836    
    710000   0.51654264    -7.7810295     -7.0062266      3.9388143      50218.233      36.893836      36.893836      36.893836    
    711000   0.5150583     -7.7763303     -7.0037538      3.9692449      50218.233      36.893836      36.893836      36.893836    
    712000   0.51691642    -7.7769602     -7.0015966      3.9543345      50218.233      36.893836      36.893836      36.893836    
    713000   0.51491561    -7.7814045     -7.0090421      3.925625       50218.233      36.893836      36.893836      36.893836    
    714000   0.5143388     -7.7747925     -7.0032953      3.9619435      50218.233      36.893836      36.893836      36.893836    
    715000   0.51432412    -7.7799435     -7.0084683      3.934988       50218.233      36.893836      36.893836      36.893836    
    716000   0.5150444     -7.778744      -7.0061884      3.9344983      50218.233      36.893836      36.893836      36.893836    
    717000   0.51433992    -7.7825679     -7.011069       3.9126691      50218.233      36.893836      36.893836      36.893836    
    718000   0.51587363    -7.7738638     -7.0000644      3.97757        50218.233      36.893836      36.893836      36.893836    
    719000   0.5152007     -7.780504      -7.007714       3.9347978      50218.233      36.893836      36.893836      36.893836    
    720000   0.51380213    -7.7746244     -7.0039321      3.9663488      50218.233      36.893836      36.893836      36.893836    
    721000   0.51500307    -7.7809629     -7.0084693      3.9342015      50218.233      36.893836      36.893836      36.893836    
    722000   0.51331748    -7.781537      -7.0115717      3.923683       50218.233      36.893836      36.893836      36.893836    
    723000   0.51391242    -7.7771809     -7.0063232      3.9572877      50218.233      36.893836      36.893836      36.893836    
    724000   0.51563578    -7.7815719     -7.0081292      3.9259324      50218.233      36.893836      36.893836      36.893836    
    725000   0.51381213    -7.7792447     -7.0085375      3.9415976      50218.233      36.893836      36.893836      36.893836    
    726000   0.51444201    -7.7822315     -7.0105795      3.9161482      50218.233      36.893836      36.893836      36.893836    
    727000   0.51666687    -7.7758206     -7.0008313      3.9740146      50218.233      36.893836      36.893836      36.893836    
    728000   0.5164445     -7.7764157     -7.00176        3.9649584      50218.233      36.893836      36.893836      36.893836    
    729000   0.51396409    -7.7796544     -7.0087192      3.938781       50218.233      36.893836      36.893836      36.893836    
    730000   0.5151179     -7.7761063     -7.0034405      3.9572382      50218.233      36.893836      36.893836      36.893836    
    731000   0.51442521    -7.7776599     -7.006033       3.953757       50218.233      36.893836      36.893836      36.893836    
    732000   0.51764773    -7.7790525     -7.002592       3.9508721      50218.233      36.893836      36.893836      36.893836    
    733000   0.5162802     -7.7825568     -7.0081475      3.9223349      50218.233      36.893836      36.893836      36.893836    
    734000   0.51605099    -7.7784678     -7.0044023      3.9308643      50218.233      36.893836      36.893836      36.893836    
    735000   0.51341421    -7.7830358     -7.0129254      3.9004834      50218.233      36.893836      36.893836      36.893836    
    736000   0.51194522    -7.7783527     -7.0104458      3.9481495      50218.233      36.893836      36.893836      36.893836    
    737000   0.51424777    -7.7780068     -7.0066461      3.9527201      50218.233      36.893836      36.893836      36.893836    
    738000   0.51444701    -7.7795394     -7.0078798      3.9489125      50218.233      36.893836      36.893836      36.893836    
    739000   0.51296144    -7.7806761     -7.0112449      3.9312582      50218.233      36.893836      36.893836      36.893836    
    740000   0.51193993    -7.7804414     -7.0125424      3.9248083      50218.233      36.893836      36.893836      36.893836    
    741000   0.51486432    -7.7797839     -7.0074984      3.9349106      50218.233      36.893836      36.893836      36.893836    
    742000   0.51662716    -7.7836479     -7.0087182      3.9064061      50218.233      36.893836      36.893836      36.893836    
    743000   0.51458524    -7.7792704     -7.0074035      3.9224491      50218.233      36.893836      36.893836      36.893836    
    744000   0.51730993    -7.7827146     -7.0067608      3.9255319      50218.233      36.893836      36.893836      36.893836    
    745000   0.51568429    -7.7799382     -7.0064227      3.9310987      50218.233      36.893836      36.893836      36.893836    
    746000   0.5146981     -7.7811968     -7.0091606      3.9307005      50218.233      36.893836      36.893836      36.893836    
    747000   0.51501038    -7.781857      -7.0093524      3.9242609      50218.233      36.893836      36.893836      36.893836    
    748000   0.5153944     -7.7812612     -7.0081806      3.9260763      50218.233      36.893836      36.893836      36.893836    
    749000   0.51537614    -7.7756571     -7.0026039      3.9765224      50218.233      36.893836      36.893836      36.893836    
    750000   0.5130366     -7.7758533     -7.0063094      3.9712809      50218.233      36.893836      36.893836      36.893836    
    751000   0.51603152    -7.7862607     -7.0122244      3.8833336      50218.233      36.893836      36.893836      36.893836    
    752000   0.5145369     -7.7811163     -7.0093219      3.930918       50218.233      36.893836      36.893836      36.893836    
    753000   0.51457487    -7.7806492     -7.0087979      3.9299423      50218.233      36.893836      36.893836      36.893836    
    754000   0.51631645    -7.7828287     -7.0083651      3.9162115      50218.233      36.893836      36.893836      36.893836    
    755000   0.51705508    -7.7836595     -7.0080879      3.9164799      50218.233      36.893836      36.893836      36.893836    
    756000   0.51287155    -7.7842417     -7.0149453      3.8981937      50218.233      36.893836      36.893836      36.893836    
    757000   0.51378286    -7.7828475     -7.0121841      3.9107308      50218.233      36.893836      36.893836      36.893836    
    758000   0.5167975     -7.7814199     -7.0062346      3.9280942      50218.233      36.893836      36.893836      36.893836    
    759000   0.51323069    -7.7816198     -7.0117847      3.9296314      50218.233      36.893836      36.893836      36.893836    
    760000   0.51258914    -7.7842244     -7.0153516      3.9002169      50218.233      36.893836      36.893836      36.893836    
    761000   0.51410393    -7.7773266     -7.0061817      3.9495811      50218.233      36.893836      36.893836      36.893836    
    762000   0.51241046    -7.785201      -7.0165962      3.8973436      50218.233      36.893836      36.893836      36.893836    
    763000   0.51702078    -7.7820801     -7.00656        3.9158855      50218.233      36.893836      36.893836      36.893836    
    764000   0.5140791     -7.7787779     -7.0076702      3.9556105      50218.233      36.893836      36.893836      36.893836    
    765000   0.51544247    -7.7844699     -7.0113172      3.9046307      50218.233      36.893836      36.893836      36.893836    
    766000   0.5187389     -7.7804351     -7.0023378      3.9238526      50218.233      36.893836      36.893836      36.893836    
    767000   0.51603619    -7.7783905     -7.0043472      3.9463903      50218.233      36.893836      36.893836      36.893836    
    768000   0.51453192    -7.7775106     -7.0057237      3.9422717      50218.233      36.893836      36.893836      36.893836    
    769000   0.5148656     -7.7763341     -7.0040467      3.9663913      50218.233      36.893836      36.893836      36.893836    
    770000   0.51500172    -7.780556      -7.0080644      3.9408209      50218.233      36.893836      36.893836      36.893836    
    771000   0.51628823    -7.7841532     -7.0097319      3.909603       50218.233      36.893836      36.893836      36.893836    
    772000   0.51338362    -7.7808307     -7.0107662      3.9163279      50218.233      36.893836      36.893836      36.893836    
    773000   0.51264624    -7.7805493     -7.0115909      3.9282804      50218.233      36.893836      36.893836      36.893836    
    774000   0.51516432    -7.7815089     -7.0087734      3.9180342      50218.233      36.893836      36.893836      36.893836    
    775000   0.51604876    -7.7808958     -7.0068336      3.9252602      50218.233      36.893836      36.893836      36.893836    
    776000   0.51440801    -7.7805549     -7.0089538      3.9345368      50218.233      36.893836      36.893836      36.893836    
    777000   0.51435013    -7.7823098     -7.0107956      3.9161471      50218.233      36.893836      36.893836      36.893836    
    778000   0.51293313    -7.7808276     -7.0114389      3.9273911      50218.233      36.893836      36.893836      36.893836    
    779000   0.51577496    -7.7796828     -7.0060314      3.9404188      50218.233      36.893836      36.893836      36.893836    
    780000   0.51333244    -7.7819629     -7.0119752      3.9351119      50218.233      36.893836      36.893836      36.893836    
    781000   0.51580042    -7.7790072     -7.0053176      3.9469176      50218.233      36.893836      36.893836      36.893836    
    782000   0.51342907    -7.7778838     -7.0077511      3.9468843      50218.233      36.893836      36.893836      36.893836    
    783000   0.51512859    -7.7811217     -7.0084398      3.9338676      50218.233      36.893836      36.893836      36.893836    
    784000   0.51472637    -7.7797509     -7.0076723      3.9344091      50218.233      36.893836      36.893836      36.893836    
    785000   0.5140301     -7.7793465     -7.0083123      3.9383898      50218.233      36.893836      36.893836      36.893836    
    786000   0.51496303    -7.7769664     -7.0045328      3.954875       50218.233      36.893836      36.893836      36.893836    
    787000   0.51385428    -7.7801583     -7.0093878      3.935502       50218.233      36.893836      36.893836      36.893836    
    788000   0.51307811    -7.7827967     -7.0131905      3.9109917      50218.233      36.893836      36.893836      36.893836    
    789000   0.51533392    -7.7803121     -7.0073222      3.9396999      50218.233      36.893836      36.893836      36.893836    
    790000   0.51604246    -7.7793198     -7.0052671      3.929817       50218.233      36.893836      36.893836      36.893836    
    791000   0.51373161    -7.784634      -7.0140476      3.9084841      50218.233      36.893836      36.893836      36.893836    
    792000   0.51224628    -7.7833475     -7.014989       3.9127208      50218.233      36.893836      36.893836      36.893836    
    793000   0.51431872    -7.779271      -7.0078039      3.9343605      50218.233      36.893836      36.893836      36.893836    
    794000   0.51564916    -7.7785974     -7.0051347      3.929493       50218.233      36.893836      36.893836      36.893836    
    795000   0.51348116    -7.7808363     -7.0106255      3.9248467      50218.233      36.893836      36.893836      36.893836    
    796000   0.5143443     -7.7781118     -7.0066063      3.950124       50218.233      36.893836      36.893836      36.893836    
    797000   0.51659658    -7.7830685     -7.0081847      3.9151465      50218.233      36.893836      36.893836      36.893836    
    798000   0.51575912    -7.7836353     -7.0100076      3.9119792      50218.233      36.893836      36.893836      36.893836    
    799000   0.51641623    -7.7826477     -7.0080344      3.9277862      50218.233      36.893836      36.893836      36.893836    
    800000   0.51742451    -7.7846189     -7.0084932      3.9181187      50218.233      36.893836      36.893836      36.893836    
    801000   0.51374169    -7.7814564     -7.0108549      3.919776       50218.233      36.893836      36.893836      36.893836    
    802000   0.51590992    -7.77701       -7.0031561      3.9555064      50218.233      36.893836      36.893836      36.893836    
    803000   0.51634528    -7.7860784     -7.0115715      3.9058225      50218.233      36.893836      36.893836      36.893836    
    804000   0.51367969    -7.7823626     -7.0118541      3.9133206      50218.233      36.893836      36.893836      36.893836    
    805000   0.51707215    -7.7794697     -7.0038725      3.9408872      50218.233      36.893836      36.893836      36.893836    
    806000   0.5137818     -7.7789189     -7.0082571      3.9383747      50218.233      36.893836      36.893836      36.893836    
    807000   0.51745593    -7.7834072     -7.0072344      3.9186494      50218.233      36.893836      36.893836      36.893836    
    808000   0.5189744     -7.779379      -7.0009285      3.9536318      50218.233      36.893836      36.893836      36.893836    
    809000   0.51625623    -7.7813489     -7.0069756      3.9229902      50218.233      36.893836      36.893836      36.893836    
    810000   0.51642417    -7.7829229     -7.0082977      3.9264332      50218.233      36.893836      36.893836      36.893836    
    811000   0.51625711    -7.7835623     -7.0091877      3.915371       50218.233      36.893836      36.893836      36.893836    
    812000   0.51802884    -7.7790632     -7.002031       3.9563578      50218.233      36.893836      36.893836      36.893836    
    813000   0.5178035     -7.7808712     -7.004177       3.9475428      50218.233      36.893836      36.893836      36.893836    
    814000   0.51129947    -7.7823116     -7.0153733      3.9168625      50218.233      36.893836      36.893836      36.893836    
    815000   0.51706166    -7.7779762     -7.0023948      3.9592103      50218.233      36.893836      36.893836      36.893836    
    816000   0.51432253    -7.783158      -7.0116851      3.9144895      50218.233      36.893836      36.893836      36.893836    
    817000   0.51446383    -7.7811138     -7.0094291      3.94133        50218.233      36.893836      36.893836      36.893836    
    818000   0.51448982    -7.7787775     -7.0070538      3.9505118      50218.233      36.893836      36.893836      36.893836    
    819000   0.51736058    -7.7790434     -7.0030135      3.9461985      50218.233      36.893836      36.893836      36.893836    
    820000   0.51443476    -7.7816948     -7.0100536      3.9134144      50218.233      36.893836      36.893836      36.893836    
    821000   0.51577102    -7.7804025     -7.006757       3.9340656      50218.233      36.893836      36.893836      36.893836    
    822000   0.51803687    -7.7797859     -7.0027416      3.9386352      50218.233      36.893836      36.893836      36.893836    
    823000   0.51452667    -7.7801647     -7.0083857      3.9336212      50218.233      36.893836      36.893836      36.893836    
    824000   0.51510994    -7.778576      -7.0059221      3.943409       50218.233      36.893836      36.893836      36.893836    
    825000   0.51463883    -7.7823811     -7.0104338      3.9218873      50218.233      36.893836      36.893836      36.893836    
    826000   0.51525442    -7.777958      -7.0050874      3.950551       50218.233      36.893836      36.893836      36.893836    
    827000   0.51511325    -7.7798511     -7.0071922      3.9354435      50218.233      36.893836      36.893836      36.893836    
    828000   0.51730574    -7.7811903     -7.0052428      3.9313344      50218.233      36.893836      36.893836      36.893836    
    829000   0.51830264    -7.7798051     -7.0023622      3.9483278      50218.233      36.893836      36.893836      36.893836    
    830000   0.514224      -7.7840936     -7.0127686      3.9139862      50218.233      36.893836      36.893836      36.893836    
    831000   0.51440968    -7.7826574     -7.0110539      3.913171       50218.233      36.893836      36.893836      36.893836    
    832000   0.51677395    -7.7783265     -7.0031766      3.9572772      50218.233      36.893836      36.893836      36.893836    
    833000   0.51678262    -7.7768746     -7.0017117      3.9636593      50218.233      36.893836      36.893836      36.893836    
    834000   0.51725847    -7.776148      -7.0002713      3.9727133      50218.233      36.893836      36.893836      36.893836    
    835000   0.51447015    -7.7774813     -7.0057871      3.956194       50218.233      36.893836      36.893836      36.893836    
    836000   0.51594625    -7.7780791     -7.0041708      3.9650771      50218.233      36.893836      36.893836      36.893836    
    837000   0.51376184    -7.7839539     -7.0133221      3.9094127      50218.233      36.893836      36.893836      36.893836    
    838000   0.51297397    -7.7819202     -7.0124702      3.9292787      50218.233      36.893836      36.893836      36.893836    
    839000   0.51654059    -7.7784138     -7.0036139      3.9558107      50218.233      36.893836      36.893836      36.893836    
    840000   0.51585428    -7.7780236     -7.0042532      3.9549595      50218.233      36.893836      36.893836      36.893836    
    841000   0.51555168    -7.7791464     -7.0058299      3.9516069      50218.233      36.893836      36.893836      36.893836    
    842000   0.51405119    -7.7861094     -7.0150436      3.8934641      50218.233      36.893836      36.893836      36.893836    
    843000   0.51654069    -7.7778393     -7.0030392      3.9543259      50218.233      36.893836      36.893836      36.893836    
    844000   0.51567252    -7.7796274     -7.0061296      3.934367       50218.233      36.893836      36.893836      36.893836    
    845000   0.51463973    -7.7843457     -7.0123971      3.9001862      50218.233      36.893836      36.893836      36.893836    
    846000   0.51713482    -7.7801629     -7.0044717      3.9330129      50218.233      36.893836      36.893836      36.893836    
    847000   0.51618619    -7.7830144     -7.0087461      3.9087925      50218.233      36.893836      36.893836      36.893836    
    848000   0.51449243    -7.7783929     -7.0066652      3.9564807      50218.233      36.893836      36.893836      36.893836    
    849000   0.51496188    -7.7806879     -7.008256       3.9397583      50218.233      36.893836      36.893836      36.893836    
    850000   0.51469298    -7.7834135     -7.011385       3.9145579      50218.233      36.893836      36.893836      36.893836    
    851000   0.51629668    -7.7796444     -7.0052104      3.9348455      50218.233      36.893836      36.893836      36.893836    
    852000   0.51295989    -7.7846413     -7.0152124      3.9010502      50218.233      36.893836      36.893836      36.893836    
    853000   0.51408855    -7.7779256     -7.0068038      3.9596653      50218.233      36.893836      36.893836      36.893836    
    854000   0.5140648     -7.7808366     -7.0097503      3.9370934      50218.233      36.893836      36.893836      36.893836    
    855000   0.5118262     -7.7815449     -7.0138165      3.915342       50218.233      36.893836      36.893836      36.893836    
    856000   0.51570055    -7.7829676     -7.0094278      3.9195696      50218.233      36.893836      36.893836      36.893836    
    857000   0.51414986    -7.7794799     -7.0082661      3.9529652      50218.233      36.893836      36.893836      36.893836    
    858000   0.51621011    -7.7773112     -7.003007       3.9654892      50218.233      36.893836      36.893836      36.893836    
    859000   0.51521607    -7.7810195     -7.0082064      3.9326721      50218.233      36.893836      36.893836      36.893836    
    860000   0.51663636    -7.7844792     -7.0095357      3.9070901      50218.233      36.893836      36.893836      36.893836    
    861000   0.5151125     -7.7779535     -7.0052958      3.9595069      50218.233      36.893836      36.893836      36.893836    
    862000   0.51482475    -7.7786068     -7.0063807      3.9532876      50218.233      36.893836      36.893836      36.893836    
    863000   0.51456027    -7.7735474     -7.0017179      3.9820919      50218.233      36.893836      36.893836      36.893836    
    864000   0.51437011    -7.7796559     -7.0081117      3.9475387      50218.233      36.893836      36.893836      36.893836    
    865000   0.51590905    -7.7815523     -7.0076997      3.9332181      50218.233      36.893836      36.893836      36.893836    
    866000   0.51571379    -7.7795576     -7.0059979      3.9402047      50218.233      36.893836      36.893836      36.893836    
    867000   0.51444426    -7.7805055     -7.0088501      3.934446       50218.233      36.893836      36.893836      36.893836    
    868000   0.51177422    -7.7812701     -7.0136197      3.9231623      50218.233      36.893836      36.893836      36.893836    
    869000   0.51428433    -7.7761238     -7.0047083      3.9685736      50218.233      36.893836      36.893836      36.893836    
    870000   0.51468963    -7.7782947     -7.0062713      3.9527339      50218.233      36.893836      36.893836      36.893836    
    871000   0.51706101    -7.7807479     -7.0051675      3.9395509      50218.233      36.893836      36.893836      36.893836    
    872000   0.51548554    -7.7841161     -7.0108988      3.8950588      50218.233      36.893836      36.893836      36.893836    
    873000   0.51430084    -7.7826776     -7.0112373      3.9194594      50218.233      36.893836      36.893836      36.893836    
    874000   0.51616771    -7.7785282     -7.0042876      3.948751       50218.233      36.893836      36.893836      36.893836    
    875000   0.5127153     -7.782208      -7.013146       3.9108561      50218.233      36.893836      36.893836      36.893836    
    876000   0.51216398    -7.7782347     -7.0099997      3.9425839      50218.233      36.893836      36.893836      36.893836    
    877000   0.51013188    -7.7837892     -7.0186023      3.8972739      50218.233      36.893836      36.893836      36.893836    
    878000   0.51733983    -7.7824969     -7.0064982      3.9100432      50218.233      36.893836      36.893836      36.893836    
    879000   0.51467014    -7.7784971     -7.0065029      3.9477083      50218.233      36.893836      36.893836      36.893836    
    880000   0.5162357     -7.7804306     -7.006088       3.9398294      50218.233      36.893836      36.893836      36.893836    
    881000   0.51383094    -7.7804756     -7.0097402      3.9292709      50218.233      36.893836      36.893836      36.893836    
    882000   0.51690725    -7.7814566     -7.0061067      3.9240392      50218.233      36.893836      36.893836      36.893836    
    883000   0.51486024    -7.7832156     -7.0109362      3.9164942      50218.233      36.893836      36.893836      36.893836    
    884000   0.51541967    -7.7803225     -7.007204       3.9318749      50218.233      36.893836      36.893836      36.893836    
    885000   0.51645424    -7.7797046     -7.0050342      3.933303       50218.233      36.893836      36.893836      36.893836    
    886000   0.51821429    -7.7773238     -7.0000134      3.9623832      50218.233      36.893836      36.893836      36.893836    
    887000   0.51508827    -7.7819162     -7.0092948      3.9243768      50218.233      36.893836      36.893836      36.893836    
    888000   0.51759079    -7.7810157     -7.0046406      3.9354234      50218.233      36.893836      36.893836      36.893836    
    889000   0.51360599    -7.7779511     -7.0075531      3.945557       50218.233      36.893836      36.893836      36.893836    
    890000   0.51700312    -7.7775473     -7.0020537      3.9521749      50218.233      36.893836      36.893836      36.893836    
    891000   0.51214717    -7.7796238     -7.0114139      3.9395392      50218.233      36.893836      36.893836      36.893836    
    892000   0.51640155    -7.7799251     -7.0053338      3.9363964      50218.233      36.893836      36.893836      36.893836    
    893000   0.51637001    -7.7787496     -7.0042056      3.9404771      50218.233      36.893836      36.893836      36.893836    
    894000   0.51280994    -7.7803065     -7.0111025      3.934925       50218.233      36.893836      36.893836      36.893836    
    895000   0.51591654    -7.7785397     -7.0046758      3.9526847      50218.233      36.893836      36.893836      36.893836    
    896000   0.51488359    -7.7794169     -7.0071025      3.9371378      50218.233      36.893836      36.893836      36.893836    
    897000   0.51354598    -7.7786449     -7.0083369      3.9451899      50218.233      36.893836      36.893836      36.893836    
    898000   0.51263326    -7.7770982     -7.0081592      3.9704819      50218.233      36.893836      36.893836      36.893836    
    899000   0.51648458    -7.7796046     -7.0048888      3.9311628      50218.233      36.893836      36.893836      36.893836    
    900000   0.51708971    -7.777209      -7.0015854      3.9572703      50218.233      36.893836      36.893836      36.893836    
    901000   0.51758892    -7.780791      -7.0044187      3.9374681      50218.233      36.893836      36.893836      36.893836    
    902000   0.51411759    -7.7763403     -7.0051748      3.9712198      50218.233      36.893836      36.893836      36.893836    
    903000   0.51253728    -7.7813801     -7.0125851      3.9139059      50218.233      36.893836      36.893836      36.893836    
    904000   0.51541628    -7.7835035     -7.0103901      3.9145481      50218.233      36.893836      36.893836      36.893836    
    905000   0.51236819    -7.7795623     -7.011021       3.9323426      50218.233      36.893836      36.893836      36.893836    
    906000   0.51536409    -7.7802954     -7.0072603      3.9335592      50218.233      36.893836      36.893836      36.893836    
    907000   0.51566535    -7.7783864     -7.0048994      3.9616106      50218.233      36.893836      36.893836      36.893836    
    908000   0.51755614    -7.7822814     -7.0059583      3.9278944      50218.233      36.893836      36.893836      36.893836    
    909000   0.51599043    -7.776567      -7.0025923      3.968758       50218.233      36.893836      36.893836      36.893836    
    910000   0.51395361    -7.7765379     -7.0056184      3.966603       50218.233      36.893836      36.893836      36.893836    
    911000   0.51315321    -7.7793274     -7.0096085      3.9395114      50218.233      36.893836      36.893836      36.893836    
    912000   0.51533163    -7.7798315     -7.0068451      3.9472115      50218.233      36.893836      36.893836      36.893836    
    913000   0.51392921    -7.7776466     -7.0067638      3.9507178      50218.233      36.893836      36.893836      36.893836    
    914000   0.51478619    -7.7761161     -7.0039478      3.9652329      50218.233      36.893836      36.893836      36.893836    
    915000   0.51539665    -7.7785336     -7.0054496      3.9361817      50218.233      36.893836      36.893836      36.893836    
    916000   0.51459372    -7.7777793     -7.0058997      3.9466232      50218.233      36.893836      36.893836      36.893836    
    917000   0.51655107    -7.7786491     -7.0038335      3.9535667      50218.233      36.893836      36.893836      36.893836    
    918000   0.51305254    -7.7795285     -7.0099606      3.9363188      50218.233      36.893836      36.893836      36.893836    
    919000   0.51342402    -7.7768039     -7.0066788      3.9643007      50218.233      36.893836      36.893836      36.893836    
    920000   0.51363306    -7.7780778     -7.0076391      3.9469841      50218.233      36.893836      36.893836      36.893836    
    921000   0.51353526    -7.7776959     -7.0074039      3.9551529      50218.233      36.893836      36.893836      36.893836    
    922000   0.51613478    -7.779985      -7.0057939      3.9450545      50218.233      36.893836      36.893836      36.893836    
    923000   0.51472967    -7.7810742     -7.0089907      3.9289175      50218.233      36.893836      36.893836      36.893836    
    924000   0.51355091    -7.77752       -7.0072046      3.9641165      50218.233      36.893836      36.893836      36.893836    
    925000   0.51393686    -7.7799571     -7.0090628      3.940717       50218.233      36.893836      36.893836      36.893836    
    926000   0.51347706    -7.777236      -7.0070314      3.9592358      50218.233      36.893836      36.893836      36.893836    
    927000   0.51515576    -7.7774735     -7.0047509      3.9539263      50218.233      36.893836      36.893836      36.893836    
    928000   0.51583118    -7.778049      -7.0043132      3.9495914      50218.233      36.893836      36.893836      36.893836    
    929000   0.51460925    -7.7800143     -7.0081114      3.9393892      50218.233      36.893836      36.893836      36.893836    
    930000   0.51543158    -7.7756481     -7.0025117      3.9730462      50218.233      36.893836      36.893836      36.893836    
    931000   0.51241916    -7.7758964     -7.0072786      3.9656978      50218.233      36.893836      36.893836      36.893836    
    932000   0.51542367    -7.776315      -7.0031905      3.9540803      50218.233      36.893836      36.893836      36.893836    
    933000   0.51339843    -7.7769063     -7.0068196      3.9606062      50218.233      36.893836      36.893836      36.893836    
    934000   0.51532654    -7.7765263     -7.0035475      3.9572234      50218.233      36.893836      36.893836      36.893836    
    935000   0.51617243    -7.7794316     -7.005184       3.947363       50218.233      36.893836      36.893836      36.893836    
    936000   0.51539181    -7.7741022     -7.0010254      3.9835175      50218.233      36.893836      36.893836      36.893836    
    937000   0.51328917    -7.7758131     -7.0058903      3.9698539      50218.233      36.893836      36.893836      36.893836    
    938000   0.5138741     -7.778317      -7.0075169      3.9524209      50218.233      36.893836      36.893836      36.893836    
    939000   0.5192328     -7.7762054     -6.9973672      3.9759109      50218.233      36.893836      36.893836      36.893836    
    940000   0.51549791    -7.7788986     -7.0056628      3.9552644      50218.233      36.893836      36.893836      36.893836    
    941000   0.51480274    -7.7798592     -7.0076661      3.9376683      50218.233      36.893836      36.893836      36.893836    
    942000   0.51460241    -7.7799502     -7.0080576      3.9373742      50218.233      36.893836      36.893836      36.893836    
    943000   0.51374618    -7.7791893     -7.008581       3.9425136      50218.233      36.893836      36.893836      36.893836    
    944000   0.51497992    -7.774902      -7.0024431      3.9745626      50218.233      36.893836      36.893836      36.893836    
    945000   0.51752585    -7.7800182     -7.0037404      3.936287       50218.233      36.893836      36.893836      36.893836    
    946000   0.51368007    -7.7814672     -7.010958       3.9130086      50218.233      36.893836      36.893836      36.893836    
    947000   0.51758051    -7.7775415     -7.0011818      3.9513903      50218.233      36.893836      36.893836      36.893836    
    948000   0.51389681    -7.7817888     -7.0109546      3.9143805      50218.233      36.893836      36.893836      36.893836    
    949000   0.51458248    -7.7783182     -7.0064555      3.9541694      50218.233      36.893836      36.893836      36.893836    
    950000   0.51584253    -7.7800056     -7.0062528      3.9292411      50218.233      36.893836      36.893836      36.893836    
    951000   0.51900013    -7.7754335     -6.9969444      3.9878228      50218.233      36.893836      36.893836      36.893836    
    952000   0.51606844    -7.7779074     -7.0038157      3.9595428      50218.233      36.893836      36.893836      36.893836    
    953000   0.51316426    -7.7817421     -7.0120067      3.9277914      50218.233      36.893836      36.893836      36.893836    
    954000   0.515837      -7.7813096     -7.0075651      3.9348098      50218.233      36.893836      36.893836      36.893836    
    955000   0.51443349    -7.7785373     -7.006898       3.9421946      50218.233      36.893836      36.893836      36.893836    
    956000   0.51471975    -7.7753502     -7.0032815      3.9709316      50218.233      36.893836      36.893836      36.893836    
    957000   0.51560431    -7.7794978     -7.0061024      3.943307       50218.233      36.893836      36.893836      36.893836    
    958000   0.51631687    -7.775977      -7.0015127      3.9680709      50218.233      36.893836      36.893836      36.893836    
    959000   0.5147102     -7.7818467     -7.0097923      3.930245       50218.233      36.893836      36.893836      36.893836    
    960000   0.5146786     -7.7828503     -7.0108434      3.9122485      50218.233      36.893836      36.893836      36.893836    
    961000   0.51196562    -7.7749139     -7.0069764      3.9785565      50218.233      36.893836      36.893836      36.893836    
    962000   0.51625608    -7.7807841     -7.006411       3.9336637      50218.233      36.893836      36.893836      36.893836    
    963000   0.51418838    -7.7769399     -7.0056683      3.9488723      50218.233      36.893836      36.893836      36.893836    
    964000   0.51340063    -7.783027      -7.012937       3.9165397      50218.233      36.893836      36.893836      36.893836    
    965000   0.51216682    -7.7759586     -7.0077193      3.9729767      50218.233      36.893836      36.893836      36.893836    
    966000   0.51433819    -7.7780174     -7.0065211      3.9326865      50218.233      36.893836      36.893836      36.893836    
    967000   0.51714082    -7.7837678     -7.0080675      3.9075139      50218.233      36.893836      36.893836      36.893836    
    968000   0.51505963    -7.7801185     -7.00754        3.9349311      50218.233      36.893836      36.893836      36.893836    
    969000   0.51588105    -7.777954      -7.0041434      3.9430322      50218.233      36.893836      36.893836      36.893836    
    970000   0.51651088    -7.7803153     -7.00556        3.9473885      50218.233      36.893836      36.893836      36.893836    
    971000   0.5162617     -7.777214      -7.0028325      3.9660143      50218.233      36.893836      36.893836      36.893836    
    972000   0.5133154     -7.7797821     -7.00982        3.9332601      50218.233      36.893836      36.893836      36.893836    
    973000   0.51429983    -7.7811132     -7.0096744      3.9250006      50218.233      36.893836      36.893836      36.893836    
    974000   0.51321759    -7.7755933     -7.0057779      3.9797349      50218.233      36.893836      36.893836      36.893836    
    975000   0.51704397    -7.7802026     -7.0046477      3.939155       50218.233      36.893836      36.893836      36.893836    
    976000   0.51774493    -7.7810466     -7.0044402      3.940751       50218.233      36.893836      36.893836      36.893836    
    977000   0.51941853    -7.7795024     -7.0003857      3.9552729      50218.233      36.893836      36.893836      36.893836    
    978000   0.51417291    -7.7776328     -7.0063844      3.9534266      50218.233      36.893836      36.893836      36.893836    
    979000   0.5131321     -7.7792461     -7.0095589      3.9436756      50218.233      36.893836      36.893836      36.893836    
    980000   0.5158052     -7.7818256     -7.0081288      3.924641       50218.233      36.893836      36.893836      36.893836    
    981000   0.51587058    -7.7770654     -7.0032706      3.9575556      50218.233      36.893836      36.893836      36.893836    
    982000   0.51529331    -7.7795173     -7.0065884      3.94531        50218.233      36.893836      36.893836      36.893836    
    983000   0.52065106    -7.7795799     -6.9986144      3.9519865      50218.233      36.893836      36.893836      36.893836    
    984000   0.51531784    -7.7760856     -7.0031198      3.9683171      50218.233      36.893836      36.893836      36.893836    
    985000   0.51502599    -7.7825824     -7.0100544      3.9133926      50218.233      36.893836      36.893836      36.893836    
    986000   0.51348193    -7.7800197     -7.0098078      3.9289707      50218.233      36.893836      36.893836      36.893836    
    987000   0.51705929    -7.7818953     -7.0063174      3.9349057      50218.233      36.893836      36.893836      36.893836    
    988000   0.5126165     -7.7781969     -7.0092831      3.9428431      50218.233      36.893836      36.893836      36.893836    
    989000   0.51562123    -7.778679      -7.0052581      3.9441401      50218.233      36.893836      36.893836      36.893836    
    990000   0.51497203    -7.7827032     -7.0102562      3.9192459      50218.233      36.893836      36.893836      36.893836    
    991000   0.51460167    -7.777959      -7.0060675      3.9586303      50218.233      36.893836      36.893836      36.893836    
    992000   0.51724249    -7.7798278     -7.0039751      3.9384918      50218.233      36.893836      36.893836      36.893836    
    993000   0.51705309    -7.7794808     -7.0039122      3.9503936      50218.233      36.893836      36.893836      36.893836    
    994000   0.51432542    -7.7833221     -7.0118449      3.9129394      50218.233      36.893836      36.893836      36.893836    
    995000   0.51723575    -7.7740833     -6.9982407      3.9790605      50218.233      36.893836      36.893836      36.893836    
    996000   0.51258095    -7.7766893     -7.0078288      3.9576179      50218.233      36.893836      36.893836      36.893836    
    997000   0.51685943    -7.77679       -7.0015119      3.9713305      50218.233      36.893836      36.893836      36.893836    
    998000   0.51628007    -7.7746392     -7.0002301      3.9754178      50218.233      36.893836      36.893836      36.893836    
    999000   0.51624123    -7.7795996     -7.0052487      3.9412401      50218.233      36.893836      36.893836      36.893836    
   1000000   0.51167347    -7.7799939     -7.0124947      3.9439082      50218.233      36.893836      36.893836      36.893836    
Loop time of 4350.2 on 1 procs for 1000000 steps with 70304 atoms

Performance: 198611.568 tau/day, 229.875 timesteps/s, 16.161 Matom-step/s
100.0% CPU use with 1 MPI tasks x 1 OpenMP threads

MPI task timing breakdown:
Section |  min time  |  avg time  |  max time  |%varavg| %total
---------------------------------------------------------------
Pair    | 1034.4     | 1034.4     | 1034.4     |   0.0 | 23.78
Neigh   | 41.183     | 41.183     | 41.183     |   0.0 |  0.95
Comm    | 521.65     | 521.65     | 521.65     |   0.0 | 11.99
Output  | 0.74849    | 0.74849    | 0.74849    |   0.0 |  0.02
Modify  | 2300.7     | 2300.7     | 2300.7     |   0.0 | 52.89
Other   |            | 451.5      |            |       | 10.38

Nlocal:          70304 ave       70304 max       70304 min
Histogram: 1 0 0 0 0 0 0 0 0 0
Nghost:          37138 ave       37138 max       37138 min
Histogram: 1 0 0 0 0 0 0 0 0 0
Neighs:              0 ave           0 max           0 min
Histogram: 1 0 0 0 0 0 0 0 0 0

Total # of neighbors = 0
Ave neighs/atom = 0
Neighbor list builds = 206969
Dangerous builds = 0
clear
OMP_NUM_THREADS environment is not set. Defaulting to 1 thread. (src/comm.cpp:98)
  using 1 OpenMP thread(s) per MPI task
package gpu 0
jump dms510.lmp

variable T equal 510
# T = 1000* (temp in LJ unit)
variable f equal 1000
log log.${T}
log log.510
