variable TLJ equal (${T}/1000)
variable TLJ equal (590/1000)
variable NCyle equal 10
variable iStep equal (${f})
variable iStep equal (1000)
variable dumpStep equal (${f}*100)
variable dumpStep equal (1000*100)
variable runStep equal (${f}*100*${NCyle})
variable runStep equal (1000*100*${NCyle})
variable runStep equal (1000*100*10)

units       lj
atom_style  atomic
dimension 3
boundary     p p p
pair_style  lj/cut 2.5
read_data  ../data/T${T}.dat
read_data  ../data/T590.dat
Reading data file ...
  orthogonal box = (0.97250269 0.97250269 0.97250269) to (37.866338 37.866338 37.866338)
  1 by 1 by 1 MPI processor grid
  reading atoms ...
  70304 atoms
  reading velocities ...
  70304 velocities
  read_data CPU = 0.224 seconds
change_box all triclinic
Changing box ...
  triclinic box = (0.97250269 0.97250269 0.97250269) to (37.866338 37.866338 37.866338) with tilt (0 0 0)
mass 1 1
mass 2 1
pair_modify shift yes
pair_coeff  1 1 1 1
pair_coeff  1 2 1.5 0.8
pair_coeff  2 2 0.5 0.88


timestep 0.01
thermo ${iStep}
thermo 1000
reset_timestep 0
thermo_style custom step temp pe etotal press vol lx ly lz
fix             1 all nvt temp ${TLJ}  ${TLJ}  0.1
fix             1 all nvt temp 0.59  ${TLJ}  0.1
fix             1 all nvt temp 0.59  0.59  0.1
thermo_modify flush yes

fix dsf all deform 1 xy  wiggle 0.5  ${f}   units box
fix dsf all deform 1 xy  wiggle 0.5  1000   units box
fix ps1 all ave/time 1 1 ${iStep} c_thermo_press[1] c_thermo_press[2]  c_thermo_press[3] c_thermo_press[4]  c_thermo_press[5] c_thermo_press[6]  file  stress.${T}
fix ps1 all ave/time 1 1 1000 c_thermo_press[1] c_thermo_press[2]  c_thermo_press[3] c_thermo_press[4]  c_thermo_press[5] c_thermo_press[6]  file  stress.${T}
fix ps1 all ave/time 1 1 1000 c_thermo_press[1] c_thermo_press[2]  c_thermo_press[3] c_thermo_press[4]  c_thermo_press[5] c_thermo_press[6]  file  stress.590
dump            1 all custom ${dumpStep} dump.${T} id type x y z
dump            1 all custom 100000 dump.${T} id type x y z
dump            1 all custom 100000 dump.590 id type x y z
dump_modify 1 sort id
fix nodrift all momentum 1  linear 1 1 1
fix com_seed all recenter INIT INIT INIT shift all
run ${runStep}
run 1000000
Generated 0 of 1 mixed pair_coeff terms from geometric mixing rule
Per MPI rank memory allocation (min/avg/max) = 21.18 | 21.18 | 21.18 Mbytes
   Step          Temp          PotEng         TotEng         Press          Volume           Lx             Ly             Lz      
         0   0.59042258    -7.6329922     -6.7473709      5.1336576      50218.233      36.893836      36.893836      36.893836    
      1000   0.59079534    -7.6214264     -6.735246       5.1969458      50218.233      36.893836      36.893836      36.893836    
      2000   0.58985343    -7.6139775     -6.7292099      5.2647149      50218.233      36.893836      36.893836      36.893836    
      3000   0.59219385    -7.619644      -6.7313658      5.2345159      50218.233      36.893836      36.893836      36.893836    
      4000   0.58952342    -7.619137      -6.7348644      5.2241916      50218.233      36.893836      36.893836      36.893836    
      5000   0.59219653    -7.6202058     -6.7319236      5.2170385      50218.233      36.893836      36.893836      36.893836    
      6000   0.58920345    -7.6187524     -6.7349598      5.2210101      50218.233      36.893836      36.893836      36.893836    
      7000   0.5945141     -7.6178146     -6.7260561      5.2314645      50218.233      36.893836      36.893836      36.893836    
      8000   0.58800834    -7.6173893     -6.7353894      5.2327246      50218.233      36.893836      36.893836      36.893836    
      9000   0.59050624    -7.6202602     -6.7345134      5.2162349      50218.233      36.893836      36.893836      36.893836    
     10000   0.58956931    -7.6173796     -6.7330382      5.2396295      50218.233      36.893836      36.893836      36.893836    
     11000   0.59098305    -7.6167304     -6.7302685      5.2395872      50218.233      36.893836      36.893836      36.893836    
     12000   0.5903425     -7.619497      -6.7339958      5.2266495      50218.233      36.893836      36.893836      36.893836    
     13000   0.59508049    -7.6128894     -6.7202814      5.2714318      50218.233      36.893836      36.893836      36.893836    
     14000   0.58900779    -7.612963      -6.7294639      5.2686167      50218.233      36.893836      36.893836      36.893836    
     15000   0.59114569    -7.614838      -6.7281321      5.2623679      50218.233      36.893836      36.893836      36.893836    
     16000   0.58967473    -7.6207148     -6.7362153      5.2232082      50218.233      36.893836      36.893836      36.893836    
     17000   0.59297266    -7.6123387     -6.7228924      5.2780513      50218.233      36.893836      36.893836      36.893836    
     18000   0.58941862    -7.6166372     -6.7325218      5.2425941      50218.233      36.893836      36.893836      36.893836    
     19000   0.59044996    -7.6192951     -6.7336328      5.2336394      50218.233      36.893836      36.893836      36.893836    
     20000   0.59409982    -7.6162541     -6.725117       5.2489892      50218.233      36.893836      36.893836      36.893836    
     21000   0.58863358    -7.6220622     -6.7391244      5.2001126      50218.233      36.893836      36.893836      36.893836    
     22000   0.58964899    -7.6162526     -6.7317917      5.2507602      50218.233      36.893836      36.893836      36.893836    
     23000   0.59411666    -7.6203768     -6.7292144      5.2213409      50218.233      36.893836      36.893836      36.893836    
     24000   0.5913297     -7.6165994     -6.7296174      5.2550027      50218.233      36.893836      36.893836      36.893836    
     25000   0.58863864    -7.6195248     -6.7365794      5.2262512      50218.233      36.893836      36.893836      36.893836    
     26000   0.59195158    -7.6143713     -6.7264566      5.2611748      50218.233      36.893836      36.893836      36.893836    
     27000   0.58917551    -7.6156673     -6.7319167      5.2463601      50218.233      36.893836      36.893836      36.893836    
     28000   0.58854662    -7.6184695     -6.7356621      5.2311394      50218.233      36.893836      36.893836      36.893836    
     29000   0.59101605    -7.6179063     -6.7313948      5.2386878      50218.233      36.893836      36.893836      36.893836    
     30000   0.59220512    -7.6148295     -6.7265344      5.2688992      50218.233      36.893836      36.893836      36.893836    
     31000   0.58819637    -7.619475      -6.737193       5.2198997      50218.233      36.893836      36.893836      36.893836    
     32000   0.59160795    -7.6184948     -6.7310955      5.2453613      50218.233      36.893836      36.893836      36.893836    
     33000   0.59102203    -7.6135871     -6.7270666      5.2771906      50218.233      36.893836      36.893836      36.893836    
     34000   0.58911216    -7.6187672     -6.7351115      5.2273809      50218.233      36.893836      36.893836      36.893836    
     35000   0.58806144    -7.6172528     -6.7351731      5.2368976      50218.233      36.893836      36.893836      36.893836    
     36000   0.58982611    -7.6183412     -6.7336146      5.2354935      50218.233      36.893836      36.893836      36.893836    
     37000   0.59216957    -7.6193836     -6.7311419      5.223504       50218.233      36.893836      36.893836      36.893836    
     38000   0.59303981    -7.6191571     -6.7296101      5.2247106      50218.233      36.893836      36.893836      36.893836    
     39000   0.58982061    -7.6162166     -6.7314982      5.2401223      50218.233      36.893836      36.893836      36.893836    
     40000   0.58610469    -7.6146103     -6.7354658      5.2526129      50218.233      36.893836      36.893836      36.893836    
     41000   0.58635626    -7.6192646     -6.7397427      5.2276021      50218.233      36.893836      36.893836      36.893836    
     42000   0.59198565    -7.6158573     -6.7278914      5.2525355      50218.233      36.893836      36.893836      36.893836    
     43000   0.59038457    -7.617969      -6.7324047      5.2346736      50218.233      36.893836      36.893836      36.893836    
     44000   0.58950833    -7.6206578     -6.7364079      5.2011342      50218.233      36.893836      36.893836      36.893836    
     45000   0.59038422    -7.6167213     -6.7311575      5.2403935      50218.233      36.893836      36.893836      36.893836    
     46000   0.588836      -7.6142118     -6.7309704      5.265167       50218.233      36.893836      36.893836      36.893836    
     47000   0.59227861    -7.6203267     -6.7319214      5.2094407      50218.233      36.893836      36.893836      36.893836    
     48000   0.58929214    -7.6163151     -6.7323895      5.2418737      50218.233      36.893836      36.893836      36.893836    
     49000   0.59011022    -7.6159698     -6.730817       5.2460286      50218.233      36.893836      36.893836      36.893836    
     50000   0.589007      -7.6132914     -6.7297934      5.2619721      50218.233      36.893836      36.893836      36.893836    
     51000   0.59157112    -7.6147081     -6.727364       5.2503566      50218.233      36.893836      36.893836      36.893836    
     52000   0.58970213    -7.612181      -6.7276403      5.2722451      50218.233      36.893836      36.893836      36.893836    
     53000   0.5874546     -7.6179844     -6.7368151      5.2296634      50218.233      36.893836      36.893836      36.893836    
     54000   0.58965843    -7.6193358     -6.7348608      5.2143177      50218.233      36.893836      36.893836      36.893836    
     55000   0.58957001    -7.6124191     -6.7280767      5.2575158      50218.233      36.893836      36.893836      36.893836    
     56000   0.58855009    -7.6192924     -6.7364798      5.2232838      50218.233      36.893836      36.893836      36.893836    
     57000   0.58964885    -7.6168438     -6.7323832      5.2375306      50218.233      36.893836      36.893836      36.893836    
     58000   0.58936491    -7.6208737     -6.7368389      5.2064737      50218.233      36.893836      36.893836      36.893836    
     59000   0.59170836    -7.6157445     -6.7281946      5.2494011      50218.233      36.893836      36.893836      36.893836    
     60000   0.59152194    -7.6184203     -6.73115        5.2267317      50218.233      36.893836      36.893836      36.893836    
     61000   0.58912968    -7.6102035     -6.7265216      5.2927802      50218.233      36.893836      36.893836      36.893836    
     62000   0.58970568    -7.6175824     -6.7330365      5.2394181      50218.233      36.893836      36.893836      36.893836    
     63000   0.58990076    -7.6186863     -6.7338478      5.2394985      50218.233      36.893836      36.893836      36.893836    
     64000   0.58934264    -7.6195677     -6.7355663      5.2150706      50218.233      36.893836      36.893836      36.893836    
     65000   0.5879547     -7.6159406     -6.7340211      5.2534006      50218.233      36.893836      36.893836      36.893836    
     66000   0.58985021    -7.6192586     -6.7344959      5.2249089      50218.233      36.893836      36.893836      36.893836    
     67000   0.59026129    -7.6203129     -6.7349336      5.206936       50218.233      36.893836      36.893836      36.893836    
     68000   0.58673857    -7.6167075     -6.7366121      5.2342937      50218.233      36.893836      36.893836      36.893836    
     69000   0.58881373    -7.6172226     -6.7340146      5.2337151      50218.233      36.893836      36.893836      36.893836    
     70000   0.58901782    -7.6211316     -6.7376174      5.2098983      50218.233      36.893836      36.893836      36.893836    
     71000   0.59054264    -7.6178402     -6.7320388      5.2435078      50218.233      36.893836      36.893836      36.893836    
     72000   0.59123255    -7.6145344     -6.7276981      5.2631044      50218.233      36.893836      36.893836      36.893836    
     73000   0.58962578    -7.6203422     -6.7359161      5.2123997      50218.233      36.893836      36.893836      36.893836    
     74000   0.59206485    -7.6235398     -6.7354551      5.1945605      50218.233      36.893836      36.893836      36.893836    
     75000   0.58864111    -7.6192079     -6.7362588      5.2229074      50218.233      36.893836      36.893836      36.893836    
     76000   0.59029463    -7.6190638     -6.7336345      5.2126521      50218.233      36.893836      36.893836      36.893836    
     77000   0.5896978     -7.6210903     -6.7365562      5.2128702      50218.233      36.893836      36.893836      36.893836    
     78000   0.58997556    -7.6175778     -6.7326271      5.2284504      50218.233      36.893836      36.893836      36.893836    
     79000   0.58883481    -7.61424       -6.7310003      5.2603465      50218.233      36.893836      36.893836      36.893836    
     80000   0.58919377    -7.6176238     -6.7338457      5.2378195      50218.233      36.893836      36.893836      36.893836    
     81000   0.58942645    -7.6186019     -6.7344748      5.2387585      50218.233      36.893836      36.893836      36.893836    
     82000   0.59416361    -7.6186565     -6.7274238      5.2221957      50218.233      36.893836      36.893836      36.893836    
     83000   0.59167414    -7.616828      -6.7293294      5.2375411      50218.233      36.893836      36.893836      36.893836    
     84000   0.59073397    -7.6147114     -6.728623       5.2533805      50218.233      36.893836      36.893836      36.893836    
     85000   0.58720357    -7.6238427     -6.7430499      5.1802388      50218.233      36.893836      36.893836      36.893836    
     86000   0.59313529    -7.6127891     -6.7230988      5.284          50218.233      36.893836      36.893836      36.893836    
     87000   0.59115367    -7.6170824     -6.7303645      5.2364561      50218.233      36.893836      36.893836      36.893836    
     88000   0.59081414    -7.6207154     -6.7345068      5.2173153      50218.233      36.893836      36.893836      36.893836    
     89000   0.59026909    -7.6179185     -6.7325275      5.2302985      50218.233      36.893836      36.893836      36.893836    
     90000   0.5871924     -7.6163492     -6.7355732      5.2366528      50218.233      36.893836      36.893836      36.893836    
     91000   0.59325996    -7.6153807     -6.7255035      5.244863       50218.233      36.893836      36.893836      36.893836    
     92000   0.59032909    -7.6144226     -6.7289415      5.2533244      50218.233      36.893836      36.893836      36.893836    
     93000   0.58829714    -7.6146904     -6.7322572      5.2587304      50218.233      36.893836      36.893836      36.893836    
     94000   0.58987794    -7.6159129     -6.7311086      5.2351472      50218.233      36.893836      36.893836      36.893836    
     95000   0.58953147    -7.6157359     -6.7314513      5.2465189      50218.233      36.893836      36.893836      36.893836    
     96000   0.59299763    -7.6244861     -6.7350023      5.1866839      50218.233      36.893836      36.893836      36.893836    
     97000   0.59380051    -7.6186716     -6.7279835      5.2261388      50218.233      36.893836      36.893836      36.893836    
     98000   0.59312958    -7.6153296     -6.7256478      5.2563459      50218.233      36.893836      36.893836      36.893836    
     99000   0.58812014    -7.6191474     -6.7369798      5.2261609      50218.233      36.893836      36.893836      36.893836    
    100000   0.59102732    -7.6231607     -6.7366324      5.1909801      50218.233      36.893836      36.893836      36.893836    
    101000   0.58916523    -7.618302      -6.7345667      5.2357756      50218.233      36.893836      36.893836      36.893836    
    102000   0.58924306    -7.6168567     -6.7330047      5.2376079      50218.233      36.893836      36.893836      36.893836    
    103000   0.59075419    -7.6188154     -6.7326967      5.2271102      50218.233      36.893836      36.893836      36.893836    
    104000   0.59300889    -7.6210233     -6.7315226      5.2145538      50218.233      36.893836      36.893836      36.893836    
    105000   0.58948336    -7.6156742     -6.7314617      5.2504999      50218.233      36.893836      36.893836      36.893836    
    106000   0.59265959    -7.6174025     -6.7284257      5.2384408      50218.233      36.893836      36.893836      36.893836    
    107000   0.59044765    -7.6163858     -6.7307269      5.2505443      50218.233      36.893836      36.893836      36.893836    
    108000   0.58817507    -7.6164487     -6.7341986      5.2328655      50218.233      36.893836      36.893836      36.893836    
    109000   0.587121      -7.621476      -6.740807       5.2077261      50218.233      36.893836      36.893836      36.893836    
    110000   0.58718863    -7.6173279     -6.7365575      5.2364147      50218.233      36.893836      36.893836      36.893836    
    111000   0.59166591    -7.6188313     -6.731345       5.2379265      50218.233      36.893836      36.893836      36.893836    
    112000   0.59065875    -7.6189429     -6.7329674      5.2050585      50218.233      36.893836      36.893836      36.893836    
    113000   0.58625192    -7.6157341     -6.7363687      5.2443602      50218.233      36.893836      36.893836      36.893836    
    114000   0.58821842    -7.6153869     -6.7330719      5.2438694      50218.233      36.893836      36.893836      36.893836    
    115000   0.58699561    -7.6183224     -6.7378415      5.2150002      50218.233      36.893836      36.893836      36.893836    
    116000   0.59119786    -7.6168933     -6.7301091      5.2379491      50218.233      36.893836      36.893836      36.893836    
    117000   0.58855626    -7.6179014     -6.7350796      5.2344267      50218.233      36.893836      36.893836      36.893836    
    118000   0.58827305    -7.6242699     -6.7418729      5.1940656      50218.233      36.893836      36.893836      36.893836    
    119000   0.58941548    -7.6149017     -6.7307911      5.2612829      50218.233      36.893836      36.893836      36.893836    
    120000   0.5905288     -7.6213826     -6.735602       5.2054389      50218.233      36.893836      36.893836      36.893836    
    121000   0.59082808    -7.61563       -6.7294005      5.2468177      50218.233      36.893836      36.893836      36.893836    
    122000   0.59152017    -7.6201188     -6.7328512      5.2087228      50218.233      36.893836      36.893836      36.893836    
    123000   0.59417771    -7.6155637     -6.7243098      5.2536294      50218.233      36.893836      36.893836      36.893836    
    124000   0.58877384    -7.6185837     -6.7354355      5.2252144      50218.233      36.893836      36.893836      36.893836    
    125000   0.59148086    -7.6156745     -6.7284659      5.2561384      50218.233      36.893836      36.893836      36.893836    
    126000   0.58995626    -7.6161633     -6.7312415      5.2440413      50218.233      36.893836      36.893836      36.893836    
    127000   0.59054212    -7.6185604     -6.7327598      5.2455988      50218.233      36.893836      36.893836      36.893836    
    128000   0.59010566    -7.6175221     -6.7323762      5.2408464      50218.233      36.893836      36.893836      36.893836    
    129000   0.59038095    -7.6201876     -6.7346287      5.2268894      50218.233      36.893836      36.893836      36.893836    
    130000   0.58885405    -7.6169994     -6.7337309      5.250725       50218.233      36.893836      36.893836      36.893836    
    131000   0.58634416    -7.6189553     -6.7394515      5.2301661      50218.233      36.893836      36.893836      36.893836    
    132000   0.58728747    -7.6134933     -6.7325746      5.2673359      50218.233      36.893836      36.893836      36.893836    
    133000   0.59076185    -7.6226066     -6.7364764      5.2132998      50218.233      36.893836      36.893836      36.893836    
    134000   0.58747729    -7.6184255     -6.7372221      5.2190293      50218.233      36.893836      36.893836      36.893836    
    135000   0.59014395    -7.6173332     -6.7321299      5.2534704      50218.233      36.893836      36.893836      36.893836    
    136000   0.59018878    -7.6170556     -6.731785       5.2254897      50218.233      36.893836      36.893836      36.893836    
    137000   0.58639259    -7.6148489     -6.7352725      5.2460977      50218.233      36.893836      36.893836      36.893836    
    138000   0.59092855    -7.616682      -6.7303018      5.242171       50218.233      36.893836      36.893836      36.893836    
    139000   0.59268921    -7.6196132     -6.7305921      5.2199966      50218.233      36.893836      36.893836      36.893836    
    140000   0.59180707    -7.610658      -6.72296        5.2925365      50218.233      36.893836      36.893836      36.893836    
    141000   0.59058435    -7.6250976     -6.7392336      5.1928447      50218.233      36.893836      36.893836      36.893836    
    142000   0.59160994    -7.6183198     -6.7309175      5.2341533      50218.233      36.893836      36.893836      36.893836    
    143000   0.58791386    -7.6224445     -6.7405863      5.2048203      50218.233      36.893836      36.893836      36.893836    
    144000   0.59262094    -7.620745      -6.7318262      5.2193272      50218.233      36.893836      36.893836      36.893836    
    145000   0.59149145    -7.6149568     -6.7277322      5.2595395      50218.233      36.893836      36.893836      36.893836    
    146000   0.5877902     -7.6195117     -6.737839       5.2244339      50218.233      36.893836      36.893836      36.893836    
    147000   0.5857793     -7.6170221     -6.7383657      5.2441805      50218.233      36.893836      36.893836      36.893836    
    148000   0.59026959    -7.6185369     -6.7331451      5.2315482      50218.233      36.893836      36.893836      36.893836    
    149000   0.5913639     -7.6183508     -6.7313175      5.2265173      50218.233      36.893836      36.893836      36.893836    
    150000   0.59010954    -7.6171486     -6.7319969      5.2441839      50218.233      36.893836      36.893836      36.893836    
    151000   0.5879479     -7.6146835     -6.7327742      5.2672064      50218.233      36.893836      36.893836      36.893836    
    152000   0.58763304    -7.6177373     -6.7363003      5.2238908      50218.233      36.893836      36.893836      36.893836    
    153000   0.58811177    -7.6143073     -6.7321522      5.2524109      50218.233      36.893836      36.893836      36.893836    
    154000   0.59197372    -7.6169869     -6.729039       5.2401607      50218.233      36.893836      36.893836      36.893836    
    155000   0.59182803    -7.6151803     -6.7274508      5.2607148      50218.233      36.893836      36.893836      36.893836    
    156000   0.58896288    -7.613056      -6.7296243      5.266541       50218.233      36.893836      36.893836      36.893836    
    157000   0.58622145    -7.6175425     -6.7382228      5.2305761      50218.233      36.893836      36.893836      36.893836    
    158000   0.59168223    -7.6202637     -6.732753       5.2147834      50218.233      36.893836      36.893836      36.893836    
    159000   0.589595      -7.6124987     -6.7281187      5.2795096      50218.233      36.893836      36.893836      36.893836    
    160000   0.58978146    -7.6154972     -6.7308376      5.2474896      50218.233      36.893836      36.893836      36.893836    
    161000   0.59055255    -7.6133335     -6.7275173      5.2707819      50218.233      36.893836      36.893836      36.893836    
    162000   0.59189481    -7.6126489     -6.7248194      5.2808829      50218.233      36.893836      36.893836      36.893836    
    163000   0.59004959    -7.6121929     -6.7271311      5.2805776      50218.233      36.893836      36.893836      36.893836    
    164000   0.59296288    -7.6106997     -6.721268       5.2875848      50218.233      36.893836      36.893836      36.893836    
    165000   0.59011113    -7.6117435     -6.7265894      5.278406       50218.233      36.893836      36.893836      36.893836    
    166000   0.59355715    -7.6102747     -6.7199517      5.2905409      50218.233      36.893836      36.893836      36.893836    
    167000   0.59178648    -7.6144047     -6.7267376      5.2657104      50218.233      36.893836      36.893836      36.893836    
    168000   0.58778977    -7.6166901     -6.7350179      5.2379123      50218.233      36.893836      36.893836      36.893836    
    169000   0.58915564    -7.6145023     -6.7307814      5.2635363      50218.233      36.893836      36.893836      36.893836    
    170000   0.59160407    -7.6120301     -6.7246366      5.2709168      50218.233      36.893836      36.893836      36.893836    
    171000   0.5897754     -7.6102293     -6.7255788      5.290719       50218.233      36.893836      36.893836      36.893836    
    172000   0.59166883    -7.6127323     -6.7252417      5.2604         50218.233      36.893836      36.893836      36.893836    
    173000   0.59109979    -7.6167282     -6.7300911      5.2535036      50218.233      36.893836      36.893836      36.893836    
    174000   0.58823885    -7.6203973     -6.7380516      5.2129814      50218.233      36.893836      36.893836      36.893836    
    175000   0.5880444     -7.6160559     -6.7340019      5.2379708      50218.233      36.893836      36.893836      36.893836    
    176000   0.58902194    -7.6159991     -6.7324788      5.2455516      50218.233      36.893836      36.893836      36.893836    
    177000   0.59231011    -7.6185268     -6.7300743      5.2329702      50218.233      36.893836      36.893836      36.893836    
    178000   0.59114332    -7.612919      -6.7262166      5.2808721      50218.233      36.893836      36.893836      36.893836    
    179000   0.58942974    -7.6131236     -6.7289916      5.276748       50218.233      36.893836      36.893836      36.893836    
    180000   0.59073982    -7.6149173     -6.7288202      5.2524961      50218.233      36.893836      36.893836      36.893836    
    181000   0.58768683    -7.6174929     -6.7359751      5.2251176      50218.233      36.893836      36.893836      36.893836    
    182000   0.58918519    -7.6158732     -6.732108       5.2448875      50218.233      36.893836      36.893836      36.893836    
    183000   0.58745969    -7.6204345     -6.7392575      5.2123323      50218.233      36.893836      36.893836      36.893836    
    184000   0.5872281     -7.6175667     -6.7367371      5.2329238      50218.233      36.893836      36.893836      36.893836    
    185000   0.59064993    -7.613892      -6.7279297      5.256695       50218.233      36.893836      36.893836      36.893836    
    186000   0.58731943    -7.6151247     -6.734158       5.2422171      50218.233      36.893836      36.893836      36.893836    
    187000   0.59120837    -7.6140713     -6.7272714      5.2668469      50218.233      36.893836      36.893836      36.893836    
    188000   0.59028744    -7.6100928     -6.7246742      5.2932488      50218.233      36.893836      36.893836      36.893836    
    189000   0.58686106    -7.6144563     -6.7341772      5.2607526      50218.233      36.893836      36.893836      36.893836    
    190000   0.5916702     -7.6133677     -6.7258751      5.2752402      50218.233      36.893836      36.893836      36.893836    
    191000   0.59054846    -7.6124981     -6.726688       5.2704372      50218.233      36.893836      36.893836      36.893836    
    192000   0.59090819    -7.6114856     -6.7251359      5.2954104      50218.233      36.893836      36.893836      36.893836    
    193000   0.58872489    -7.6150693     -6.7319945      5.2520231      50218.233      36.893836      36.893836      36.893836    
    194000   0.58754275    -7.6159701     -6.7346685      5.2452363      50218.233      36.893836      36.893836      36.893836    
    195000   0.59315078    -7.6150199     -6.7253064      5.2601112      50218.233      36.893836      36.893836      36.893836    
    196000   0.58907658    -7.6184855     -6.7348832      5.2169906      50218.233      36.893836      36.893836      36.893836    
    197000   0.5888806     -7.613939      -6.7306307      5.257484       50218.233      36.893836      36.893836      36.893836    
    198000   0.59092465    -7.6160717     -6.7296974      5.2545649      50218.233      36.893836      36.893836      36.893836    
    199000   0.59130078    -7.6181356     -6.7311971      5.2351469      50218.233      36.893836      36.893836      36.893836    
    200000   0.59104511    -7.6178289     -6.7312739      5.26023        50218.233      36.893836      36.893836      36.893836    
    201000   0.58590771    -7.610165      -6.731316       5.2802416      50218.233      36.893836      36.893836      36.893836    
    202000   0.58949777    -7.6130437     -6.7288096      5.2667168      50218.233      36.893836      36.893836      36.893836    
    203000   0.58769025    -7.6178507     -6.7363278      5.2218582      50218.233      36.893836      36.893836      36.893836    
    204000   0.59009332    -7.6155935     -6.7304661      5.2512209      50218.233      36.893836      36.893836      36.893836    
    205000   0.58816223    -7.6216798     -6.739449       5.2069979      50218.233      36.893836      36.893836      36.893836    
    206000   0.59138309    -7.6145007     -6.7274387      5.2560072      50218.233      36.893836      36.893836      36.893836    
    207000   0.58972163    -7.6143602     -6.7297903      5.2492067      50218.233      36.893836      36.893836      36.893836    
    208000   0.5893256     -7.6160143     -6.7320384      5.2491592      50218.233      36.893836      36.893836      36.893836    
    209000   0.58698318    -7.6145104     -6.7340481      5.2504265      50218.233      36.893836      36.893836      36.893836    
    210000   0.58865102    -7.6160882     -6.7331242      5.2454641      50218.233      36.893836      36.893836      36.893836    
    211000   0.58763181    -7.6193822     -6.7379471      5.2089581      50218.233      36.893836      36.893836      36.893836    
    212000   0.58754235    -7.6179459     -6.7366449      5.236982       50218.233      36.893836      36.893836      36.893836    
    213000   0.59210104    -7.6128838     -6.7247449      5.2651918      50218.233      36.893836      36.893836      36.893836    
    214000   0.59001795    -7.6133172     -6.7283028      5.2787096      50218.233      36.893836      36.893836      36.893836    
    215000   0.58980198    -7.6178918     -6.7332014      5.2334266      50218.233      36.893836      36.893836      36.893836    
    216000   0.58734576    -7.6141372     -6.7331311      5.2508845      50218.233      36.893836      36.893836      36.893836    
    217000   0.59209938    -7.6160069     -6.7278705      5.2584455      50218.233      36.893836      36.893836      36.893836    
    218000   0.58949177    -7.6131835     -6.7289585      5.2726842      50218.233      36.893836      36.893836      36.893836    
    219000   0.58978646    -7.6132002     -6.728533       5.2691708      50218.233      36.893836      36.893836      36.893836    
    220000   0.59147383    -7.6154245     -6.7282263      5.2570318      50218.233      36.893836      36.893836      36.893836    
    221000   0.58855371    -7.6158816     -6.7330635      5.2437732      50218.233      36.893836      36.893836      36.893836    
    222000   0.59237601    -7.6160814     -6.72753        5.2391696      50218.233      36.893836      36.893836      36.893836    
    223000   0.59083626    -7.6186128     -6.732371       5.2241942      50218.233      36.893836      36.893836      36.893836    
    224000   0.58778538    -7.6154533     -6.7337878      5.2533101      50218.233      36.893836      36.893836      36.893836    
    225000   0.58751616    -7.6126563     -6.7313946      5.2646875      50218.233      36.893836      36.893836      36.893836    
    226000   0.59183584    -7.6124239     -6.7246828      5.2722092      50218.233      36.893836      36.893836      36.893836    
    227000   0.58810469    -7.6128907     -6.7307462      5.2640628      50218.233      36.893836      36.893836      36.893836    
    228000   0.59177787    -7.6117628     -6.7241086      5.2707931      50218.233      36.893836      36.893836      36.893836    
    229000   0.59066042    -7.6115707     -6.7255927      5.2825549      50218.233      36.893836      36.893836      36.893836    
    230000   0.59163679    -7.6125258     -6.7250832      5.2786921      50218.233      36.893836      36.893836      36.893836    
    231000   0.59073667    -7.6145721     -6.7284797      5.2637253      50218.233      36.893836      36.893836      36.893836    
    232000   0.58974748    -7.6164253     -6.7318166      5.2367565      50218.233      36.893836      36.893836      36.893836    
    233000   0.58939064    -7.6133832     -6.7293099      5.2670081      50218.233      36.893836      36.893836      36.893836    
    234000   0.58904706    -7.6163458     -6.7327878      5.2475395      50218.233      36.893836      36.893836      36.893836    
    235000   0.58981771    -7.6151554     -6.7304414      5.2664712      50218.233      36.893836      36.893836      36.893836    
    236000   0.58987635    -7.6210386     -6.7362367      5.2197116      50218.233      36.893836      36.893836      36.893836    
    237000   0.58953018    -7.6120043     -6.7277216      5.2687803      50218.233      36.893836      36.893836      36.893836    
    238000   0.58977514    -7.6084112     -6.7237611      5.3133242      50218.233      36.893836      36.893836      36.893836    
    239000   0.58616543    -7.615913      -6.7366774      5.2401916      50218.233      36.893836      36.893836      36.893836    
    240000   0.59026219    -7.6155411     -6.7301604      5.2518192      50218.233      36.893836      36.893836      36.893836    
    241000   0.59071128    -7.6181801     -6.7321258      5.23092        50218.233      36.893836      36.893836      36.893836    
    242000   0.59155141    -7.617165      -6.7298505      5.2292506      50218.233      36.893836      36.893836      36.893836    
    243000   0.59041731    -7.6138188     -6.7282054      5.2706617      50218.233      36.893836      36.893836      36.893836    
    244000   0.59293642    -7.6142178     -6.7248258      5.2659287      50218.233      36.893836      36.893836      36.893836    
    245000   0.59147567    -7.6151085     -6.7279076      5.2465662      50218.233      36.893836      36.893836      36.893836    
    246000   0.5910335     -7.6150223     -6.7284846      5.2687018      50218.233      36.893836      36.893836      36.893836    
    247000   0.58667472    -7.6121755     -6.732176       5.2545968      50218.233      36.893836      36.893836      36.893836    
    248000   0.58929516    -7.6131414     -6.7292112      5.2601657      50218.233      36.893836      36.893836      36.893836    
    249000   0.5908154     -7.6150811     -6.7288706      5.2487472      50218.233      36.893836      36.893836      36.893836    
    250000   0.59077563    -7.6123508     -6.7262         5.2730093      50218.233      36.893836      36.893836      36.893836    
    251000   0.5904096     -7.6152943     -6.7296925      5.2535979      50218.233      36.893836      36.893836      36.893836    
    252000   0.59379842    -7.6141202     -6.7234353      5.2837028      50218.233      36.893836      36.893836      36.893836    
    253000   0.59155962    -7.6143254     -6.7269986      5.2675976      50218.233      36.893836      36.893836      36.893836    
    254000   0.58940713    -7.6107027     -6.7266045      5.2826659      50218.233      36.893836      36.893836      36.893836    
    255000   0.5906355     -7.6095971     -6.7236564      5.2910401      50218.233      36.893836      36.893836      36.893836    
    256000   0.58731076    -7.6129716     -6.732018       5.26925        50218.233      36.893836      36.893836      36.893836    
    257000   0.58965979    -7.6083351     -6.723858       5.3066722      50218.233      36.893836      36.893836      36.893836    
    258000   0.59136069    -7.6099388     -6.7229103      5.2892663      50218.233      36.893836      36.893836      36.893836    
    259000   0.58941413    -7.6155982     -6.7314896      5.2454156      50218.233      36.893836      36.893836      36.893836    
    260000   0.59047525    -7.6103939     -6.7246936      5.302715       50218.233      36.893836      36.893836      36.893836    
    261000   0.59061607    -7.6133835     -6.727472       5.2646627      50218.233      36.893836      36.893836      36.893836    
    262000   0.58748515    -7.6155269     -6.7343117      5.2511563      50218.233      36.893836      36.893836      36.893836    
    263000   0.59035365    -7.6145868     -6.729069       5.2580821      50218.233      36.893836      36.893836      36.893836    
    264000   0.59120516    -7.61641       -6.7296148      5.2588846      50218.233      36.893836      36.893836      36.893836    
    265000   0.58962974    -7.6136731     -6.7292411      5.2560361      50218.233      36.893836      36.893836      36.893836    
    266000   0.58916518    -7.6173802     -6.733645       5.2376674      50218.233      36.893836      36.893836      36.893836    
    267000   0.58797465    -7.6084836     -6.7265342      5.2955106      50218.233      36.893836      36.893836      36.893836    
    268000   0.59204808    -7.6157189     -6.7276594      5.2425183      50218.233      36.893836      36.893836      36.893836    
    269000   0.58885109    -7.6174369     -6.7341728      5.2295094      50218.233      36.893836      36.893836      36.893836    
    270000   0.59113837    -7.6195525     -6.7328576      5.2266076      50218.233      36.893836      36.893836      36.893836    
    271000   0.59073224    -7.6180582     -6.7319724      5.2384608      50218.233      36.893836      36.893836      36.893836    
    272000   0.59010977    -7.6177071     -6.7325551      5.2391622      50218.233      36.893836      36.893836      36.893836    
    273000   0.58778833    -7.6195251     -6.7378552      5.2253917      50218.233      36.893836      36.893836      36.893836    
    274000   0.58786671    -7.6142843     -6.7324967      5.2452902      50218.233      36.893836      36.893836      36.893836    
    275000   0.59139056    -7.6186858     -6.7316126      5.2436847      50218.233      36.893836      36.893836      36.893836    
    276000   0.59412264    -7.6205027     -6.7293314      5.2222266      50218.233      36.893836      36.893836      36.893836    
    277000   0.59120318    -7.6174877     -6.7306956      5.2420861      50218.233      36.893836      36.893836      36.893836    
    278000   0.59098424    -7.611803      -6.7253393      5.2800366      50218.233      36.893836      36.893836      36.893836    
    279000   0.59004638    -7.6129015     -6.7278445      5.2837986      50218.233      36.893836      36.893836      36.893836    
    280000   0.58636552    -7.6092852     -6.7297494      5.3005174      50218.233      36.893836      36.893836      36.893836    
    281000   0.59118787    -7.6130174     -6.7262482      5.2756329      50218.233      36.893836      36.893836      36.893836    
    282000   0.59214785    -7.6083357     -6.7201265      5.3072987      50218.233      36.893836      36.893836      36.893836    
    283000   0.59156003    -7.6141045     -6.7267771      5.2665954      50218.233      36.893836      36.893836      36.893836    
    284000   0.59391638    -7.6167549     -6.725893       5.2574131      50218.233      36.893836      36.893836      36.893836    
    285000   0.58921922    -7.6139111     -6.7300948      5.2523381      50218.233      36.893836      36.893836      36.893836    
    286000   0.59136116    -7.6146956     -6.7276664      5.2559327      50218.233      36.893836      36.893836      36.893836    
    287000   0.58946976    -7.6144595     -6.7302674      5.2567139      50218.233      36.893836      36.893836      36.893836    
    288000   0.59040467    -7.6157623     -6.7301678      5.2518967      50218.233      36.893836      36.893836      36.893836    
    289000   0.5886751     -7.6157353     -6.7327352      5.2466766      50218.233      36.893836      36.893836      36.893836    
    290000   0.5900805     -7.6131316     -6.7280234      5.2596339      50218.233      36.893836      36.893836      36.893836    
    291000   0.59217713    -7.6159007     -6.7276476      5.2511168      50218.233      36.893836      36.893836      36.893836    
    292000   0.59027134    -7.6180222     -6.7326278      5.2175983      50218.233      36.893836      36.893836      36.893836    
    293000   0.59074967    -7.6154969     -6.729385       5.2575315      50218.233      36.893836      36.893836      36.893836    
    294000   0.58637474    -7.6132877     -6.7337381      5.2644211      50218.233      36.893836      36.893836      36.893836    
    295000   0.58777147    -7.6146681     -6.7330234      5.2538186      50218.233      36.893836      36.893836      36.893836    
    296000   0.58583018    -7.6135305     -6.7347978      5.2658177      50218.233      36.893836      36.893836      36.893836    
    297000   0.58860495    -7.6163065     -6.7334116      5.2350075      50218.233      36.893836      36.893836      36.893836    
    298000   0.58778479    -7.6179198     -6.7362552      5.2354078      50218.233      36.893836      36.893836      36.893836    
    299000   0.58931743    -7.6151763     -6.7312128      5.2550757      50218.233      36.893836      36.893836      36.893836    
    300000   0.59138624    -7.6135142     -6.7264474      5.2656546      50218.233      36.893836      36.893836      36.893836    
    301000   0.58808304    -7.6138856     -6.7317735      5.2647119      50218.233      36.893836      36.893836      36.893836    
    302000   0.58895783    -7.6159775     -6.7325533      5.2448722      50218.233      36.893836      36.893836      36.893836    
    303000   0.59317165    -7.6136494     -6.7239045      5.2641791      50218.233      36.893836      36.893836      36.893836    
    304000   0.59560993    -7.6103012     -6.716899       5.2998293      50218.233      36.893836      36.893836      36.893836    
    305000   0.5893157     -7.6128027     -6.7288417      5.2728974      50218.233      36.893836      36.893836      36.893836    
    306000   0.59130149    -7.6212395     -6.7342999      5.2205808      50218.233      36.893836      36.893836      36.893836    
    307000   0.5897901     -7.6159734     -6.7313009      5.2561485      50218.233      36.893836      36.893836      36.893836    
    308000   0.59039373    -7.6155037     -6.7299257      5.259832       50218.233      36.893836      36.893836      36.893836    
    309000   0.58859325    -7.6171997     -6.7343224      5.2314078      50218.233      36.893836      36.893836      36.893836    
    310000   0.58890999    -7.6093044     -6.725952       5.2941345      50218.233      36.893836      36.893836      36.893836    
    311000   0.5906656     -7.6169264     -6.7309405      5.2523011      50218.233      36.893836      36.893836      36.893836    
    312000   0.58832557    -7.6121457     -6.7296699      5.2763894      50218.233      36.893836      36.893836      36.893836    
    313000   0.58921948    -7.6153207     -6.7315041      5.2505091      50218.233      36.893836      36.893836      36.893836    
    314000   0.5891385     -7.6123206     -6.7286255      5.25875        50218.233      36.893836      36.893836      36.893836    
    315000   0.59077791    -7.6139542     -6.7278         5.2682869      50218.233      36.893836      36.893836      36.893836    
    316000   0.59011       -7.6182696     -6.7331171      5.2199546      50218.233      36.893836      36.893836      36.893836    
    317000   0.59042611    -7.6176978     -6.7320712      5.246948       50218.233      36.893836      36.893836      36.893836    
    318000   0.5924154     -7.6142872     -6.7256767      5.2582663      50218.233      36.893836      36.893836      36.893836    
    319000   0.59238435    -7.6136864     -6.7251225      5.2676621      50218.233      36.893836      36.893836      36.893836    
    320000   0.59068683    -7.6179784     -6.7319608      5.2362305      50218.233      36.893836      36.893836      36.893836    
    321000   0.59076826    -7.6143759     -6.7282361      5.2478298      50218.233      36.893836      36.893836      36.893836    
    322000   0.58975511    -7.6145486     -6.7299285      5.2571854      50218.233      36.893836      36.893836      36.893836    
    323000   0.59012879    -7.6176233     -6.7324427      5.2324282      50218.233      36.893836      36.893836      36.893836    
    324000   0.59227254    -7.6109571     -6.722561       5.2842601      50218.233      36.893836      36.893836      36.893836    
    325000   0.58967369    -7.6065285     -6.7220305      5.3082798      50218.233      36.893836      36.893836      36.893836    
    326000   0.58984569    -7.6139362     -6.7291803      5.2665391      50218.233      36.893836      36.893836      36.893836    
    327000   0.59257807    -7.6132286     -6.7243741      5.2719682      50218.233      36.893836      36.893836      36.893836    
    328000   0.58831593    -7.6113022     -6.7288409      5.2709005      50218.233      36.893836      36.893836      36.893836    
    329000   0.58711801    -7.6155213     -6.7348568      5.2361462      50218.233      36.893836      36.893836      36.893836    
    330000   0.58976331    -7.6138407     -6.7292083      5.2531635      50218.233      36.893836      36.893836      36.893836    
    331000   0.59113729    -7.6194607     -6.7327673      5.205777       50218.233      36.893836      36.893836      36.893836    
    332000   0.59207376    -7.6163009     -6.7282029      5.2363788      50218.233      36.893836      36.893836      36.893836    
    333000   0.59214093    -7.6144695     -6.7262707      5.2610699      50218.233      36.893836      36.893836      36.893836    
    334000   0.59396155    -7.6142844     -6.7233548      5.2739116      50218.233      36.893836      36.893836      36.893836    
    335000   0.59283258    -7.6148642     -6.725628       5.2627075      50218.233      36.893836      36.893836      36.893836    
    336000   0.58986397    -7.6116846     -6.7269012      5.2850033      50218.233      36.893836      36.893836      36.893836    
    337000   0.5892853     -7.6137401     -6.7298247      5.2632745      50218.233      36.893836      36.893836      36.893836    
    338000   0.58849143    -7.6181734     -6.7354488      5.2258381      50218.233      36.893836      36.893836      36.893836    
    339000   0.58867369    -7.6158609     -6.7328629      5.2523032      50218.233      36.893836      36.893836      36.893836    
    340000   0.59110345    -7.6153252     -6.7286826      5.2564444      50218.233      36.893836      36.893836      36.893836    
    341000   0.58978365    -7.6094312     -6.7247683      5.2978675      50218.233      36.893836      36.893836      36.893836    
    342000   0.58832855    -7.6104436     -6.7279633      5.2880844      50218.233      36.893836      36.893836      36.893836    
    343000   0.5874728     -7.6116828     -6.7304861      5.2669316      50218.233      36.893836      36.893836      36.893836    
    344000   0.5906878     -7.6141971     -6.728178       5.2703689      50218.233      36.893836      36.893836      36.893836    
    345000   0.59148429    -7.6143593     -6.7271455      5.2614088      50218.233      36.893836      36.893836      36.893836    
    346000   0.58761361    -7.6146042     -6.7331963      5.2637043      50218.233      36.893836      36.893836      36.893836    
    347000   0.58914257    -7.6177849     -6.7340836      5.2291847      50218.233      36.893836      36.893836      36.893836    
    348000   0.58905606    -7.6208522     -6.7372807      5.209768       50218.233      36.893836      36.893836      36.893836    
    349000   0.58681427    -7.6118359     -6.731627       5.2716788      50218.233      36.893836      36.893836      36.893836    
    350000   0.58840478    -7.6154969     -6.7329023      5.2487854      50218.233      36.893836      36.893836      36.893836    
    351000   0.58887127    -7.6152972     -6.7320029      5.2522997      50218.233      36.893836      36.893836      36.893836    
    352000   0.59006909    -7.6171564     -6.7320654      5.247677       50218.233      36.893836      36.893836      36.893836    
    353000   0.59362067    -7.6129752     -6.7225569      5.2695327      50218.233      36.893836      36.893836      36.893836    
    354000   0.58950808    -7.6127724     -6.7285228      5.2686955      50218.233      36.893836      36.893836      36.893836    
    355000   0.58784424    -7.6098064     -6.7280526      5.2881773      50218.233      36.893836      36.893836      36.893836    
    356000   0.58944811    -7.6171132     -6.7329536      5.2361044      50218.233      36.893836      36.893836      36.893836    
    357000   0.59101061    -7.6145334     -6.7280301      5.2701397      50218.233      36.893836      36.893836      36.893836    
    358000   0.59499013    -7.6192063     -6.7267338      5.232825       50218.233      36.893836      36.893836      36.893836    
    359000   0.5898761     -7.6168076     -6.732006       5.229307       50218.233      36.893836      36.893836      36.893836    
    360000   0.58995038    -7.6131989     -6.7282859      5.2708567      50218.233      36.893836      36.893836      36.893836    
    361000   0.58991172    -7.6169264     -6.7320714      5.2463058      50218.233      36.893836      36.893836      36.893836    
    362000   0.5891808     -7.6198508     -6.7360922      5.2175365      50218.233      36.893836      36.893836      36.893836    
    363000   0.59165622    -7.6174419     -6.7299702      5.2464718      50218.233      36.893836      36.893836      36.893836    
    364000   0.59020778    -7.6181624     -6.7328633      5.2435225      50218.233      36.893836      36.893836      36.893836    
    365000   0.58827262    -7.6103311     -6.7279347      5.2943251      50218.233      36.893836      36.893836      36.893836    
    366000   0.59176239    -7.6110705     -6.7234395      5.2864211      50218.233      36.893836      36.893836      36.893836    
    367000   0.58880092    -7.6140405     -6.7308517      5.2568213      50218.233      36.893836      36.893836      36.893836    
    368000   0.58850124    -7.6142047     -6.7314654      5.2449638      50218.233      36.893836      36.893836      36.893836    
    369000   0.58992633    -7.6108105     -6.7259336      5.2973335      50218.233      36.893836      36.893836      36.893836    
    370000   0.58947465    -7.6160809     -6.7318815      5.2421118      50218.233      36.893836      36.893836      36.893836    
    371000   0.58816625    -7.6156127     -6.7333759      5.2399808      50218.233      36.893836      36.893836      36.893836    
    372000   0.58704038    -7.6172344     -6.7366863      5.2420064      50218.233      36.893836      36.893836      36.893836    
    373000   0.58761895    -7.6132        -6.7317841      5.2814106      50218.233      36.893836      36.893836      36.893836    
    374000   0.58926172    -7.6158477     -6.7319677      5.2454915      50218.233      36.893836      36.893836      36.893836    
    375000   0.58948589    -7.6178886     -6.7336723      5.2344782      50218.233      36.893836      36.893836      36.893836    
    376000   0.5921602     -7.6175163     -6.7292886      5.2463486      50218.233      36.893836      36.893836      36.893836    
    377000   0.59270485    -7.6164341     -6.7273895      5.2590381      50218.233      36.893836      36.893836      36.893836    
    378000   0.59184561    -7.6152141     -6.7274583      5.2629822      50218.233      36.893836      36.893836      36.893836    
    379000   0.5906284     -7.6162551     -6.7303251      5.235705       50218.233      36.893836      36.893836      36.893836    
    380000   0.58903685    -7.6168918     -6.733349       5.2429717      50218.233      36.893836      36.893836      36.893836    
    381000   0.58942256    -7.6145399     -6.7304186      5.25637        50218.233      36.893836      36.893836      36.893836    
    382000   0.59053579    -7.6189989     -6.7332078      5.2209138      50218.233      36.893836      36.893836      36.893836    
    383000   0.5921522     -7.6147688     -6.7265531      5.2531616      50218.233      36.893836      36.893836      36.893836    
    384000   0.59181152    -7.6167749     -6.7290702      5.2406086      50218.233      36.893836      36.893836      36.893836    
    385000   0.58996585    -7.6141306     -6.7291944      5.2621244      50218.233      36.893836      36.893836      36.893836    
    386000   0.5907067     -7.6195458     -6.7334984      5.2181977      50218.233      36.893836      36.893836      36.893836    
    387000   0.59140316    -7.6193561     -6.732264       5.2313613      50218.233      36.893836      36.893836      36.893836    
    388000   0.59045616    -7.6205056     -6.734834       5.2156081      50218.233      36.893836      36.893836      36.893836    
    389000   0.59233684    -7.6176756     -6.729183       5.2360537      50218.233      36.893836      36.893836      36.893836    
    390000   0.59213239    -7.6225477     -6.7343617      5.2086298      50218.233      36.893836      36.893836      36.893836    
    391000   0.58957311    -7.6211711     -6.736824       5.2118345      50218.233      36.893836      36.893836      36.893836    
    392000   0.58951102    -7.6157406     -6.7314866      5.2522683      50218.233      36.893836      36.893836      36.893836    
    393000   0.59081667    -7.6228743     -6.7366619      5.2010702      50218.233      36.893836      36.893836      36.893836    
    394000   0.59031528    -7.6202698     -6.7348095      5.2183318      50218.233      36.893836      36.893836      36.893836    
    395000   0.58959432    -7.6158649     -6.731486       5.2447028      50218.233      36.893836      36.893836      36.893836    
    396000   0.59118281    -7.6142494     -6.7274878      5.2432979      50218.233      36.893836      36.893836      36.893836    
    397000   0.59043316    -7.6232603     -6.7376232      5.1958204      50218.233      36.893836      36.893836      36.893836    
    398000   0.59031083    -7.6261711     -6.7407175      5.173094       50218.233      36.893836      36.893836      36.893836    
    399000   0.58955083    -7.6227669     -6.7384532      5.204142       50218.233      36.893836      36.893836      36.893836    
    400000   0.59148106    -7.6220497     -6.7348407      5.2029454      50218.233      36.893836      36.893836      36.893836    
    401000   0.59113891    -7.6223963     -6.7357006      5.2017253      50218.233      36.893836      36.893836      36.893836    
    402000   0.58817155    -7.6174352     -6.7351905      5.2393753      50218.233      36.893836      36.893836      36.893836    
    403000   0.590765      -7.6177925     -6.7316576      5.2453929      50218.233      36.893836      36.893836      36.893836    
    404000   0.59070642    -7.6172069     -6.7311598      5.2450994      50218.233      36.893836      36.893836      36.893836    
    405000   0.59074221    -7.6232613     -6.7371606      5.2070719      50218.233      36.893836      36.893836      36.893836    
    406000   0.58992024    -7.6237155     -6.7388477      5.1970021      50218.233      36.893836      36.893836      36.893836    
    407000   0.59015295    -7.6205122     -6.7352954      5.2264511      50218.233      36.893836      36.893836      36.893836    
    408000   0.59300433    -7.6239511     -6.7344573      5.201507       50218.233      36.893836      36.893836      36.893836    
    409000   0.58883505    -7.6155155     -6.7322755      5.2576002      50218.233      36.893836      36.893836      36.893836    
    410000   0.58473952    -7.6192703     -6.7421735      5.213009       50218.233      36.893836      36.893836      36.893836    
    411000   0.58752151    -7.6228212     -6.7415515      5.1978737      50218.233      36.893836      36.893836      36.893836    
    412000   0.5902791     -7.6217907     -6.7363847      5.2108295      50218.233      36.893836      36.893836      36.893836    
    413000   0.59212191    -7.6216451     -6.7334748      5.207208       50218.233      36.893836      36.893836      36.893836    
    414000   0.58706778    -7.6182465     -6.7376573      5.2240855      50218.233      36.893836      36.893836      36.893836    
    415000   0.59105428    -7.6171976     -6.7306288      5.232199       50218.233      36.893836      36.893836      36.893836    
    416000   0.58762315    -7.6182581     -6.7368359      5.2075596      50218.233      36.893836      36.893836      36.893836    
    417000   0.5918104     -7.6187233     -6.7310203      5.2311711      50218.233      36.893836      36.893836      36.893836    
    418000   0.59057754    -7.6179251     -6.7320714      5.2151924      50218.233      36.893836      36.893836      36.893836    
    419000   0.58606188    -7.6182637     -6.7391833      5.2175461      50218.233      36.893836      36.893836      36.893836    
    420000   0.59262899    -7.6205439     -6.731613       5.2129466      50218.233      36.893836      36.893836      36.893836    
    421000   0.58745714    -7.6238838     -6.7427106      5.1945061      50218.233      36.893836      36.893836      36.893836    
    422000   0.58643939    -7.6166601     -6.7370135      5.2239214      50218.233      36.893836      36.893836      36.893836    
    423000   0.58761241    -7.6187        -6.7372939      5.2316748      50218.233      36.893836      36.893836      36.893836    
    424000   0.58659408    -7.6182049     -6.7383263      5.219251       50218.233      36.893836      36.893836      36.893836    
    425000   0.59330662    -7.6182763     -6.7283291      5.2278331      50218.233      36.893836      36.893836      36.893836    
    426000   0.5912015     -7.6104871     -6.7236974      5.2961731      50218.233      36.893836      36.893836      36.893836    
    427000   0.58665553    -7.6158207     -6.7358499      5.2390063      50218.233      36.893836      36.893836      36.893836    
    428000   0.58912284    -7.615774      -6.7321023      5.2416022      50218.233      36.893836      36.893836      36.893836    
    429000   0.58827001    -7.6133811     -6.7309886      5.2567721      50218.233      36.893836      36.893836      36.893836    
    430000   0.58708184    -7.6219108     -6.7413005      5.2130976      50218.233      36.893836      36.893836      36.893836    
    431000   0.59058856    -7.6179485     -6.7320783      5.2348941      50218.233      36.893836      36.893836      36.893836    
    432000   0.58863396    -7.6222188     -6.7392804      5.2026827      50218.233      36.893836      36.893836      36.893836    
    433000   0.58757397    -7.6186802     -6.7373318      5.2276537      50218.233      36.893836      36.893836      36.893836    
    434000   0.59059945    -7.6180034     -6.7321168      5.2483994      50218.233      36.893836      36.893836      36.893836    
    435000   0.59040242    -7.6176143     -6.7320233      5.2335264      50218.233      36.893836      36.893836      36.893836    
    436000   0.59238738    -7.6151095     -6.7265411      5.2588255      50218.233      36.893836      36.893836      36.893836    
    437000   0.592068      -7.6143453     -6.7262559      5.2765836      50218.233      36.893836      36.893836      36.893836    
    438000   0.58800362    -7.6161641     -6.7341712      5.2456946      50218.233      36.893836      36.893836      36.893836    
    439000   0.59086187    -7.6149922     -6.728712       5.247549       50218.233      36.893836      36.893836      36.893836    
    440000   0.58795628    -7.6118949     -6.729973       5.278773       50218.233      36.893836      36.893836      36.893836    
    441000   0.58891509    -7.6165967     -6.7332367      5.2525901      50218.233      36.893836      36.893836      36.893836    
    442000   0.59227743    -7.6194234     -6.7310199      5.2306522      50218.233      36.893836      36.893836      36.893836    
    443000   0.58713663    -7.6202626     -6.7395702      5.208669       50218.233      36.893836      36.893836      36.893836    
    444000   0.59184089    -7.61979       -6.7320413      5.2426529      50218.233      36.893836      36.893836      36.893836    
    445000   0.59033343    -7.617274      -6.7317864      5.2546462      50218.233      36.893836      36.893836      36.893836    
    446000   0.58976683    -7.6086718     -6.7240341      5.3030111      50218.233      36.893836      36.893836      36.893836    
    447000   0.59364349    -7.6163217     -6.7258691      5.2507676      50218.233      36.893836      36.893836      36.893836    
    448000   0.59287036    -7.6195909     -6.730298       5.2333653      50218.233      36.893836      36.893836      36.893836    
    449000   0.58715343    -7.6146549     -6.7339373      5.2529234      50218.233      36.893836      36.893836      36.893836    
    450000   0.5905351     -7.6175717     -6.7317817      5.2306429      50218.233      36.893836      36.893836      36.893836    
    451000   0.58896042    -7.6147602     -6.7313321      5.274979       50218.233      36.893836      36.893836      36.893836    
    452000   0.59155274    -7.6156595     -6.728343       5.2538914      50218.233      36.893836      36.893836      36.893836    
    453000   0.5917057     -7.6139487     -6.7264027      5.2618702      50218.233      36.893836      36.893836      36.893836    
    454000   0.59134574    -7.6166479     -6.7296419      5.2460841      50218.233      36.893836      36.893836      36.893836    
    455000   0.58994751    -7.6161971     -6.7312885      5.2453521      50218.233      36.893836      36.893836      36.893836    
    456000   0.59188713    -7.6141832     -6.7263652      5.2789268      50218.233      36.893836      36.893836      36.893836    
    457000   0.59092961    -7.6132881     -6.7269063      5.2835975      50218.233      36.893836      36.893836      36.893836    
    458000   0.58863758    -7.6139183     -6.7309745      5.2716932      50218.233      36.893836      36.893836      36.893836    
    459000   0.58837673    -7.6199126     -6.7373601      5.2299531      50218.233      36.893836      36.893836      36.893836    
    460000   0.58917041    -7.6176514     -6.7339083      5.2414315      50218.233      36.893836      36.893836      36.893836    
    461000   0.58880891    -7.6200184     -6.7368176      5.222937       50218.233      36.893836      36.893836      36.893836    
    462000   0.58925175    -7.6157899     -6.7319249      5.2524299      50218.233      36.893836      36.893836      36.893836    
    463000   0.59032793    -7.6172813     -6.731802       5.2362741      50218.233      36.893836      36.893836      36.893836    
    464000   0.5890787     -7.6151028     -6.7314973      5.2544719      50218.233      36.893836      36.893836      36.893836    
    465000   0.59295383    -7.618977      -6.7295589      5.240124       50218.233      36.893836      36.893836      36.893836    
    466000   0.59057157    -7.6153626     -6.7295179      5.2494105      50218.233      36.893836      36.893836      36.893836    
    467000   0.58677809    -7.6159218     -6.7357672      5.2510511      50218.233      36.893836      36.893836      36.893836    
    468000   0.59183064    -7.6166561     -6.7289228      5.2480782      50218.233      36.893836      36.893836      36.893836    
    469000   0.58916413    -7.6081494     -6.7244158      5.3025839      50218.233      36.893836      36.893836      36.893836    
    470000   0.59127646    -7.6134259     -6.7265238      5.2762257      50218.233      36.893836      36.893836      36.893836    
    471000   0.58888279    -7.6161188     -6.7328072      5.2543945      50218.233      36.893836      36.893836      36.893836    
    472000   0.58936031    -7.6211089     -6.737081       5.2021012      50218.233      36.893836      36.893836      36.893836    
    473000   0.59078933    -7.6126067     -6.7264353      5.269487       50218.233      36.893836      36.893836      36.893836    
    474000   0.59036121    -7.6096277     -6.7240985      5.2865319      50218.233      36.893836      36.893836      36.893836    
    475000   0.59161341    -7.6152913     -6.7278838      5.2578871      50218.233      36.893836      36.893836      36.893836    
    476000   0.5889559     -7.6104932     -6.7270719      5.2776283      50218.233      36.893836      36.893836      36.893836    
    477000   0.58743103    -7.615495      -6.734361       5.2527067      50218.233      36.893836      36.893836      36.893836    
    478000   0.58784552    -7.6105614     -6.7288056      5.2879714      50218.233      36.893836      36.893836      36.893836    
    479000   0.59093528    -7.6120755     -6.7256852      5.2778485      50218.233      36.893836      36.893836      36.893836    
    480000   0.59038616    -7.6188124     -6.7332458      5.2310574      50218.233      36.893836      36.893836      36.893836    
    481000   0.5921538     -7.6149445     -6.7267265      5.2610104      50218.233      36.893836      36.893836      36.893836    
    482000   0.59125824    -7.6153861     -6.7285114      5.2557459      50218.233      36.893836      36.893836      36.893836    
    483000   0.58978995    -7.6136081     -6.7289357      5.2681684      50218.233      36.893836      36.893836      36.893836    
    484000   0.58796239    -7.6123523     -6.7304213      5.2666415      50218.233      36.893836      36.893836      36.893836    
    485000   0.59036177    -7.6171259     -6.7315958      5.2405964      50218.233      36.893836      36.893836      36.893836    
    486000   0.59165504    -7.6141357     -6.7266658      5.2590156      50218.233      36.893836      36.893836      36.893836    
    487000   0.59445846    -7.6148779     -6.7232029      5.2586041      50218.233      36.893836      36.893836      36.893836    
    488000   0.5868418     -7.616998      -6.7367479      5.2375126      50218.233      36.893836      36.893836      36.893836    
    489000   0.5895991     -7.6146592     -6.7302732      5.2599501      50218.233      36.893836      36.893836      36.893836    
    490000   0.58958192    -7.6150789     -6.7307185      5.2543841      50218.233      36.893836      36.893836      36.893836    
    491000   0.59067768    -7.6133972     -6.7273933      5.2551227      50218.233      36.893836      36.893836      36.893836    
    492000   0.58919091    -7.6126271     -6.7288533      5.2701498      50218.233      36.893836      36.893836      36.893836    
    493000   0.58941739    -7.6110733     -6.7269598      5.2862871      50218.233      36.893836      36.893836      36.893836    
    494000   0.59067601    -7.6139172     -6.7279158      5.2633112      50218.233      36.893836      36.893836      36.893836    
    495000   0.58963805    -7.6126763     -6.7282318      5.2692767      50218.233      36.893836      36.893836      36.893836    
    496000   0.59170181    -7.6151564     -6.7276163      5.2551035      50218.233      36.893836      36.893836      36.893836    
    497000   0.58868363    -7.6092946     -6.7262817      5.2896598      50218.233      36.893836      36.893836      36.893836    
    498000   0.58831161    -7.6155492     -6.7330943      5.2621481      50218.233      36.893836      36.893836      36.893836    
    499000   0.58851055    -7.6156018     -6.7328486      5.2466866      50218.233      36.893836      36.893836      36.893836    
    500000   0.59165176    -7.6092368     -6.7217718      5.2992388      50218.233      36.893836      36.893836      36.893836    
    501000   0.59156046    -7.6134491     -6.7261211      5.2783992      50218.233      36.893836      36.893836      36.893836    
    502000   0.59018696    -7.6047898     -6.719522       5.3467823      50218.233      36.893836      36.893836      36.893836    
    503000   0.59060628    -7.6089274     -6.7230305      5.2958921      50218.233      36.893836      36.893836      36.893836    
    504000   0.5946141     -7.6126425     -6.720734       5.2822299      50218.233      36.893836      36.893836      36.893836    
    505000   0.59062501    -7.6103603     -6.7244354      5.284391       50218.233      36.893836      36.893836      36.893836    
    506000   0.58841538    -7.6124348     -6.7298242      5.2715631      50218.233      36.893836      36.893836      36.893836    
    507000   0.58894157    -7.6153962     -6.7319964      5.2479643      50218.233      36.893836      36.893836      36.893836    
    508000   0.59126066    -7.61839       -6.7315116      5.2482345      50218.233      36.893836      36.893836      36.893836    
    509000   0.59242183    -7.6126709     -6.7240507      5.2785362      50218.233      36.893836      36.893836      36.893836    
    510000   0.58849282    -7.6179096     -6.7351829      5.2325612      50218.233      36.893836      36.893836      36.893836    
    511000   0.59029047    -7.6139476     -6.7285245      5.2536049      50218.233      36.893836      36.893836      36.893836    
    512000   0.59106301    -7.6126498     -6.7260679      5.2749897      50218.233      36.893836      36.893836      36.893836    
    513000   0.58979131    -7.6091983     -6.7245239      5.3030993      50218.233      36.893836      36.893836      36.893836    
    514000   0.59308455    -7.610639      -6.7210249      5.2922319      50218.233      36.893836      36.893836      36.893836    
    515000   0.59083354    -7.6171094     -6.7308717      5.2411432      50218.233      36.893836      36.893836      36.893836    
    516000   0.58933313    -7.6103063     -6.7263192      5.2985213      50218.233      36.893836      36.893836      36.893836    
    517000   0.58961748    -7.6147638     -6.7303501      5.2622712      50218.233      36.893836      36.893836      36.893836    
    518000   0.58750846    -7.610706      -6.7294558      5.2904777      50218.233      36.893836      36.893836      36.893836    
    519000   0.59119021    -7.6161296     -6.7293569      5.2569249      50218.233      36.893836      36.893836      36.893836    
    520000   0.58890969    -7.614163      -6.730811       5.2725685      50218.233      36.893836      36.893836      36.893836    
    521000   0.59350253    -7.6189678     -6.7287266      5.2392168      50218.233      36.893836      36.893836      36.893836    
    522000   0.59008948    -7.6201231     -6.7350015      5.2217016      50218.233      36.893836      36.893836      36.893836    
    523000   0.58840385    -7.6186515     -6.7360583      5.2328913      50218.233      36.893836      36.893836      36.893836    
    524000   0.58770171    -7.6149331     -6.7333931      5.2474075      50218.233      36.893836      36.893836      36.893836    
    525000   0.59004212    -7.620546      -6.7354954      5.2184084      50218.233      36.893836      36.893836      36.893836    
    526000   0.58496761    -7.6155857     -6.7381467      5.2507487      50218.233      36.893836      36.893836      36.893836    
    527000   0.58814499    -7.6167071     -6.7345022      5.2472038      50218.233      36.893836      36.893836      36.893836    
    528000   0.59117851    -7.6159297     -6.7291746      5.2570316      50218.233      36.893836      36.893836      36.893836    
    529000   0.59087129    -7.618846      -6.7325517      5.2380647      50218.233      36.893836      36.893836      36.893836    
    530000   0.59132729    -7.6176926     -6.7307143      5.2326074      50218.233      36.893836      36.893836      36.893836    
    531000   0.58973784    -7.6170099     -6.7324157      5.2456185      50218.233      36.893836      36.893836      36.893836    
    532000   0.59123124    -7.617218      -6.7303838      5.2476971      50218.233      36.893836      36.893836      36.893836    
    533000   0.5911029     -7.619144      -6.7325023      5.2298168      50218.233      36.893836      36.893836      36.893836    
    534000   0.59166382    -7.6221289     -6.7346458      5.2132217      50218.233      36.893836      36.893836      36.893836    
    535000   0.58980667    -7.6189739     -6.7342764      5.2432493      50218.233      36.893836      36.893836      36.893836    
    536000   0.59081091    -7.6176163     -6.7314125      5.2417468      50218.233      36.893836      36.893836      36.893836    
    537000   0.59428625    -7.6176761     -6.7262594      5.2485221      50218.233      36.893836      36.893836      36.893836    
    538000   0.5878561     -7.6158566     -6.734085       5.2440466      50218.233      36.893836      36.893836      36.893836    
    539000   0.59097024    -7.6139112     -6.7274685      5.2632677      50218.233      36.893836      36.893836      36.893836    
    540000   0.58925314    -7.6154929     -6.7316258      5.2527192      50218.233      36.893836      36.893836      36.893836    
    541000   0.59073717    -7.6180389     -6.7319458      5.2298803      50218.233      36.893836      36.893836      36.893836    
    542000   0.59211736    -7.6137668     -6.7256034      5.2675191      50218.233      36.893836      36.893836      36.893836    
    543000   0.58682012    -7.6156264     -6.7354087      5.2482201      50218.233      36.893836      36.893836      36.893836    
    544000   0.59043877    -7.6195285     -6.733883       5.2312563      50218.233      36.893836      36.893836      36.893836    
    545000   0.58887034    -7.6164756     -6.7331827      5.2398985      50218.233      36.893836      36.893836      36.893836    
    546000   0.59015426    -7.6172143     -6.7319955      5.2350483      50218.233      36.893836      36.893836      36.893836    
    547000   0.5904208     -7.6137316     -6.728113       5.2542994      50218.233      36.893836      36.893836      36.893836    
    548000   0.5909739     -7.6180574     -6.7316092      5.2326657      50218.233      36.893836      36.893836      36.893836    
    549000   0.5880715     -7.61508       -6.7329853      5.2539752      50218.233      36.893836      36.893836      36.893836    
    550000   0.58915893    -7.6140141     -6.7302882      5.2601448      50218.233      36.893836      36.893836      36.893836    
    551000   0.59317197    -7.610411      -6.7206657      5.2880417      50218.233      36.893836      36.893836      36.893836    
    552000   0.59398867    -7.6110504     -6.72008        5.2899322      50218.233      36.893836      36.893836      36.893836    
    553000   0.5895343     -7.6176251     -6.7333362      5.2368666      50218.233      36.893836      36.893836      36.893836    
    554000   0.58986194    -7.6144247     -6.7296444      5.2534144      50218.233      36.893836      36.893836      36.893836    
    555000   0.59253696    -7.6143247     -6.7255319      5.2733113      50218.233      36.893836      36.893836      36.893836    
    556000   0.58924787    -7.6120013     -6.7281421      5.2728232      50218.233      36.893836      36.893836      36.893836    
    557000   0.59118283    -7.6153826     -6.728621       5.2535524      50218.233      36.893836      36.893836      36.893836    
    558000   0.58796973    -7.6131027     -6.7311607      5.2784416      50218.233      36.893836      36.893836      36.893836    
    559000   0.59026055    -7.6150679     -6.7296896      5.2645555      50218.233      36.893836      36.893836      36.893836    
    560000   0.59020505    -7.6149619     -6.7296669      5.2653878      50218.233      36.893836      36.893836      36.893836    
    561000   0.58793376    -7.6173797     -6.7354916      5.2312666      50218.233      36.893836      36.893836      36.893836    
    562000   0.59278771    -7.6179362     -6.7287673      5.2425879      50218.233      36.893836      36.893836      36.893836    
    563000   0.58992078    -7.6107279     -6.7258593      5.2862171      50218.233      36.893836      36.893836      36.893836    
    564000   0.59307609    -7.6179886     -6.7283872      5.2325847      50218.233      36.893836      36.893836      36.893836    
    565000   0.58640009    -7.6142423     -6.7346547      5.2614585      50218.233      36.893836      36.893836      36.893836    
    566000   0.58903349    -7.6083177     -6.72478        5.3113578      50218.233      36.893836      36.893836      36.893836    
    567000   0.58795109    -7.6111763     -6.7292622      5.2839513      50218.233      36.893836      36.893836      36.893836    
    568000   0.59079385    -7.6118796     -6.7257014      5.2727494      50218.233      36.893836      36.893836      36.893836    
    569000   0.59190054    -7.612337      -6.7244988      5.2807885      50218.233      36.893836      36.893836      36.893836    
    570000   0.58853629    -7.6133215     -6.7305296      5.274065       50218.233      36.893836      36.893836      36.893836    
    571000   0.58596763    -7.6147827     -6.7358437      5.2570113      50218.233      36.893836      36.893836      36.893836    
    572000   0.59267932    -7.6129753     -6.723969       5.2705791      50218.233      36.893836      36.893836      36.893836    
    573000   0.5865996     -7.6173693     -6.7374824      5.2389726      50218.233      36.893836      36.893836      36.893836    
    574000   0.59038727    -7.6124541     -6.7268858      5.2841195      50218.233      36.893836      36.893836      36.893836    
    575000   0.58683307    -7.6127753     -6.7325382      5.2692244      50218.233      36.893836      36.893836      36.893836    
    576000   0.59169113    -7.6131157     -6.7255916      5.2822581      50218.233      36.893836      36.893836      36.893836    
    577000   0.59029126    -7.6121202     -6.7266959      5.2749637      50218.233      36.893836      36.893836      36.893836    
    578000   0.59179761    -7.6137365     -6.7260527      5.2646474      50218.233      36.893836      36.893836      36.893836    
    579000   0.58957838    -7.6190207     -6.7346657      5.2287911      50218.233      36.893836      36.893836      36.893836    
    580000   0.59034065    -7.6134654     -6.727967       5.2762556      50218.233      36.893836      36.893836      36.893836    
    581000   0.58540548    -7.6146106     -6.7365149      5.2453636      50218.233      36.893836      36.893836      36.893836    
    582000   0.5891466     -7.6135937     -6.7298864      5.2650606      50218.233      36.893836      36.893836      36.893836    
    583000   0.59075797    -7.6160363     -6.7299119      5.242596       50218.233      36.893836      36.893836      36.893836    
    584000   0.58930386    -7.6098995     -6.7259563      5.2998184      50218.233      36.893836      36.893836      36.893836    
    585000   0.59217664    -7.6120864     -6.7238341      5.2794631      50218.233      36.893836      36.893836      36.893836    
    586000   0.58926097    -7.6181819     -6.734303       5.2344231      50218.233      36.893836      36.893836      36.893836    
    587000   0.58819166    -7.6145539     -6.732279       5.252236       50218.233      36.893836      36.893836      36.893836    
    588000   0.59004764    -7.6180276     -6.7329687      5.2360671      50218.233      36.893836      36.893836      36.893836    
    589000   0.59006388    -7.6159029     -6.7308197      5.2469683      50218.233      36.893836      36.893836      36.893836    
    590000   0.59034597    -7.6206403     -6.7351339      5.2169983      50218.233      36.893836      36.893836      36.893836    
    591000   0.59092699    -7.6129225     -6.7265446      5.2788705      50218.233      36.893836      36.893836      36.893836    
    592000   0.58772295    -7.617101      -6.7355291      5.2394254      50218.233      36.893836      36.893836      36.893836    
    593000   0.59234555    -7.6161066     -6.7276009      5.2614073      50218.233      36.893836      36.893836      36.893836    
    594000   0.58990239    -7.6182449     -6.7334039      5.2271775      50218.233      36.893836      36.893836      36.893836    
    595000   0.59001525    -7.6165946     -6.7315843      5.2417954      50218.233      36.893836      36.893836      36.893836    
    596000   0.59074276    -7.6195555     -6.733454       5.2306564      50218.233      36.893836      36.893836      36.893836    
    597000   0.59076587    -7.6137766     -6.7276404      5.2720712      50218.233      36.893836      36.893836      36.893836    
    598000   0.58848718    -7.6134146     -6.7306964      5.2728634      50218.233      36.893836      36.893836      36.893836    
    599000   0.58893982    -7.615279      -6.7318818      5.2609925      50218.233      36.893836      36.893836      36.893836    
    600000   0.58916797    -7.6164374     -6.732698       5.2306848      50218.233      36.893836      36.893836      36.893836    
    601000   0.59133822    -7.6186775     -6.7316828      5.2264054      50218.233      36.893836      36.893836      36.893836    
    602000   0.58716982    -7.6215114     -6.7407692      5.1966261      50218.233      36.893836      36.893836      36.893836    
    603000   0.58984616    -7.6178074     -6.7330508      5.2431693      50218.233      36.893836      36.893836      36.893836    
    604000   0.5883865     -7.6200686     -6.7375014      5.2108756      50218.233      36.893836      36.893836      36.893836    
    605000   0.58803608    -7.6138249     -6.7317833      5.2654024      50218.233      36.893836      36.893836      36.893836    
    606000   0.59272766    -7.6156082     -6.7265293      5.2615887      50218.233      36.893836      36.893836      36.893836    
    607000   0.59168835    -7.619597      -6.7320771      5.2150874      50218.233      36.893836      36.893836      36.893836    
    608000   0.58951234    -7.6116826     -6.7274267      5.2765791      50218.233      36.893836      36.893836      36.893836    
    609000   0.59197374    -7.6159711     -6.7280231      5.2479888      50218.233      36.893836      36.893836      36.893836    
    610000   0.5891846     -7.618982      -6.7352177      5.2125912      50218.233      36.893836      36.893836      36.893836    
    611000   0.59236462    -7.6165827     -6.7280484      5.24352        50218.233      36.893836      36.893836      36.893836    
    612000   0.58820315    -7.6136741     -6.7313819      5.2848652      50218.233      36.893836      36.893836      36.893836    
    613000   0.59236206    -7.6149612     -6.7264308      5.2526293      50218.233      36.893836      36.893836      36.893836    
    614000   0.5908508     -7.6166296     -6.730366       5.2412943      50218.233      36.893836      36.893836      36.893836    
    615000   0.5905657     -7.616949      -6.7311131      5.2455623      50218.233      36.893836      36.893836      36.893836    
    616000   0.59197679    -7.6157755     -6.7278229      5.2481887      50218.233      36.893836      36.893836      36.893836    
    617000   0.58989544    -7.6159463     -6.7311158      5.2411254      50218.233      36.893836      36.893836      36.893836    
    618000   0.59032722    -7.6163203     -6.7308421      5.2466075      50218.233      36.893836      36.893836      36.893836    
    619000   0.58805599    -7.6124923     -6.7304208      5.2662964      50218.233      36.893836      36.893836      36.893836    
    620000   0.59000963    -7.615149      -6.7301472      5.2553684      50218.233      36.893836      36.893836      36.893836    
    621000   0.58766392    -7.612662      -6.7311786      5.2733854      50218.233      36.893836      36.893836      36.893836    
    622000   0.58952608    -7.6163412     -6.7320646      5.252102       50218.233      36.893836      36.893836      36.893836    
    623000   0.59327289    -7.6122264     -6.7223297      5.2828335      50218.233      36.893836      36.893836      36.893836    
    624000   0.58817289    -7.6119262     -6.7296794      5.2702944      50218.233      36.893836      36.893836      36.893836    
    625000   0.59168851    -7.6114823     -6.7239622      5.2681459      50218.233      36.893836      36.893836      36.893836    
    626000   0.59190555    -7.6203757     -6.73253        5.2123346      50218.233      36.893836      36.893836      36.893836    
    627000   0.59036109    -7.6120605     -6.7265314      5.2743354      50218.233      36.893836      36.893836      36.893836    
    628000   0.58720248    -7.6138086     -6.7330174      5.2594774      50218.233      36.893836      36.893836      36.893836    
    629000   0.58819381    -7.6212429     -6.7389647      5.2096414      50218.233      36.893836      36.893836      36.893836    
    630000   0.58861286    -7.6189081     -6.7360013      5.221774       50218.233      36.893836      36.893836      36.893836    
    631000   0.58993505    -7.6145754     -6.7296854      5.251746       50218.233      36.893836      36.893836      36.893836    
    632000   0.58833542    -7.6174698     -6.7349792      5.2434895      50218.233      36.893836      36.893836      36.893836    
    633000   0.59253663    -7.6118201     -6.7230278      5.2868751      50218.233      36.893836      36.893836      36.893836    
    634000   0.58993644    -7.6145707     -6.7296786      5.2508826      50218.233      36.893836      36.893836      36.893836    
    635000   0.59047914    -7.6144949     -6.7287888      5.2652048      50218.233      36.893836      36.893836      36.893836    
    636000   0.59251009    -7.6175367     -6.7287842      5.2430205      50218.233      36.893836      36.893836      36.893836    
    637000   0.59117662    -7.6132137     -6.7264614      5.2863347      50218.233      36.893836      36.893836      36.893836    
    638000   0.59036311    -7.6157898     -6.7302577      5.2508973      50218.233      36.893836      36.893836      36.893836    
    639000   0.59012379    -7.6110667     -6.7258936      5.2774964      50218.233      36.893836      36.893836      36.893836    
    640000   0.59153856    -7.6129572     -6.7256619      5.2539725      50218.233      36.893836      36.893836      36.893836    
    641000   0.59063942    -7.6124579     -6.7265113      5.2825068      50218.233      36.893836      36.893836      36.893836    
    642000   0.59185667    -7.6178845     -6.7301121      5.2344902      50218.233      36.893836      36.893836      36.893836    
    643000   0.59124916    -7.6138997     -6.7270386      5.2674111      50218.233      36.893836      36.893836      36.893836    
    644000   0.58656746    -7.614958      -6.7351194      5.2571362      50218.233      36.893836      36.893836      36.893836    
    645000   0.5891802     -7.6183126     -6.7345549      5.241559       50218.233      36.893836      36.893836      36.893836    
    646000   0.58855571    -7.617997      -6.735176       5.2374084      50218.233      36.893836      36.893836      36.893836    
    647000   0.59038213    -7.6167684     -6.7312078      5.2405943      50218.233      36.893836      36.893836      36.893836    
    648000   0.58969731    -7.6119407     -6.7274073      5.2876614      50218.233      36.893836      36.893836      36.893836    
    649000   0.58989096    -7.6146264     -6.7298025      5.266487       50218.233      36.893836      36.893836      36.893836    
    650000   0.59124432    -7.6185905     -6.7317366      5.22463        50218.233      36.893836      36.893836      36.893836    
    651000   0.59076161    -7.6165702     -6.7304404      5.2328216      50218.233      36.893836      36.893836      36.893836    
    652000   0.59110665    -7.6138082     -6.7271608      5.2587286      50218.233      36.893836      36.893836      36.893836    
    653000   0.58865697    -7.6136758     -6.7307029      5.262185       50218.233      36.893836      36.893836      36.893836    
    654000   0.59278014    -7.616791      -6.7276335      5.2404212      50218.233      36.893836      36.893836      36.893836    
    655000   0.59252865    -7.6164261     -6.7276458      5.2525525      50218.233      36.893836      36.893836      36.893836    
    656000   0.59089849    -7.6114969     -6.7251618      5.2881733      50218.233      36.893836      36.893836      36.893836    
    657000   0.59117789    -7.605701      -6.7189468      5.3254203      50218.233      36.893836      36.893836      36.893836    
    658000   0.59065136    -7.618467      -6.7325026      5.225549       50218.233      36.893836      36.893836      36.893836    
    659000   0.59235261    -7.6133574     -6.7248411      5.2690105      50218.233      36.893836      36.893836      36.893836    
    660000   0.58869239    -7.6141578     -6.7311318      5.2694091      50218.233      36.893836      36.893836      36.893836    
    661000   0.58760604    -7.6148182     -6.7334217      5.263419       50218.233      36.893836      36.893836      36.893836    
    662000   0.58901808    -7.6151458     -6.7316312      5.2627527      50218.233      36.893836      36.893836      36.893836    
    663000   0.58761046    -7.6167163     -6.7353131      5.2355599      50218.233      36.893836      36.893836      36.893836    
    664000   0.59259379    -7.614009      -6.7251309      5.2626206      50218.233      36.893836      36.893836      36.893836    
    665000   0.58902248    -7.6131542     -6.7296331      5.2676116      50218.233      36.893836      36.893836      36.893836    
    666000   0.59074067    -7.6183469     -6.7322485      5.2410117      50218.233      36.893836      36.893836      36.893836    
    667000   0.59217432    -7.6121703     -6.7239215      5.2832202      50218.233      36.893836      36.893836      36.893836    
    668000   0.58761452    -7.6150112     -6.7336019      5.247203       50218.233      36.893836      36.893836      36.893836    
    669000   0.59397485    -7.6160364     -6.7250868      5.2538307      50218.233      36.893836      36.893836      36.893836    
    670000   0.58683649    -7.6129495     -6.7327073      5.2583741      50218.233      36.893836      36.893836      36.893836    
    671000   0.58851092    -7.6219567     -6.7392029      5.2049776      50218.233      36.893836      36.893836      36.893836    
    672000   0.59199047    -7.6142744     -6.7263013      5.2664211      50218.233      36.893836      36.893836      36.893836    
    673000   0.59113807    -7.6136567     -6.7269622      5.2679373      50218.233      36.893836      36.893836      36.893836    
    674000   0.59208176    -7.6117329     -6.7236229      5.2881231      50218.233      36.893836      36.893836      36.893836    
    675000   0.5879189     -7.6157069     -6.7338411      5.2433108      50218.233      36.893836      36.893836      36.893836    
    676000   0.58877277    -7.6191285     -6.7359819      5.2172077      50218.233      36.893836      36.893836      36.893836    
    677000   0.58450521    -7.6131544     -6.7364091      5.2725609      50218.233      36.893836      36.893836      36.893836    
    678000   0.59016062    -7.6153777     -6.7301494      5.264497       50218.233      36.893836      36.893836      36.893836    
    679000   0.58996908    -7.6185421     -6.7336011      5.2311816      50218.233      36.893836      36.893836      36.893836    
    680000   0.58899034    -7.6225155     -6.7390425      5.1903378      50218.233      36.893836      36.893836      36.893836    
    681000   0.58958955    -7.615709      -6.7313372      5.2576559      50218.233      36.893836      36.893836      36.893836    
    682000   0.5881759     -7.6149538     -6.7327025      5.2483071      50218.233      36.893836      36.893836      36.893836    
    683000   0.58643534    -7.6211455     -6.741505       5.2042828      50218.233      36.893836      36.893836      36.893836    
    684000   0.59372353    -7.6186692     -6.7280966      5.2478812      50218.233      36.893836      36.893836      36.893836    
    685000   0.58714919    -7.6203661     -6.7396548      5.2167678      50218.233      36.893836      36.893836      36.893836    
    686000   0.5918126     -7.6151222     -6.7274159      5.2523715      50218.233      36.893836      36.893836      36.893836    
    687000   0.58899076    -7.6191775     -6.7357039      5.2232488      50218.233      36.893836      36.893836      36.893836    
    688000   0.58998237    -7.6168905     -6.7319295      5.2479647      50218.233      36.893836      36.893836      36.893836    
    689000   0.59035918    -7.6171779     -6.7316517      5.239035       50218.233      36.893836      36.893836      36.893836    
    690000   0.58968285    -7.6158212     -6.7313095      5.2475541      50218.233      36.893836      36.893836      36.893836    
    691000   0.59166384    -7.6149012     -6.7274181      5.2628386      50218.233      36.893836      36.893836      36.893836    
    692000   0.58948141    -7.6192632     -6.7350537      5.2230538      50218.233      36.893836      36.893836      36.893836    
    693000   0.58688539    -7.6189037     -6.7385882      5.2221532      50218.233      36.893836      36.893836      36.893836    
    694000   0.59055876    -7.6137568     -6.7279313      5.2611902      50218.233      36.893836      36.893836      36.893836    
    695000   0.58946669    -7.6176993     -6.7335119      5.2303493      50218.233      36.893836      36.893836      36.893836    
    696000   0.59017264    -7.6169667     -6.7317203      5.2551607      50218.233      36.893836      36.893836      36.893836    
    697000   0.59243369    -7.6137229     -6.725085       5.275369       50218.233      36.893836      36.893836      36.893836    
    698000   0.59105333    -7.620108      -6.7335406      5.2221633      50218.233      36.893836      36.893836      36.893836    
    699000   0.58650236    -7.6177917     -6.7380507      5.237456       50218.233      36.893836      36.893836      36.893836    
    700000   0.58826373    -7.6167056     -6.7343225      5.2454011      50218.233      36.893836      36.893836      36.893836    
    701000   0.58854082    -7.6184518     -6.7356531      5.2288207      50218.233      36.893836      36.893836      36.893836    
    702000   0.58982888    -7.6149814     -6.7302506      5.2350603      50218.233      36.893836      36.893836      36.893836    
    703000   0.5895921     -7.6127264     -6.7283508      5.2830772      50218.233      36.893836      36.893836      36.893836    
    704000   0.58815521    -7.6187855     -6.7365652      5.2228875      50218.233      36.893836      36.893836      36.893836    
    705000   0.58991197    -7.6156356     -6.7307802      5.2563852      50218.233      36.893836      36.893836      36.893836    
    706000   0.58719255    -7.6166369     -6.7358606      5.2424502      50218.233      36.893836      36.893836      36.893836    
    707000   0.59279479    -7.6170275     -6.727848       5.250322       50218.233      36.893836      36.893836      36.893836    
    708000   0.58916022    -7.6201531     -6.7364253      5.2305081      50218.233      36.893836      36.893836      36.893836    
    709000   0.59126414    -7.6161718     -6.7292882      5.2406878      50218.233      36.893836      36.893836      36.893836    
    710000   0.59100039    -7.6189666     -6.7324786      5.2241017      50218.233      36.893836      36.893836      36.893836    
    711000   0.59131611    -7.6178903     -6.7309288      5.2347163      50218.233      36.893836      36.893836      36.893836    
    712000   0.59124694    -7.6154269     -6.7285691      5.2457576      50218.233      36.893836      36.893836      36.893836    
    713000   0.59059125    -7.613532      -6.7276578      5.2763213      50218.233      36.893836      36.893836      36.893836    
    714000   0.59250759    -7.6161997     -6.7274509      5.2607344      50218.233      36.893836      36.893836      36.893836    
    715000   0.59115747    -7.6125371     -6.7258135      5.2635123      50218.233      36.893836      36.893836      36.893836    
    716000   0.59083406    -7.6208483     -6.7346098      5.2070788      50218.233      36.893836      36.893836      36.893836    
    717000   0.58883588    -7.6147376     -6.7314964      5.2500714      50218.233      36.893836      36.893836      36.893836    
    718000   0.5868568     -7.6162402     -6.7359675      5.2444417      50218.233      36.893836      36.893836      36.893836    
    719000   0.5874454     -7.6166888     -6.7355332      5.226653       50218.233      36.893836      36.893836      36.893836    
    720000   0.5911334     -7.6163459     -6.7296584      5.25206        50218.233      36.893836      36.893836      36.893836    
    721000   0.59381709    -7.6118121     -6.7210991      5.2766633      50218.233      36.893836      36.893836      36.893836    
    722000   0.59324215    -7.6159155     -6.726065       5.2617828      50218.233      36.893836      36.893836      36.893836    
    723000   0.58965191    -7.6167444     -6.7322791      5.2468972      50218.233      36.893836      36.893836      36.893836    
    724000   0.59069062    -7.6141804     -6.728157       5.2729065      50218.233      36.893836      36.893836      36.893836    
    725000   0.58984709    -7.6111447     -6.7263866      5.280374       50218.233      36.893836      36.893836      36.893836    
    726000   0.59144904    -7.6113261     -6.7241651      5.2861728      50218.233      36.893836      36.893836      36.893836    
    727000   0.58925016    -7.6114019     -6.7275393      5.2793802      50218.233      36.893836      36.893836      36.893836    
    728000   0.59360493    -7.6141543     -6.7237596      5.2658996      50218.233      36.893836      36.893836      36.893836    
    729000   0.5903862     -7.6122729     -6.7267062      5.2682947      50218.233      36.893836      36.893836      36.893836    
    730000   0.58765331    -7.6193951     -6.7379276      5.2192268      50218.233      36.893836      36.893836      36.893836    
    731000   0.58830299    -7.6107122     -6.7282703      5.2749336      50218.233      36.893836      36.893836      36.893836    
    732000   0.5876037     -7.6151833     -6.7337903      5.2529628      50218.233      36.893836      36.893836      36.893836    
    733000   0.58802509    -7.6131418     -6.7311167      5.2652583      50218.233      36.893836      36.893836      36.893836    
    734000   0.58746266    -7.6167799     -6.7355984      5.2446167      50218.233      36.893836      36.893836      36.893836    
    735000   0.58674534    -7.6200831     -6.7399776      5.2136013      50218.233      36.893836      36.893836      36.893836    
    736000   0.58956666    -7.6165218     -6.7321844      5.2473941      50218.233      36.893836      36.893836      36.893836    
    737000   0.58803009    -7.6172178     -6.7351852      5.2195188      50218.233      36.893836      36.893836      36.893836    
    738000   0.592065      -7.6206912     -6.7326063      5.2099823      50218.233      36.893836      36.893836      36.893836    
    739000   0.58873027    -7.6151471     -6.7320643      5.251975       50218.233      36.893836      36.893836      36.893836    
    740000   0.5888441     -7.6200336     -6.73678        5.2228749      50218.233      36.893836      36.893836      36.893836    
    741000   0.58664782    -7.6169289     -6.7369697      5.2286529      50218.233      36.893836      36.893836      36.893836    
    742000   0.58821595    -7.6144928     -6.7321814      5.2426566      50218.233      36.893836      36.893836      36.893836    
    743000   0.59241388    -7.6200179     -6.7314097      5.2130692      50218.233      36.893836      36.893836      36.893836    
    744000   0.58775436    -7.6166332     -6.7350142      5.2349617      50218.233      36.893836      36.893836      36.893836    
    745000   0.5880307     -7.6191014     -6.7370679      5.2176384      50218.233      36.893836      36.893836      36.893836    
    746000   0.58981577    -7.6165239     -6.7318128      5.2388816      50218.233      36.893836      36.893836      36.893836    
    747000   0.59253398    -7.6208226     -6.7320343      5.2095687      50218.233      36.893836      36.893836      36.893836    
    748000   0.58823409    -7.6158215     -6.7334829      5.2437345      50218.233      36.893836      36.893836      36.893836    
    749000   0.58757098    -7.6117837     -6.7304397      5.2730784      50218.233      36.893836      36.893836      36.893836    
    750000   0.59011687    -7.6167789     -6.7316161      5.248259       50218.233      36.893836      36.893836      36.893836    
    751000   0.58969965    -7.6164981     -6.7319613      5.2495503      50218.233      36.893836      36.893836      36.893836    
    752000   0.59103763    -7.6130949     -6.726551       5.2695174      50218.233      36.893836      36.893836      36.893836    
    753000   0.59111902    -7.6115841     -6.7249182      5.281936       50218.233      36.893836      36.893836      36.893836    
    754000   0.59200332    -7.6168956     -6.7289033      5.2434832      50218.233      36.893836      36.893836      36.893836    
    755000   0.59393918    -7.6142734     -6.7233773      5.267194       50218.233      36.893836      36.893836      36.893836    
    756000   0.58651274    -7.616406      -6.7366494      5.2458015      50218.233      36.893836      36.893836      36.893836    
    757000   0.59100946    -7.6165137     -6.7300121      5.2609189      50218.233      36.893836      36.893836      36.893836    
    758000   0.5906591     -7.6201337     -6.7341577      5.2238515      50218.233      36.893836      36.893836      36.893836    
    759000   0.5887801     -7.6159141     -6.7327565      5.235431       50218.233      36.893836      36.893836      36.893836    
    760000   0.58996727    -7.6177203     -6.732782       5.2260635      50218.233      36.893836      36.893836      36.893836    
    761000   0.58857563    -7.6180349     -6.735184       5.2220506      50218.233      36.893836      36.893836      36.893836    
    762000   0.5914539     -7.6180959     -6.7309277      5.2515233      50218.233      36.893836      36.893836      36.893836    
    763000   0.58888766    -7.6133202     -6.7300013      5.2685208      50218.233      36.893836      36.893836      36.893836    
    764000   0.58696617    -7.6152039     -6.7347672      5.2518688      50218.233      36.893836      36.893836      36.893836    
    765000   0.5886384     -7.6169784     -6.7340333      5.2307692      50218.233      36.893836      36.893836      36.893836    
    766000   0.59007263    -7.6161228     -6.7310265      5.2520674      50218.233      36.893836      36.893836      36.893836    
    767000   0.5887886     -7.6178927     -6.7347224      5.2301794      50218.233      36.893836      36.893836      36.893836    
    768000   0.5902005     -7.6146138     -6.7293257      5.253783       50218.233      36.893836      36.893836      36.893836    
    769000   0.58932349    -7.6152573     -6.7312846      5.2562778      50218.233      36.893836      36.893836      36.893836    
    770000   0.58980721    -7.6116983     -6.727          5.2857417      50218.233      36.893836      36.893836      36.893836    
    771000   0.59066158    -7.618154      -6.7321742      5.2213711      50218.233      36.893836      36.893836      36.893836    
    772000   0.58994663    -7.6162526     -6.7313452      5.2441894      50218.233      36.893836      36.893836      36.893836    
    773000   0.59202854    -7.6221557     -6.7341255      5.1994995      50218.233      36.893836      36.893836      36.893836    
    774000   0.59037962    -7.614208      -6.7286511      5.2581592      50218.233      36.893836      36.893836      36.893836    
    775000   0.59012551    -7.6187406     -6.7335649      5.223218       50218.233      36.893836      36.893836      36.893836    
    776000   0.58983486    -7.6190065     -6.7342668      5.2178204      50218.233      36.893836      36.893836      36.893836    
    777000   0.59037354    -7.6169634     -6.7314157      5.2401414      50218.233      36.893836      36.893836      36.893836    
    778000   0.59156976    -7.6212149     -6.7338729      5.2186343      50218.233      36.893836      36.893836      36.893836    
    779000   0.58830878    -7.6197418     -6.7372912      5.2150597      50218.233      36.893836      36.893836      36.893836    
    780000   0.59016848    -7.6225926     -6.7373524      5.1919445      50218.233      36.893836      36.893836      36.893836    
    781000   0.58968445    -7.6173235     -6.7328094      5.2429172      50218.233      36.893836      36.893836      36.893836    
    782000   0.59395404    -7.6159836     -6.7250652      5.2454216      50218.233      36.893836      36.893836      36.893836    
    783000   0.58847711    -7.6195458     -6.7368427      5.2267734      50218.233      36.893836      36.893836      36.893836    
    784000   0.59067565    -7.6175161     -6.7315152      5.2365617      50218.233      36.893836      36.893836      36.893836    
    785000   0.5871458     -7.6155472     -6.734841       5.2482395      50218.233      36.893836      36.893836      36.893836    
    786000   0.59094737    -7.615429      -6.7290206      5.2590904      50218.233      36.893836      36.893836      36.893836    
    787000   0.58897246    -7.6173947     -6.7339485      5.2211955      50218.233      36.893836      36.893836      36.893836    
    788000   0.59087942    -7.6172455     -6.730939       5.2370158      50218.233      36.893836      36.893836      36.893836    
    789000   0.58932079    -7.6207663     -6.7367977      5.2022968      50218.233      36.893836      36.893836      36.893836    
    790000   0.58591553    -7.6202439     -6.7413831      5.2192634      50218.233      36.893836      36.893836      36.893836    
    791000   0.59306481    -7.6217641     -6.7321796      5.2100852      50218.233      36.893836      36.893836      36.893836    
    792000   0.58903796    -7.6198207     -6.7362764      5.2209612      50218.233      36.893836      36.893836      36.893836    
    793000   0.59182759    -7.6224834     -6.7347546      5.2017337      50218.233      36.893836      36.893836      36.893836    
    794000   0.59124351    -7.6126733     -6.7258207      5.2839507      50218.233      36.893836      36.893836      36.893836    
    795000   0.59057247    -7.6189202     -6.7330741      5.2271349      50218.233      36.893836      36.893836      36.893836    
    796000   0.59111723    -7.6176139     -6.7309506      5.2339482      50218.233      36.893836      36.893836      36.893836    
    797000   0.58926811    -7.6212773     -6.7373877      5.2092591      50218.233      36.893836      36.893836      36.893836    
    798000   0.5881109     -7.6180165     -6.7358627      5.2407397      50218.233      36.893836      36.893836      36.893836    
    799000   0.5887415     -7.6196113     -6.7365116      5.2195443      50218.233      36.893836      36.893836      36.893836    
    800000   0.5854193     -7.6182678     -6.7401514      5.228511       50218.233      36.893836      36.893836      36.893836    
    801000   0.59100154    -7.6216405     -6.7351508      5.2085802      50218.233      36.893836      36.893836      36.893836    
    802000   0.58865555    -7.6224294     -6.7394587      5.1992764      50218.233      36.893836      36.893836      36.893836    
    803000   0.59121489    -7.619654      -6.7328443      5.2268662      50218.233      36.893836      36.893836      36.893836    
    804000   0.59070718    -7.6155177     -6.7294696      5.2536877      50218.233      36.893836      36.893836      36.893836    
    805000   0.58987938    -7.6122243     -6.7274178      5.2775647      50218.233      36.893836      36.893836      36.893836    
    806000   0.58865778    -7.6147543     -6.7317802      5.2567511      50218.233      36.893836      36.893836      36.893836    
    807000   0.59042359    -7.6163077     -6.7306849      5.2425625      50218.233      36.893836      36.893836      36.893836    
    808000   0.59172022    -7.6153276     -6.7277599      5.2679866      50218.233      36.893836      36.893836      36.893836    
    809000   0.58977969    -7.6202256     -6.7355686      5.2331421      50218.233      36.893836      36.893836      36.893836    
    810000   0.58938214    -7.6163535     -6.7322928      5.246758       50218.233      36.893836      36.893836      36.893836    
    811000   0.59400889    -7.6128291     -6.7218285      5.2746789      50218.233      36.893836      36.893836      36.893836    
    812000   0.59117316    -7.612749      -6.7260018      5.2630806      50218.233      36.893836      36.893836      36.893836    
    813000   0.58903582    -7.616628      -6.7330868      5.2438492      50218.233      36.893836      36.893836      36.893836    
    814000   0.59012383    -7.6127014     -6.7275282      5.277107       50218.233      36.893836      36.893836      36.893836    
    815000   0.589438      -7.6145632     -6.7304188      5.2538516      50218.233      36.893836      36.893836      36.893836    
    816000   0.58943138    -7.6091887     -6.7250542      5.2982768      50218.233      36.893836      36.893836      36.893836    
    817000   0.59037117    -7.6101462     -6.724602       5.285862       50218.233      36.893836      36.893836      36.893836    
    818000   0.58734428    -7.620385      -6.7393811      5.1971929      50218.233      36.893836      36.893836      36.893836    
    819000   0.59079635    -7.6154978     -6.7293158      5.2598321      50218.233      36.893836      36.893836      36.893836    
    820000   0.5929211     -7.6156185     -6.7262495      5.2593533      50218.233      36.893836      36.893836      36.893836    
    821000   0.58839643    -7.6174457     -6.7348636      5.2246992      50218.233      36.893836      36.893836      36.893836    
    822000   0.59134946    -7.6160903     -6.7290788      5.252405       50218.233      36.893836      36.893836      36.893836    
    823000   0.58893446    -7.6119276     -6.7285385      5.2793721      50218.233      36.893836      36.893836      36.893836    
    824000   0.59086462    -7.6156276     -6.7293433      5.2508479      50218.233      36.893836      36.893836      36.893836    
    825000   0.59125519    -7.6157014     -6.7288312      5.2590496      50218.233      36.893836      36.893836      36.893836    
    826000   0.58920411    -7.617074      -6.7332804      5.2428232      50218.233      36.893836      36.893836      36.893836    
    827000   0.58968239    -7.6132721     -6.7287611      5.2606241      50218.233      36.893836      36.893836      36.893836    
    828000   0.58864233    -7.6136385     -6.7306875      5.2592685      50218.233      36.893836      36.893836      36.893836    
    829000   0.5905228     -7.6179178     -6.7321462      5.2331722      50218.233      36.893836      36.893836      36.893836    
    830000   0.5894029     -7.6102944     -6.7262026      5.2899541      50218.233      36.893836      36.893836      36.893836    
    831000   0.59181938    -7.6204094     -6.7326929      5.2178857      50218.233      36.893836      36.893836      36.893836    
    832000   0.58774254    -7.6172187     -6.7356174      5.2244597      50218.233      36.893836      36.893836      36.893836    
    833000   0.58814129    -7.6185739     -6.7363745      5.233448       50218.233      36.893836      36.893836      36.893836    
    834000   0.58839213    -7.6147662     -6.7321906      5.2456999      50218.233      36.893836      36.893836      36.893836    
    835000   0.58887617    -7.6148555     -6.7315538      5.2634291      50218.233      36.893836      36.893836      36.893836    
    836000   0.58902964    -7.6172812     -6.7337493      5.2188506      50218.233      36.893836      36.893836      36.893836    
    837000   0.58927486    -7.616549      -6.7326493      5.2360381      50218.233      36.893836      36.893836      36.893836    
    838000   0.59327416    -7.6153286     -6.72543        5.2429757      50218.233      36.893836      36.893836      36.893836    
    839000   0.58733293    -7.6176705     -6.7366836      5.2373157      50218.233      36.893836      36.893836      36.893836    
    840000   0.58976292    -7.6156758     -6.731044       5.2408552      50218.233      36.893836      36.893836      36.893836    
    841000   0.59031325    -7.6165835     -6.7311262      5.2369943      50218.233      36.893836      36.893836      36.893836    
    842000   0.58952793    -7.6106651     -6.7263858      5.2774213      50218.233      36.893836      36.893836      36.893836    
    843000   0.58712876    -7.6201446     -6.739464       5.2153622      50218.233      36.893836      36.893836      36.893836    
    844000   0.58927438    -7.6170323     -6.7331333      5.224761       50218.233      36.893836      36.893836      36.893836    
    845000   0.58939933    -7.6150584     -6.730972       5.2565281      50218.233      36.893836      36.893836      36.893836    
    846000   0.59182002    -7.6158742     -6.7281568      5.2455804      50218.233      36.893836      36.893836      36.893836    
    847000   0.59126909    -7.612914      -6.726023       5.2662941      50218.233      36.893836      36.893836      36.893836    
    848000   0.59093658    -7.6140271     -6.7276348      5.2596708      50218.233      36.893836      36.893836      36.893836    
    849000   0.59076015    -7.6100817     -6.7239541      5.2819958      50218.233      36.893836      36.893836      36.893836    
    850000   0.59262192    -7.6135857     -6.7246654      5.2774317      50218.233      36.893836      36.893836      36.893836    
    851000   0.59103207    -7.6208513     -6.7343158      5.2174031      50218.233      36.893836      36.893836      36.893836    
    852000   0.59029052    -7.6148067     -6.7293835      5.265097       50218.233      36.893836      36.893836      36.893836    
    853000   0.59300908    -7.6147417     -6.7252408      5.26019        50218.233      36.893836      36.893836      36.893836    
    854000   0.58939401    -7.6220185     -6.7379401      5.1995453      50218.233      36.893836      36.893836      36.893836    
    855000   0.58951465    -7.618606      -6.7343466      5.210555       50218.233      36.893836      36.893836      36.893836    
    856000   0.59059541    -7.6154697     -6.7295892      5.2419972      50218.233      36.893836      36.893836      36.893836    
    857000   0.59146295    -7.6187034     -6.7315216      5.2210712      50218.233      36.893836      36.893836      36.893836    
    858000   0.59125269    -7.6212893     -6.7344229      5.2061752      50218.233      36.893836      36.893836      36.893836    
    859000   0.59155318    -7.6181433     -6.7308262      5.2342634      50218.233      36.893836      36.893836      36.893836    
    860000   0.59493872    -7.6144696     -6.7220742      5.2703789      50218.233      36.893836      36.893836      36.893836    
    861000   0.58753352    -7.6213897     -6.740102       5.2041062      50218.233      36.893836      36.893836      36.893836    
    862000   0.59129457    -7.618923      -6.7319938      5.2147376      50218.233      36.893836      36.893836      36.893836    
    863000   0.58828451    -7.6157825     -6.7333683      5.2440283      50218.233      36.893836      36.893836      36.893836    
    864000   0.59156452    -7.6143954     -6.7270613      5.259262       50218.233      36.893836      36.893836      36.893836    
    865000   0.58836361    -7.6196892     -6.7371563      5.2166614      50218.233      36.893836      36.893836      36.893836    
    866000   0.58884063    -7.6212325     -6.7379841      5.2062987      50218.233      36.893836      36.893836      36.893836    
    867000   0.58952239    -7.6172171     -6.7329461      5.2263413      50218.233      36.893836      36.893836      36.893836    
    868000   0.59041599    -7.618929      -6.7333176      5.2240393      50218.233      36.893836      36.893836      36.893836    
    869000   0.58929266    -7.6174812     -6.7335547      5.2174585      50218.233      36.893836      36.893836      36.893836    
    870000   0.58919573    -7.6159942     -6.7322132      5.2350448      50218.233      36.893836      36.893836      36.893836    
    871000   0.59314841    -7.6160389     -6.7263289      5.2494043      50218.233      36.893836      36.893836      36.893836    
    872000   0.58877368    -7.6171491     -6.7340011      5.234973       50218.233      36.893836      36.893836      36.893836    
    873000   0.58995226    -7.6126087     -6.7276929      5.2680039      50218.233      36.893836      36.893836      36.893836    
    874000   0.59190489    -7.6113964     -6.7235517      5.2842789      50218.233      36.893836      36.893836      36.893836    
    875000   0.59182199    -7.6206401     -6.7329198      5.2253033      50218.233      36.893836      36.893836      36.893836    
    876000   0.59027777    -7.6139543     -6.7285503      5.2630343      50218.233      36.893836      36.893836      36.893836    
    877000   0.5902949     -7.6128512     -6.7274214      5.2659918      50218.233      36.893836      36.893836      36.893836    
    878000   0.5944758     -7.6168983     -6.7251973      5.2509186      50218.233      36.893836      36.893836      36.893836    
    879000   0.58902348    -7.6156247     -6.7321021      5.2491634      50218.233      36.893836      36.893836      36.893836    
    880000   0.59008668    -7.6155358     -6.7304184      5.2476465      50218.233      36.893836      36.893836      36.893836    
    881000   0.5918788     -7.6135966     -6.725791       5.2697419      50218.233      36.893836      36.893836      36.893836    
    882000   0.59355337    -7.6146651     -6.7243477      5.2589051      50218.233      36.893836      36.893836      36.893836    
    883000   0.58689374    -7.6127614     -6.7324333      5.2796013      50218.233      36.893836      36.893836      36.893836    
    884000   0.59067274    -7.6154175     -6.729421       5.2525573      50218.233      36.893836      36.893836      36.893836    
    885000   0.58904973    -7.6196284     -6.7360664      5.2256242      50218.233      36.893836      36.893836      36.893836    
    886000   0.59166451    -7.6196095     -6.7321253      5.2245893      50218.233      36.893836      36.893836      36.893836    
    887000   0.59035588    -7.6100587     -6.7245375      5.2962585      50218.233      36.893836      36.893836      36.893836    
    888000   0.59102965    -7.6143664     -6.7278346      5.2609611      50218.233      36.893836      36.893836      36.893836    
    889000   0.59028807    -7.6150211     -6.7296016      5.2627279      50218.233      36.893836      36.893836      36.893836    
    890000   0.58910896    -7.6159673     -6.7323165      5.2459487      50218.233      36.893836      36.893836      36.893836    
    891000   0.58676798    -7.6164507     -6.7363113      5.2298534      50218.233      36.893836      36.893836      36.893836    
    892000   0.58802641    -7.618233      -6.7362059      5.2292748      50218.233      36.893836      36.893836      36.893836    
    893000   0.59105544    -7.6190331     -6.7324625      5.223069       50218.233      36.893836      36.893836      36.893836    
    894000   0.58906329    -7.6184245     -6.7348421      5.2242709      50218.233      36.893836      36.893836      36.893836    
    895000   0.58855684    -7.6160432     -6.7332205      5.2348525      50218.233      36.893836      36.893836      36.893836    
    896000   0.59044653    -7.6159936     -6.7303364      5.2435206      50218.233      36.893836      36.893836      36.893836    
    897000   0.59167333    -7.6172634     -6.729766       5.2462589      50218.233      36.893836      36.893836      36.893836    
    898000   0.59004481    -7.6183752     -6.7333206      5.2243147      50218.233      36.893836      36.893836      36.893836    
    899000   0.59094614    -7.6158854     -6.7294788      5.2406299      50218.233      36.893836      36.893836      36.893836    
    900000   0.591343      -7.6118248     -6.7248229      5.2766648      50218.233      36.893836      36.893836      36.893836    
    901000   0.5878296     -7.6131112     -6.7313794      5.2670441      50218.233      36.893836      36.893836      36.893836    
    902000   0.59060714    -7.610345      -6.7244469      5.2875658      50218.233      36.893836      36.893836      36.893836    
    903000   0.59309176    -7.6129612     -6.7233362      5.2668373      50218.233      36.893836      36.893836      36.893836    
    904000   0.59176513    -7.6188665     -6.7312315      5.2230401      50218.233      36.893836      36.893836      36.893836    
    905000   0.59357521    -7.6139344     -6.7235842      5.2550212      50218.233      36.893836      36.893836      36.893836    
    906000   0.59324246    -7.6129298     -6.7230788      5.2500276      50218.233      36.893836      36.893836      36.893836    
    907000   0.58796119    -7.6138805     -6.7319513      5.2563918      50218.233      36.893836      36.893836      36.893836    
    908000   0.58885051    -7.6126544     -6.7293912      5.2636987      50218.233      36.893836      36.893836      36.893836    
    909000   0.58678507    -7.6121152     -6.7319501      5.264932       50218.233      36.893836      36.893836      36.893836    
    910000   0.5901867     -7.6123274     -6.72706        5.2673714      50218.233      36.893836      36.893836      36.893836    
    911000   0.58963933    -7.6134385     -6.7289921      5.2653789      50218.233      36.893836      36.893836      36.893836    
    912000   0.58843852    -7.6158765     -6.7332313      5.2298176      50218.233      36.893836      36.893836      36.893836    
    913000   0.58960482    -7.6144863     -6.7300917      5.2521105      50218.233      36.893836      36.893836      36.893836    
    914000   0.59576343    -7.6146986     -6.7210662      5.2704844      50218.233      36.893836      36.893836      36.893836    
    915000   0.5908812     -7.6102576     -6.7239484      5.2813199      50218.233      36.893836      36.893836      36.893836    
    916000   0.58945281    -7.6181281     -6.7339614      5.2278687      50218.233      36.893836      36.893836      36.893836    
    917000   0.58925807    -7.6163171     -6.7324425      5.2417917      50218.233      36.893836      36.893836      36.893836    
    918000   0.58866703    -7.6166552     -6.7336672      5.247948       50218.233      36.893836      36.893836      36.893836    
    919000   0.59066052    -7.6113532     -6.725375       5.2688952      50218.233      36.893836      36.893836      36.893836    
    920000   0.58794276    -7.61805       -6.7361484      5.2315122      50218.233      36.893836      36.893836      36.893836    
    921000   0.58840857    -7.6072088     -6.7246085      5.3124739      50218.233      36.893836      36.893836      36.893836    
    922000   0.59018396    -7.612674      -6.7274107      5.2751755      50218.233      36.893836      36.893836      36.893836    
    923000   0.58930522    -7.6143933     -6.7304481      5.2510274      50218.233      36.893836      36.893836      36.893836    
    924000   0.58734951    -7.6075932     -6.7265815      5.3065361      50218.233      36.893836      36.893836      36.893836    
    925000   0.59365145    -7.6128855     -6.722421       5.2793592      50218.233      36.893836      36.893836      36.893836    
    926000   0.590494      -7.6105956     -6.7248672      5.2927229      50218.233      36.893836      36.893836      36.893836    
    927000   0.59190476    -7.6085808     -6.7207363      5.3023327      50218.233      36.893836      36.893836      36.893836    
    928000   0.58944289    -7.6136074     -6.7294556      5.2734147      50218.233      36.893836      36.893836      36.893836    
    929000   0.590359      -7.6174233     -6.7318974      5.2331381      50218.233      36.893836      36.893836      36.893836    
    930000   0.58935073    -7.6166002     -6.7325867      5.2373521      50218.233      36.893836      36.893836      36.893836    
    931000   0.59076958    -7.605771      -6.7196292      5.3246312      50218.233      36.893836      36.893836      36.893836    
    932000   0.58874589    -7.6146965     -6.7315902      5.2632449      50218.233      36.893836      36.893836      36.893836    
    933000   0.58910731    -7.6152921     -6.7316437      5.2456843      50218.233      36.893836      36.893836      36.893836    
    934000   0.58973265    -7.6159594     -6.731373       5.2579315      50218.233      36.893836      36.893836      36.893836    
    935000   0.58869316    -7.6124943     -6.7294671      5.271683       50218.233      36.893836      36.893836      36.893836    
    936000   0.58854301    -7.6114728     -6.7286708      5.2829697      50218.233      36.893836      36.893836      36.893836    
    937000   0.58800387    -7.6129503     -6.730957       5.2667019      50218.233      36.893836      36.893836      36.893836    
    938000   0.59057645    -7.6104147     -6.7245626      5.2954101      50218.233      36.893836      36.893836      36.893836    
    939000   0.59104483    -7.6159397     -6.729385       5.2588624      50218.233      36.893836      36.893836      36.893836    
    940000   0.58669811    -7.614129      -6.7340944      5.2691557      50218.233      36.893836      36.893836      36.893836    
    941000   0.58909537    -7.6178366     -6.7342061      5.2207632      50218.233      36.893836      36.893836      36.893836    
    942000   0.58771581    -7.609325      -6.7277638      5.3136258      50218.233      36.893836      36.893836      36.893836    
    943000   0.58882514    -7.6140022     -6.7307771      5.2709968      50218.233      36.893836      36.893836      36.893836    
    944000   0.58823998    -7.6162374     -6.73389        5.2413434      50218.233      36.893836      36.893836      36.893836    
    945000   0.58865293    -7.6147632     -6.7317964      5.2560013      50218.233      36.893836      36.893836      36.893836    
    946000   0.58864845    -7.6135168     -6.7305566      5.273571       50218.233      36.893836      36.893836      36.893836    
    947000   0.59002987    -7.6207932     -6.7357609      5.2166738      50218.233      36.893836      36.893836      36.893836    
    948000   0.59038704    -7.6164745     -6.7309066      5.2430956      50218.233      36.893836      36.893836      36.893836    
    949000   0.59469859    -7.6188423     -6.7268071      5.2393478      50218.233      36.893836      36.893836      36.893836    
    950000   0.59027034    -7.6218381     -6.7364452      5.2026941      50218.233      36.893836      36.893836      36.893836    
    951000   0.59171833    -7.6187025     -6.7311376      5.2284873      50218.233      36.893836      36.893836      36.893836    
    952000   0.58891415    -7.6174014     -6.7340427      5.2343424      50218.233      36.893836      36.893836      36.893836    
    953000   0.58915577    -7.6119593     -6.7282382      5.2609164      50218.233      36.893836      36.893836      36.893836    
    954000   0.58962047    -7.6145951     -6.7301769      5.2595248      50218.233      36.893836      36.893836      36.893836    
    955000   0.59188985    -7.6137474     -6.7259253      5.264525       50218.233      36.893836      36.893836      36.893836    
    956000   0.59096961    -7.6190251     -6.7325833      5.2245049      50218.233      36.893836      36.893836      36.893836    
    957000   0.59209514    -7.6167518     -6.7286217      5.2391792      50218.233      36.893836      36.893836      36.893836    
    958000   0.59027558    -7.6168346     -6.7314338      5.2372973      50218.233      36.893836      36.893836      36.893836    
    959000   0.59254027    -7.6151312     -6.7263334      5.2586404      50218.233      36.893836      36.893836      36.893836    
    960000   0.58674411    -7.6182741     -6.7381704      5.2305968      50218.233      36.893836      36.893836      36.893836    
    961000   0.59070621    -7.6202435     -6.7341968      5.2075411      50218.233      36.893836      36.893836      36.893836    
    962000   0.58825747    -7.6137962     -6.7314226      5.2604455      50218.233      36.893836      36.893836      36.893836    
    963000   0.59035767    -7.6137045     -6.7281806      5.256987       50218.233      36.893836      36.893836      36.893836    
    964000   0.59143128    -7.6113114     -6.7241771      5.2821562      50218.233      36.893836      36.893836      36.893836    
    965000   0.58979922    -7.6111516     -6.7264654      5.2870307      50218.233      36.893836      36.893836      36.893836    
    966000   0.5874643     -7.6140225     -6.7328385      5.2666699      50218.233      36.893836      36.893836      36.893836    
    967000   0.58762288    -7.6134949     -6.7320731      5.2578061      50218.233      36.893836      36.893836      36.893836    
    968000   0.58923802    -7.6151562     -6.7313118      5.2617418      50218.233      36.893836      36.893836      36.893836    
    969000   0.59134953    -7.6223126     -6.7353009      5.2141047      50218.233      36.893836      36.893836      36.893836    
    970000   0.58645108    -7.616398      -6.7367339      5.2459604      50218.233      36.893836      36.893836      36.893836    
    971000   0.59023447    -7.6158529     -6.7305138      5.2480217      50218.233      36.893836      36.893836      36.893836    
    972000   0.58872411    -7.6177199     -6.7346463      5.219987       50218.233      36.893836      36.893836      36.893836    
    973000   0.58970243    -7.6151405     -6.7305994      5.2466869      50218.233      36.893836      36.893836      36.893836    
    974000   0.59101204    -7.6146613     -6.7281558      5.2634867      50218.233      36.893836      36.893836      36.893836    
    975000   0.5896391     -7.615655      -6.731209       5.2417099      50218.233      36.893836      36.893836      36.893836    
    976000   0.59163377    -7.6132015     -6.7257635      5.2548307      50218.233      36.893836      36.893836      36.893836    
    977000   0.58749151    -7.6144895     -6.7332648      5.2545165      50218.233      36.893836      36.893836      36.893836    
    978000   0.58969583    -7.6168808     -6.7323496      5.2347011      50218.233      36.893836      36.893836      36.893836    
    979000   0.59027562    -7.6154958     -6.730095       5.2480462      50218.233      36.893836      36.893836      36.893836    
    980000   0.59194311    -7.6187892     -6.7308871      5.2238785      50218.233      36.893836      36.893836      36.893836    
    981000   0.59179762    -7.6133762     -6.7256924      5.2697785      50218.233      36.893836      36.893836      36.893836    
    982000   0.58948424    -7.6152997     -6.7310859      5.2601777      50218.233      36.893836      36.893836      36.893836    
    983000   0.59199554    -7.6120611     -6.7240804      5.2761459      50218.233      36.893836      36.893836      36.893836    
    984000   0.58947679    -7.6135133     -6.7293107      5.2624877      50218.233      36.893836      36.893836      36.893836    
    985000   0.58477764    -7.6204932     -6.7433392      5.2008441      50218.233      36.893836      36.893836      36.893836    
    986000   0.5918825     -7.615051      -6.7272399      5.2505385      50218.233      36.893836      36.893836      36.893836    
    987000   0.58791046    -7.6192887     -6.7374356      5.2290988      50218.233      36.893836      36.893836      36.893836    
    988000   0.58899712    -7.6152753     -6.7317922      5.2447236      50218.233      36.893836      36.893836      36.893836    
    989000   0.58804605    -7.6179993     -6.7359428      5.2288686      50218.233      36.893836      36.893836      36.893836    
    990000   0.58969361    -7.6189638     -6.7344359      5.220273       50218.233      36.893836      36.893836      36.893836    
    991000   0.58873141    -7.6176772     -6.7345926      5.2320385      50218.233      36.893836      36.893836      36.893836    
    992000   0.58915709    -7.6154552     -6.7317322      5.259855       50218.233      36.893836      36.893836      36.893836    
    993000   0.59071552    -7.6179088     -6.7318481      5.2427318      50218.233      36.893836      36.893836      36.893836    
    994000   0.58932559    -7.6153564     -6.7313806      5.2501784      50218.233      36.893836      36.893836      36.893836    
    995000   0.5942953     -7.6169834     -6.7255531      5.2487315      50218.233      36.893836      36.893836      36.893836    
    996000   0.59000701    -7.6155205     -6.7305226      5.2496786      50218.233      36.893836      36.893836      36.893836    
    997000   0.59025492    -7.6137582     -6.7283885      5.26503        50218.233      36.893836      36.893836      36.893836    
    998000   0.58826386    -7.6127202     -6.7303369      5.2698246      50218.233      36.893836      36.893836      36.893836    
    999000   0.59030907    -7.6073847     -6.7219337      5.3159963      50218.233      36.893836      36.893836      36.893836    
   1000000   0.59024724    -7.6153708     -6.7300125      5.2527899      50218.233      36.893836      36.893836      36.893836    
Loop time of 4372.99 on 1 procs for 1000000 steps with 70304 atoms

Performance: 197576.405 tau/day, 228.676 timesteps/s, 16.077 Matom-step/s
100.0% CPU use with 1 MPI tasks x 1 OpenMP threads

MPI task timing breakdown:
Section |  min time  |  avg time  |  max time  |%varavg| %total
---------------------------------------------------------------
Pair    | 1068.9     | 1068.9     | 1068.9     |   0.0 | 24.44
Neigh   | 43.534     | 43.534     | 43.534     |   0.0 |  1.00
Comm    | 532.17     | 532.17     | 532.17     |   0.0 | 12.17
Output  | 0.74834    | 0.74834    | 0.74834    |   0.0 |  0.02
Modify  | 2288.5     | 2288.5     | 2288.5     |   0.0 | 52.33
Other   |            | 439.1      |            |       | 10.04

Nlocal:          70304 ave       70304 max       70304 min
Histogram: 1 0 0 0 0 0 0 0 0 0
Nghost:          37035 ave       37035 max       37035 min
Histogram: 1 0 0 0 0 0 0 0 0 0
Neighs:              0 ave           0 max           0 min
Histogram: 1 0 0 0 0 0 0 0 0 0

Total # of neighbors = 0
Ave neighs/atom = 0
Neighbor list builds = 229481
Dangerous builds = 0
clear
OMP_NUM_THREADS environment is not set. Defaulting to 1 thread. (src/comm.cpp:98)
  using 1 OpenMP thread(s) per MPI task
package gpu 0
jump dms585.lmp

variable T equal 585
# T = 1000* (temp in LJ unit)
variable f equal 1000
log log.${T}
log log.585
