variable TLJ equal (${T}/1000)
variable TLJ equal (610/1000)
variable NCyle equal 10
variable iStep equal (${f})
variable iStep equal (1000)
variable dumpStep equal (${f}*100)
variable dumpStep equal (1000*100)
variable runStep equal (${f}*100*${NCyle})
variable runStep equal (1000*100*${NCyle})
variable runStep equal (1000*100*10)

units       lj
atom_style  atomic
dimension 3
boundary     p p p
pair_style  lj/cut 2.5
read_data  ../data/T${T}.dat
read_data  ../data/T610.dat
Reading data file ...
  orthogonal box = (0.97250269 0.97250269 0.97250269) to (37.866338 37.866338 37.866338)
  1 by 1 by 1 MPI processor grid
  reading atoms ...
  70304 atoms
  reading velocities ...
  70304 velocities
  read_data CPU = 0.224 seconds
change_box all triclinic
Changing box ...
  triclinic box = (0.97250269 0.97250269 0.97250269) to (37.866338 37.866338 37.866338) with tilt (0 0 0)
mass 1 1
mass 2 1
pair_modify shift yes
pair_coeff  1 1 1 1
pair_coeff  1 2 1.5 0.8
pair_coeff  2 2 0.5 0.88


timestep 0.01
thermo ${iStep}
thermo 1000
reset_timestep 0
thermo_style custom step temp pe etotal press vol lx ly lz
fix             1 all nvt temp ${TLJ}  ${TLJ}  0.1
fix             1 all nvt temp 0.61  ${TLJ}  0.1
fix             1 all nvt temp 0.61  0.61  0.1
thermo_modify flush yes

fix dsf all deform 1 xy  wiggle 0.5  ${f}   units box
fix dsf all deform 1 xy  wiggle 0.5  1000   units box
fix ps1 all ave/time 1 1 ${iStep} c_thermo_press[1] c_thermo_press[2]  c_thermo_press[3] c_thermo_press[4]  c_thermo_press[5] c_thermo_press[6]  file  stress.${T}
fix ps1 all ave/time 1 1 1000 c_thermo_press[1] c_thermo_press[2]  c_thermo_press[3] c_thermo_press[4]  c_thermo_press[5] c_thermo_press[6]  file  stress.${T}
fix ps1 all ave/time 1 1 1000 c_thermo_press[1] c_thermo_press[2]  c_thermo_press[3] c_thermo_press[4]  c_thermo_press[5] c_thermo_press[6]  file  stress.610
dump            1 all custom ${dumpStep} dump.${T} id type x y z
dump            1 all custom 100000 dump.${T} id type x y z
dump            1 all custom 100000 dump.610 id type x y z
dump_modify 1 sort id
fix nodrift all momentum 1  linear 1 1 1
fix com_seed all recenter INIT INIT INIT shift all
run ${runStep}
run 1000000
Generated 0 of 1 mixed pair_coeff terms from geometric mixing rule
Per MPI rank memory allocation (min/avg/max) = 21.18 | 21.18 | 21.18 Mbytes
   Step          Temp          PotEng         TotEng         Press          Volume           Lx             Ly             Lz      
         0   0.61040966    -7.591182      -6.6755806      5.4613486      50218.233      36.893836      36.893836      36.893836    
      1000   0.61019837    -7.5799981     -6.6647135      5.5316729      50218.233      36.893836      36.893836      36.893836    
      2000   0.60965919    -7.5778154     -6.6633396      5.554004       50218.233      36.893836      36.893836      36.893836    
      3000   0.61115012    -7.5732157     -6.6565036      5.5937617      50218.233      36.893836      36.893836      36.893836    
      4000   0.60719436    -7.5782476     -6.667469       5.5493154      50218.233      36.893836      36.893836      36.893836    
      5000   0.61042576    -7.577898      -6.6622724      5.5541355      50218.233      36.893836      36.893836      36.893836    
      6000   0.61236427    -7.5773271     -6.6587937      5.5670711      50218.233      36.893836      36.893836      36.893836    
      7000   0.61437743    -7.5783189     -6.6567659      5.5584517      50218.233      36.893836      36.893836      36.893836    
      8000   0.61092722    -7.5830693     -6.6666915      5.5123614      50218.233      36.893836      36.893836      36.893836    
      9000   0.60953538    -7.5805949     -6.6663049      5.5281903      50218.233      36.893836      36.893836      36.893836    
     10000   0.61264583    -7.5790068     -6.6600511      5.5511385      50218.233      36.893836      36.893836      36.893836    
     11000   0.61283509    -7.5770321     -6.6577926      5.5693138      50218.233      36.893836      36.893836      36.893836    
     12000   0.61061142    -7.5830548     -6.6671507      5.5279753      50218.233      36.893836      36.893836      36.893836    
     13000   0.61081643    -7.5785959     -6.6623843      5.5322603      50218.233      36.893836      36.893836      36.893836    
     14000   0.60720409    -7.5716161     -6.6608229      5.5974381      50218.233      36.893836      36.893836      36.893836    
     15000   0.61232863    -7.5832322     -6.6647524      5.5126946      50218.233      36.893836      36.893836      36.893836    
     16000   0.6134731     -7.5755847     -6.6553881      5.5698355      50218.233      36.893836      36.893836      36.893836    
     17000   0.60804816    -7.5768873     -6.664828       5.5666902      50218.233      36.893836      36.893836      36.893836    
     18000   0.61045381    -7.5783696     -6.6627019      5.554196       50218.233      36.893836      36.893836      36.893836    
     19000   0.60848494    -7.5787513     -6.6660369      5.5402323      50218.233      36.893836      36.893836      36.893836    
     20000   0.61114375    -7.5774269     -6.6607243      5.5560267      50218.233      36.893836      36.893836      36.893836    
     21000   0.61213134    -7.5768893     -6.6587053      5.5626253      50218.233      36.893836      36.893836      36.893836    
     22000   0.60843086    -7.5741325     -6.6614992      5.5931633      50218.233      36.893836      36.893836      36.893836    
     23000   0.60992895    -7.5776486     -6.6627682      5.5495164      50218.233      36.893836      36.893836      36.893836    
     24000   0.60906552    -7.5796242     -6.666039       5.5423461      50218.233      36.893836      36.893836      36.893836    
     25000   0.6109434     -7.5683499     -6.6519478      5.6259853      50218.233      36.893836      36.893836      36.893836    
     26000   0.61094287    -7.5732029     -6.6568017      5.5892856      50218.233      36.893836      36.893836      36.893836    
     27000   0.60728905    -7.5797365     -6.6688159      5.5341363      50218.233      36.893836      36.893836      36.893836    
     28000   0.61081084    -7.5778352     -6.6616319      5.552892       50218.233      36.893836      36.893836      36.893836    
     29000   0.60519955    -7.5785164     -6.67073        5.5457172      50218.233      36.893836      36.893836      36.893836    
     30000   0.60807568    -7.5814512     -6.6693506      5.5246497      50218.233      36.893836      36.893836      36.893836    
     31000   0.60832432    -7.5735253     -6.6610518      5.5830307      50218.233      36.893836      36.893836      36.893836    
     32000   0.60955226    -7.578232      -6.6639166      5.5564663      50218.233      36.893836      36.893836      36.893836    
     33000   0.60992935    -7.5767793     -6.6618983      5.5669433      50218.233      36.893836      36.893836      36.893836    
     34000   0.60867899    -7.5773268     -6.6643213      5.5650199      50218.233      36.893836      36.893836      36.893836    
     35000   0.61191006    -7.5777217     -6.6598697      5.5599018      50218.233      36.893836      36.893836      36.893836    
     36000   0.61030689    -7.5759746     -6.6605273      5.5742904      50218.233      36.893836      36.893836      36.893836    
     37000   0.61105308    -7.5786428     -6.6620762      5.5498911      50218.233      36.893836      36.893836      36.893836    
     38000   0.60968269    -7.5733539     -6.6588429      5.591697       50218.233      36.893836      36.893836      36.893836    
     39000   0.60752522    -7.5798647     -6.6685898      5.5189948      50218.233      36.893836      36.893836      36.893836    
     40000   0.61151329    -7.5813735     -6.6641166      5.510705       50218.233      36.893836      36.893836      36.893836    
     41000   0.60859344    -7.5700055     -6.6571283      5.5976936      50218.233      36.893836      36.893836      36.893836    
     42000   0.61312129    -7.5795431     -6.6598742      5.5470238      50218.233      36.893836      36.893836      36.893836    
     43000   0.60910673    -7.5760471     -6.6624         5.5725272      50218.233      36.893836      36.893836      36.893836    
     44000   0.61179226    -7.5726812     -6.6550059      5.600001       50218.233      36.893836      36.893836      36.893836    
     45000   0.61007595    -7.5709106     -6.6558097      5.6075266      50218.233      36.893836      36.893836      36.893836    
     46000   0.61189733    -7.5778367     -6.6600038      5.5487979      50218.233      36.893836      36.893836      36.893836    
     47000   0.610177      -7.5761607     -6.6609082      5.5748065      50218.233      36.893836      36.893836      36.893836    
     48000   0.60613445    -7.5776858     -6.668497       5.5491213      50218.233      36.893836      36.893836      36.893836    
     49000   0.6118488     -7.5768969     -6.6591368      5.5676481      50218.233      36.893836      36.893836      36.893836    
     50000   0.60907962    -7.5745514     -6.6609449      5.5693073      50218.233      36.893836      36.893836      36.893836    
     51000   0.61166191    -7.5822009     -6.6647211      5.5290856      50218.233      36.893836      36.893836      36.893836    
     52000   0.60753954    -7.5727641     -6.6614678      5.5965159      50218.233      36.893836      36.893836      36.893836    
     53000   0.61097185    -7.5723097     -6.6558649      5.5872535      50218.233      36.893836      36.893836      36.893836    
     54000   0.61010513    -7.5750807     -6.659936       5.5828829      50218.233      36.893836      36.893836      36.893836    
     55000   0.60913098    -7.5730005     -6.659317       5.6018546      50218.233      36.893836      36.893836      36.893836    
     56000   0.61091683    -7.5780268     -6.6616646      5.5507493      50218.233      36.893836      36.893836      36.893836    
     57000   0.6051551     -7.577143      -6.6694233      5.5559864      50218.233      36.893836      36.893836      36.893836    
     58000   0.61113355    -7.5776467     -6.6609594      5.5587721      50218.233      36.893836      36.893836      36.893836    
     59000   0.6126657     -7.5733939     -6.6544084      5.6032256      50218.233      36.893836      36.893836      36.893836    
     60000   0.60797182    -7.5745038     -6.662559       5.5803784      50218.233      36.893836      36.893836      36.893836    
     61000   0.6109437     -7.5752806     -6.6588781      5.5859954      50218.233      36.893836      36.893836      36.893836    
     62000   0.61252426    -7.5731981     -6.6544248      5.5797492      50218.233      36.893836      36.893836      36.893836    
     63000   0.60825978    -7.5739379     -6.6615612      5.5784963      50218.233      36.893836      36.893836      36.893836    
     64000   0.61146995    -7.5777851     -6.6605933      5.5666485      50218.233      36.893836      36.893836      36.893836    
     65000   0.60816607    -7.5695399     -6.6573038      5.6032859      50218.233      36.893836      36.893836      36.893836    
     66000   0.6119437     -7.5768456     -6.6589431      5.5760234      50218.233      36.893836      36.893836      36.893836    
     67000   0.60898651    -7.5777652     -6.6642984      5.5596892      50218.233      36.893836      36.893836      36.893836    
     68000   0.61156327    -7.5698737     -6.6525419      5.6211047      50218.233      36.893836      36.893836      36.893836    
     69000   0.6109838     -7.5702746     -6.653812       5.6266703      50218.233      36.893836      36.893836      36.893836    
     70000   0.60891573    -7.5746547     -6.6612941      5.5688897      50218.233      36.893836      36.893836      36.893836    
     71000   0.61270398    -7.5766673     -6.6576244      5.5671136      50218.233      36.893836      36.893836      36.893836    
     72000   0.60940763    -7.5718689     -6.6577704      5.6007143      50218.233      36.893836      36.893836      36.893836    
     73000   0.60968619    -7.5665628     -6.6520465      5.6421385      50218.233      36.893836      36.893836      36.893836    
     74000   0.61177602    -7.576309      -6.6586581      5.5726664      50218.233      36.893836      36.893836      36.893836    
     75000   0.60843108    -7.5715996     -6.658966       5.599302       50218.233      36.893836      36.893836      36.893836    
     76000   0.60955236    -7.5712779     -6.6569624      5.5983539      50218.233      36.893836      36.893836      36.893836    
     77000   0.60793502    -7.5691557     -6.6572661      5.6159962      50218.233      36.893836      36.893836      36.893836    
     78000   0.61275391    -7.5694449     -6.6503271      5.6179687      50218.233      36.893836      36.893836      36.893836    
     79000   0.61465246    -7.5751858     -6.6532203      5.5912045      50218.233      36.893836      36.893836      36.893836    
     80000   0.61073995    -7.5685299     -6.652433       5.6154665      50218.233      36.893836      36.893836      36.893836    
     81000   0.61047893    -7.5720353     -6.6563299      5.5965609      50218.233      36.893836      36.893836      36.893836    
     82000   0.61146368    -7.5748178     -6.6576354      5.5740234      50218.233      36.893836      36.893836      36.893836    
     83000   0.60901081    -7.5696845     -6.6561813      5.6092174      50218.233      36.893836      36.893836      36.893836    
     84000   0.6072628     -7.5727938     -6.6619126      5.600007       50218.233      36.893836      36.893836      36.893836    
     85000   0.60916584    -7.5715764     -6.6578406      5.6038359      50218.233      36.893836      36.893836      36.893836    
     86000   0.61068642    -7.5668817     -6.6508651      5.6288115      50218.233      36.893836      36.893836      36.893836    
     87000   0.60676562    -7.5757047     -6.6655692      5.5689552      50218.233      36.893836      36.893836      36.893836    
     88000   0.61013343    -7.5762423     -6.6610552      5.5723012      50218.233      36.893836      36.893836      36.893836    
     89000   0.61039224    -7.5732918     -6.6577165      5.6095257      50218.233      36.893836      36.893836      36.893836    
     90000   0.61248088    -7.5741082     -6.6554         5.5792723      50218.233      36.893836      36.893836      36.893836    
     91000   0.61025669    -7.5724382     -6.6570662      5.6017564      50218.233      36.893836      36.893836      36.893836    
     92000   0.61129326    -7.5759235     -6.6589966      5.5694347      50218.233      36.893836      36.893836      36.893836    
     93000   0.61305612    -7.5752102     -6.6556391      5.5876179      50218.233      36.893836      36.893836      36.893836    
     94000   0.61205438    -7.5766476     -6.6585791      5.5675271      50218.233      36.893836      36.893836      36.893836    
     95000   0.60980649    -7.575937      -6.6612403      5.5737134      50218.233      36.893836      36.893836      36.893836    
     96000   0.60910889    -7.5722612     -6.6586109      5.6023908      50218.233      36.893836      36.893836      36.893836    
     97000   0.61114689    -7.5722737     -6.6555664      5.5994778      50218.233      36.893836      36.893836      36.893836    
     98000   0.61079635    -7.5684544     -6.6522729      5.6388438      50218.233      36.893836      36.893836      36.893836    
     99000   0.61016599    -7.5769967     -6.6617608      5.5630656      50218.233      36.893836      36.893836      36.893836    
    100000   0.60818477    -7.5746432     -6.6623791      5.5800872      50218.233      36.893836      36.893836      36.893836    
    101000   0.60817136    -7.5700375     -6.6577935      5.6089588      50218.233      36.893836      36.893836      36.893836    
    102000   0.61200173    -7.5772179     -6.6592284      5.559385       50218.233      36.893836      36.893836      36.893836    
    103000   0.60998355    -7.5742995     -6.6593372      5.5924992      50218.233      36.893836      36.893836      36.893836    
    104000   0.60781373    -7.572899      -6.6611914      5.5898045      50218.233      36.893836      36.893836      36.893836    
    105000   0.61052516    -7.573119      -6.6573443      5.6030358      50218.233      36.893836      36.893836      36.893836    
    106000   0.61245224    -7.5703894     -6.6517241      5.6149357      50218.233      36.893836      36.893836      36.893836    
    107000   0.61340777    -7.5695412     -6.6494426      5.631185       50218.233      36.893836      36.893836      36.893836    
    108000   0.61019291    -7.5744326     -6.6591562      5.5781595      50218.233      36.893836      36.893836      36.893836    
    109000   0.61337775    -7.5744635     -6.65441        5.5829181      50218.233      36.893836      36.893836      36.893836    
    110000   0.61021695    -7.5752781     -6.6599657      5.5612754      50218.233      36.893836      36.893836      36.893836    
    111000   0.61063815    -7.5712626     -6.6553184      5.59546        50218.233      36.893836      36.893836      36.893836    
    112000   0.61282684    -7.5691152     -6.6498881      5.6229454      50218.233      36.893836      36.893836      36.893836    
    113000   0.61084502    -7.5760871     -6.6598326      5.5700223      50218.233      36.893836      36.893836      36.893836    
    114000   0.61115301    -7.5758749     -6.6591584      5.5636922      50218.233      36.893836      36.893836      36.893836    
    115000   0.61026334    -7.5725109     -6.6571289      5.5924645      50218.233      36.893836      36.893836      36.893836    
    116000   0.61267282    -7.5763427     -6.6573466      5.5665937      50218.233      36.893836      36.893836      36.893836    
    117000   0.61148027    -7.5788412     -6.6616339      5.5360622      50218.233      36.893836      36.893836      36.893836    
    118000   0.60741875    -7.5807981     -6.6696829      5.5257205      50218.233      36.893836      36.893836      36.893836    
    119000   0.61101371    -7.5753223     -6.6588148      5.5607237      50218.233      36.893836      36.893836      36.893836    
    120000   0.61102989    -7.570555      -6.6540232      5.6050518      50218.233      36.893836      36.893836      36.893836    
    121000   0.60734746    -7.5760331     -6.6650248      5.5539358      50218.233      36.893836      36.893836      36.893836    
    122000   0.60930794    -7.56779       -6.6538411      5.6284377      50218.233      36.893836      36.893836      36.893836    
    123000   0.61101884    -7.5706917     -6.6541764      5.6014881      50218.233      36.893836      36.893836      36.893836    
    124000   0.60889599    -7.5710609     -6.6577299      5.5978672      50218.233      36.893836      36.893836      36.893836    
    125000   0.61054984    -7.5716453     -6.6558336      5.6051093      50218.233      36.893836      36.893836      36.893836    
    126000   0.6113149     -7.5741691     -6.6572098      5.5854785      50218.233      36.893836      36.893836      36.893836    
    127000   0.61076919    -7.5710594     -6.6549187      5.5914098      50218.233      36.893836      36.893836      36.893836    
    128000   0.6127772     -7.5758982     -6.6567455      5.5848533      50218.233      36.893836      36.893836      36.893836    
    129000   0.61041697    -7.5739398     -6.6583273      5.5812023      50218.233      36.893836      36.893836      36.893836    
    130000   0.6098882     -7.5708528     -6.6560336      5.6091521      50218.233      36.893836      36.893836      36.893836    
    131000   0.6094271     -7.577662      -6.6635344      5.5545496      50218.233      36.893836      36.893836      36.893836    
    132000   0.60582731    -7.5780233     -6.6692953      5.5566445      50218.233      36.893836      36.893836      36.893836    
    133000   0.61043461    -7.5746828     -6.6590439      5.5775674      50218.233      36.893836      36.893836      36.893836    
    134000   0.60961805    -7.5710856     -6.6566716      5.607769       50218.233      36.893836      36.893836      36.893836    
    135000   0.61167957    -7.5733765     -6.6558702      5.5998502      50218.233      36.893836      36.893836      36.893836    
    136000   0.61095451    -7.5750987     -6.6586799      5.5871883      50218.233      36.893836      36.893836      36.893836    
    137000   0.60640037    -7.578619      -6.6690314      5.5468466      50218.233      36.893836      36.893836      36.893836    
    138000   0.60755392    -7.575279      -6.6639611      5.568524       50218.233      36.893836      36.893836      36.893836    
    139000   0.61027325    -7.5784201     -6.6630233      5.5551356      50218.233      36.893836      36.893836      36.893836    
    140000   0.60874321    -7.5751873     -6.6620855      5.5844596      50218.233      36.893836      36.893836      36.893836    
    141000   0.61087058    -7.5766444     -6.6603516      5.5596452      50218.233      36.893836      36.893836      36.893836    
    142000   0.61185909    -7.5740868     -6.6563112      5.592771       50218.233      36.893836      36.893836      36.893836    
    143000   0.61170082    -7.5793072     -6.6617691      5.5497012      50218.233      36.893836      36.893836      36.893836    
    144000   0.60993251    -7.5770108     -6.6621251      5.556273       50218.233      36.893836      36.893836      36.893836    
    145000   0.61009545    -7.5741896     -6.6590595      5.5736678      50218.233      36.893836      36.893836      36.893836    
    146000   0.60669184    -7.5786902     -6.6686654      5.5421631      50218.233      36.893836      36.893836      36.893836    
    147000   0.60836928    -7.5754473     -6.6629064      5.571496       50218.233      36.893836      36.893836      36.893836    
    148000   0.60698379    -7.5750604     -6.6645976      5.5624286      50218.233      36.893836      36.893836      36.893836    
    149000   0.61029083    -7.5728681     -6.6574448      5.586051       50218.233      36.893836      36.893836      36.893836    
    150000   0.61057259    -7.5760791     -6.6602333      5.5566963      50218.233      36.893836      36.893836      36.893836    
    151000   0.60997864    -7.5748493     -6.6598944      5.5739874      50218.233      36.893836      36.893836      36.893836    
    152000   0.61206763    -7.5700576     -6.6519692      5.6104704      50218.233      36.893836      36.893836      36.893836    
    153000   0.60955268    -7.5744035     -6.6600875      5.5830872      50218.233      36.893836      36.893836      36.893836    
    154000   0.60876744    -7.5680652     -6.6549271      5.6232323      50218.233      36.893836      36.893836      36.893836    
    155000   0.61090721    -7.5710538     -6.654706       5.6198036      50218.233      36.893836      36.893836      36.893836    
    156000   0.60936915    -7.5711069     -6.6570662      5.6097726      50218.233      36.893836      36.893836      36.893836    
    157000   0.60996407    -7.571023      -6.6560899      5.6109815      50218.233      36.893836      36.893836      36.893836    
    158000   0.61310017    -7.5713865     -6.6517493      5.6140677      50218.233      36.893836      36.893836      36.893836    
    159000   0.6107896     -7.5735718     -6.6574004      5.594416       50218.233      36.893836      36.893836      36.893836    
    160000   0.61170651    -7.5723516     -6.6548049      5.5869991      50218.233      36.893836      36.893836      36.893836    
    161000   0.60922615    -7.5729514     -6.6591252      5.5853791      50218.233      36.893836      36.893836      36.893836    
    162000   0.61090594    -7.5702708     -6.6539249      5.6054553      50218.233      36.893836      36.893836      36.893836    
    163000   0.61082601    -7.5705923     -6.6543663      5.6155159      50218.233      36.893836      36.893836      36.893836    
    164000   0.61034006    -7.5747832     -6.6592861      5.5777487      50218.233      36.893836      36.893836      36.893836    
    165000   0.60968926    -7.571239      -6.6567181      5.5972898      50218.233      36.893836      36.893836      36.893836    
    166000   0.61113037    -7.5769578     -6.6602753      5.5518626      50218.233      36.893836      36.893836      36.893836    
    167000   0.60452096    -7.5726177     -6.6658491      5.5863986      50218.233      36.893836      36.893836      36.893836    
    168000   0.60844713    -7.5749827     -6.662325       5.5676551      50218.233      36.893836      36.893836      36.893836    
    169000   0.60972429    -7.5708925     -6.656319       5.6123101      50218.233      36.893836      36.893836      36.893836    
    170000   0.61159056    -7.5729785     -6.6556057      5.5925253      50218.233      36.893836      36.893836      36.893836    
    171000   0.60940113    -7.5671301     -6.6530414      5.6236919      50218.233      36.893836      36.893836      36.893836    
    172000   0.6093232     -7.5721679     -6.6581961      5.5979624      50218.233      36.893836      36.893836      36.893836    
    173000   0.60990151    -7.5749848     -6.6601456      5.5745765      50218.233      36.893836      36.893836      36.893836    
    174000   0.6097679     -7.5727326     -6.6580937      5.5925951      50218.233      36.893836      36.893836      36.893836    
    175000   0.61157796    -7.5698033     -6.6524495      5.6246809      50218.233      36.893836      36.893836      36.893836    
    176000   0.61000879    -7.5715304     -6.6565303      5.6057298      50218.233      36.893836      36.893836      36.893836    
    177000   0.60883345    -7.571434      -6.6581968      5.585506       50218.233      36.893836      36.893836      36.893836    
    178000   0.61058614    -7.5711002     -6.655234       5.6058019      50218.233      36.893836      36.893836      36.893836    
    179000   0.61156825    -7.5724967     -6.6551574      5.6001568      50218.233      36.893836      36.893836      36.893836    
    180000   0.6092239     -7.5704943     -6.6566714      5.6194444      50218.233      36.893836      36.893836      36.893836    
    181000   0.60599399    -7.5725232     -6.6635452      5.6007592      50218.233      36.893836      36.893836      36.893836    
    182000   0.60908626    -7.5715418     -6.6579254      5.6083327      50218.233      36.893836      36.893836      36.893836    
    183000   0.60814976    -7.5743262     -6.6621145      5.5736011      50218.233      36.893836      36.893836      36.893836    
    184000   0.61017737    -7.5729887     -6.6577356      5.5840767      50218.233      36.893836      36.893836      36.893836    
    185000   0.61068189    -7.5787925     -6.6627827      5.5540514      50218.233      36.893836      36.893836      36.893836    
    186000   0.61088998    -7.5777188     -6.6613968      5.5575222      50218.233      36.893836      36.893836      36.893836    
    187000   0.61095193    -7.5742448     -6.6578299      5.5883431      50218.233      36.893836      36.893836      36.893836    
    188000   0.60941966    -7.5788471     -6.6647306      5.550266       50218.233      36.893836      36.893836      36.893836    
    189000   0.61001112    -7.5772047     -6.662201       5.5542541      50218.233      36.893836      36.893836      36.893836    
    190000   0.60773709    -7.5741054     -6.6625127      5.5958152      50218.233      36.893836      36.893836      36.893836    
    191000   0.60919217    -7.5734977     -6.6597225      5.5699018      50218.233      36.893836      36.893836      36.893836    
    192000   0.61116845    -7.5686314     -6.6518918      5.6255173      50218.233      36.893836      36.893836      36.893836    
    193000   0.60758829    -7.5804332     -6.6690637      5.5230693      50218.233      36.893836      36.893836      36.893836    
    194000   0.61033266    -7.5743304     -6.6588444      5.5665491      50218.233      36.893836      36.893836      36.893836    
    195000   0.61097952    -7.57256       -6.6561037      5.5809885      50218.233      36.893836      36.893836      36.893836    
    196000   0.60718535    -7.5792532     -6.6684882      5.5298452      50218.233      36.893836      36.893836      36.893836    
    197000   0.60813532    -7.5834616     -6.6712716      5.5030925      50218.233      36.893836      36.893836      36.893836    
    198000   0.60985756    -7.5776386     -6.6628653      5.5613561      50218.233      36.893836      36.893836      36.893836    
    199000   0.60902606    -7.5694976     -6.6559715      5.6212878      50218.233      36.893836      36.893836      36.893836    
    200000   0.60869052    -7.5818004     -6.6687776      5.5153838      50218.233      36.893836      36.893836      36.893836    
    201000   0.61198168    -7.576357      -6.6583976      5.5640479      50218.233      36.893836      36.893836      36.893836    
    202000   0.61203555    -7.5762428     -6.6582025      5.5530838      50218.233      36.893836      36.893836      36.893836    
    203000   0.61068609    -7.5760537     -6.6600376      5.5642926      50218.233      36.893836      36.893836      36.893836    
    204000   0.61034329    -7.5736254     -6.6581235      5.5872491      50218.233      36.893836      36.893836      36.893836    
    205000   0.60919663    -7.5700485     -6.6562665      5.6101401      50218.233      36.893836      36.893836      36.893836    
    206000   0.60983561    -7.5726391     -6.6578987      5.5947306      50218.233      36.893836      36.893836      36.893836    
    207000   0.6089418     -7.5746087     -6.661209       5.5677942      50218.233      36.893836      36.893836      36.893836    
    208000   0.60598152    -7.5742181     -6.6652587      5.5751796      50218.233      36.893836      36.893836      36.893836    
    209000   0.61026464    -7.5700236     -6.6546397      5.6159516      50218.233      36.893836      36.893836      36.893836    
    210000   0.6120824     -7.5735619     -6.6554514      5.5883794      50218.233      36.893836      36.893836      36.893836    
    211000   0.60814466    -7.5680822     -6.6558782      5.6220721      50218.233      36.893836      36.893836      36.893836    
    212000   0.6099857     -7.5734828     -6.6585172      5.5989611      50218.233      36.893836      36.893836      36.893836    
    213000   0.61073415    -7.5732469     -6.6571587      5.5846592      50218.233      36.893836      36.893836      36.893836    
    214000   0.6076198     -7.5685139     -6.6570972      5.6294089      50218.233      36.893836      36.893836      36.893836    
    215000   0.61168513    -7.5701243     -6.6526097      5.6193606      50218.233      36.893836      36.893836      36.893836    
    216000   0.6073462     -7.565593      -6.6545867      5.6462694      50218.233      36.893836      36.893836      36.893836    
    217000   0.61070801    -7.5790513     -6.6630023      5.5410052      50218.233      36.893836      36.893836      36.893836    
    218000   0.61177518    -7.5702156     -6.6525659      5.6177561      50218.233      36.893836      36.893836      36.893836    
    219000   0.61139744    -7.5736756     -6.6565925      5.5912589      50218.233      36.893836      36.893836      36.893836    
    220000   0.60864898    -7.5738862     -6.6609257      5.5817599      50218.233      36.893836      36.893836      36.893836    
    221000   0.60616929    -7.5705257     -6.6612847      5.6054399      50218.233      36.893836      36.893836      36.893836    
    222000   0.61162291    -7.576761      -6.6593397      5.5601675      50218.233      36.893836      36.893836      36.893836    
    223000   0.61297644    -7.5756047     -6.6561531      5.575576       50218.233      36.893836      36.893836      36.893836    
    224000   0.60893707    -7.5745209     -6.6611283      5.5778393      50218.233      36.893836      36.893836      36.893836    
    225000   0.60954492    -7.57238       -6.6580756      5.5923995      50218.233      36.893836      36.893836      36.893836    
    226000   0.61043139    -7.5762775     -6.6606434      5.5785691      50218.233      36.893836      36.893836      36.893836    
    227000   0.61080548    -7.5759634     -6.6597682      5.5683609      50218.233      36.893836      36.893836      36.893836    
    228000   0.60902838    -7.5792402     -6.6657106      5.5433424      50218.233      36.893836      36.893836      36.893836    
    229000   0.60673036    -7.5781501     -6.6680675      5.5560005      50218.233      36.893836      36.893836      36.893836    
    230000   0.6094461     -7.5767643     -6.6626082      5.5721486      50218.233      36.893836      36.893836      36.893836    
    231000   0.60795902    -7.5751836     -6.6632581      5.5820846      50218.233      36.893836      36.893836      36.893836    
    232000   0.6097011     -7.5738988     -6.6593602      5.5807284      50218.233      36.893836      36.893836      36.893836    
    233000   0.61268438    -7.5734595     -6.654446       5.5966995      50218.233      36.893836      36.893836      36.893836    
    234000   0.61098663    -7.5761494     -6.6596825      5.5624608      50218.233      36.893836      36.893836      36.893836    
    235000   0.61021788    -7.5778515     -6.6625377      5.5565179      50218.233      36.893836      36.893836      36.893836    
    236000   0.60938967    -7.5750753     -6.6610038      5.5806877      50218.233      36.893836      36.893836      36.893836    
    237000   0.60937792    -7.5738471     -6.6597933      5.5709182      50218.233      36.893836      36.893836      36.893836    
    238000   0.61218786    -7.5756878     -6.657419       5.5695473      50218.233      36.893836      36.893836      36.893836    
    239000   0.60820641    -7.5764536     -6.664157       5.5643512      50218.233      36.893836      36.893836      36.893836    
    240000   0.61237253    -7.5683023     -6.6497566      5.6318812      50218.233      36.893836      36.893836      36.893836    
    241000   0.60935078    -7.5713243     -6.6573112      5.5976151      50218.233      36.893836      36.893836      36.893836    
    242000   0.61595054    -7.5755663     -6.6516536      5.5900667      50218.233      36.893836      36.893836      36.893836    
    243000   0.6101092     -7.5731586     -6.6580079      5.6020173      50218.233      36.893836      36.893836      36.893836    
    244000   0.60959858    -7.5728598     -6.6584749      5.591538       50218.233      36.893836      36.893836      36.893836    
    245000   0.61055503    -7.5759185     -6.660099       5.5781218      50218.233      36.893836      36.893836      36.893836    
    246000   0.61126513    -7.579563      -6.6626784      5.5554526      50218.233      36.893836      36.893836      36.893836    
    247000   0.61085092    -7.5803705     -6.6641071      5.5320874      50218.233      36.893836      36.893836      36.893836    
    248000   0.61093819    -7.5762437     -6.6598494      5.5806787      50218.233      36.893836      36.893836      36.893836    
    249000   0.61235574    -7.5773203     -6.6587997      5.5616657      50218.233      36.893836      36.893836      36.893836    
    250000   0.61170544    -7.5769008     -6.6593557      5.5640414      50218.233      36.893836      36.893836      36.893836    
    251000   0.60909698    -7.5729908     -6.6593583      5.5905135      50218.233      36.893836      36.893836      36.893836    
    252000   0.6062586     -7.5783735     -6.6689986      5.5588317      50218.233      36.893836      36.893836      36.893836    
    253000   0.6084189     -7.5768189     -6.6642035      5.5651589      50218.233      36.893836      36.893836      36.893836    
    254000   0.61119521    -7.5788863     -6.6621065      5.5609853      50218.233      36.893836      36.893836      36.893836    
    255000   0.6118034     -7.5816898     -6.6639977      5.5408524      50218.233      36.893836      36.893836      36.893836    
    256000   0.6071351     -7.5703837     -6.659694       5.6221465      50218.233      36.893836      36.893836      36.893836    
    257000   0.60896452    -7.5747483     -6.6613145      5.5706286      50218.233      36.893836      36.893836      36.893836    
    258000   0.60865113    -7.5700415     -6.6570778      5.6185699      50218.233      36.893836      36.893836      36.893836    
    259000   0.6123248     -7.5735781     -6.655104       5.5937537      50218.233      36.893836      36.893836      36.893836    
    260000   0.60928293    -7.5714871     -6.6575757      5.5934559      50218.233      36.893836      36.893836      36.893836    
    261000   0.61020984    -7.5798488     -6.6645471      5.5448406      50218.233      36.893836      36.893836      36.893836    
    262000   0.61362253    -7.5734605     -6.6530398      5.5875946      50218.233      36.893836      36.893836      36.893836    
    263000   0.61215991    -7.5733601     -6.6551333      5.579587       50218.233      36.893836      36.893836      36.893836    
    264000   0.60794715    -7.5750573     -6.6631496      5.580165       50218.233      36.893836      36.893836      36.893836    
    265000   0.61217191    -7.5721658     -6.653921       5.6040523      50218.233      36.893836      36.893836      36.893836    
    266000   0.60636372    -7.573225      -6.6636923      5.5820581      50218.233      36.893836      36.893836      36.893836    
    267000   0.61169234    -7.5748103     -6.6572849      5.5700353      50218.233      36.893836      36.893836      36.893836    
    268000   0.60940832    -7.5816111     -6.6675116      5.528442       50218.233      36.893836      36.893836      36.893836    
    269000   0.61177295    -7.5736171     -6.6559707      5.5940383      50218.233      36.893836      36.893836      36.893836    
    270000   0.6061575     -7.5733504     -6.664127       5.5761802      50218.233      36.893836      36.893836      36.893836    
    271000   0.6056244     -7.5778028     -6.6693791      5.5508852      50218.233      36.893836      36.893836      36.893836    
    272000   0.6135557     -7.5734332     -6.6531127      5.5981163      50218.233      36.893836      36.893836      36.893836    
    273000   0.61164935    -7.5738766     -6.6564157      5.5904355      50218.233      36.893836      36.893836      36.893836    
    274000   0.61142061    -7.5749895     -6.6578716      5.5696183      50218.233      36.893836      36.893836      36.893836    
    275000   0.6077949     -7.5742654     -6.662586       5.5722976      50218.233      36.893836      36.893836      36.893836    
    276000   0.60977986    -7.5787211     -6.6640644      5.5381405      50218.233      36.893836      36.893836      36.893836    
    277000   0.61231288    -7.571189      -6.6527327      5.6132389      50218.233      36.893836      36.893836      36.893836    
    278000   0.60820151    -7.5750136     -6.6627243      5.5665347      50218.233      36.893836      36.893836      36.893836    
    279000   0.60688829    -7.573998      -6.6636785      5.5907493      50218.233      36.893836      36.893836      36.893836    
    280000   0.60646832    -7.568888      -6.6591984      5.6222132      50218.233      36.893836      36.893836      36.893836    
    281000   0.61136583    -7.5761429     -6.6591072      5.5748849      50218.233      36.893836      36.893836      36.893836    
    282000   0.61041954    -7.568359      -6.6527427      5.6251837      50218.233      36.893836      36.893836      36.893836    
    283000   0.61172996    -7.5770128     -6.6594309      5.5574565      50218.233      36.893836      36.893836      36.893836    
    284000   0.61057863    -7.5678547     -6.6519998      5.6343653      50218.233      36.893836      36.893836      36.893836    
    285000   0.60758507    -7.5701789     -6.6588143      5.5996509      50218.233      36.893836      36.893836      36.893836    
    286000   0.60982161    -7.5758958     -6.6611764      5.5789588      50218.233      36.893836      36.893836      36.893836    
    287000   0.60973737    -7.5682512     -6.6536582      5.6381739      50218.233      36.893836      36.893836      36.893836    
    288000   0.60766519    -7.567912      -6.6564272      5.6255704      50218.233      36.893836      36.893836      36.893836    
    289000   0.60898043    -7.5731338     -6.6596762      5.5833907      50218.233      36.893836      36.893836      36.893836    
    290000   0.61409063    -7.5699138     -6.6487909      5.6182104      50218.233      36.893836      36.893836      36.893836    
    291000   0.61112912    -7.5630841     -6.6464035      5.6638748      50218.233      36.893836      36.893836      36.893836    
    292000   0.6078199     -7.5708409     -6.659124       5.5965797      50218.233      36.893836      36.893836      36.893836    
    293000   0.61002851    -7.5703882     -6.6553585      5.6222999      50218.233      36.893836      36.893836      36.893836    
    294000   0.6106591     -7.5709047     -6.6549291      5.608848       50218.233      36.893836      36.893836      36.893836    
    295000   0.61068527    -7.570606      -6.6545911      5.6107945      50218.233      36.893836      36.893836      36.893836    
    296000   0.61142525    -7.5767796     -6.6596548      5.5780064      50218.233      36.893836      36.893836      36.893836    
    297000   0.61060201    -7.5713452     -6.6554553      5.6020522      50218.233      36.893836      36.893836      36.893836    
    298000   0.61144603    -7.5773835     -6.6602275      5.5688995      50218.233      36.893836      36.893836      36.893836    
    299000   0.6106364     -7.5764022     -6.6604606      5.5658993      50218.233      36.893836      36.893836      36.893836    
    300000   0.60977071    -7.5793216     -6.6646785      5.5420095      50218.233      36.893836      36.893836      36.893836    
    301000   0.60799323    -7.5731506     -6.6611737      5.5734114      50218.233      36.893836      36.893836      36.893836    
    302000   0.60742408    -7.5778009     -6.6666778      5.5591164      50218.233      36.893836      36.893836      36.893836    
    303000   0.61003602    -7.5746433     -6.6596023      5.5774904      50218.233      36.893836      36.893836      36.893836    
    304000   0.61033665    -7.5748929     -6.659401       5.5785157      50218.233      36.893836      36.893836      36.893836    
    305000   0.60996278    -7.5707317     -6.6558005      5.6019222      50218.233      36.893836      36.893836      36.893836    
    306000   0.60788478    -7.5750118     -6.6631976      5.5770162      50218.233      36.893836      36.893836      36.893836    
    307000   0.60865525    -7.5731962     -6.6602263      5.5872749      50218.233      36.893836      36.893836      36.893836    
    308000   0.60883893    -7.5719239     -6.6586785      5.589912       50218.233      36.893836      36.893836      36.893836    
    309000   0.60925954    -7.5668046     -6.6529283      5.6243916      50218.233      36.893836      36.893836      36.893836    
    310000   0.6094081     -7.5697064     -6.6556073      5.6184947      50218.233      36.893836      36.893836      36.893836    
    311000   0.61236129    -7.5728524     -6.6543236      5.5984252      50218.233      36.893836      36.893836      36.893836    
    312000   0.60864239    -7.5762955     -6.6633449      5.5691843      50218.233      36.893836      36.893836      36.893836    
    313000   0.6089201     -7.573539      -6.6601718      5.5807763      50218.233      36.893836      36.893836      36.893836    
    314000   0.61129584    -7.5752097     -6.658279       5.5775903      50218.233      36.893836      36.893836      36.893836    
    315000   0.60925581    -7.572074      -6.6582033      5.5885046      50218.233      36.893836      36.893836      36.893836    
    316000   0.60965427    -7.570784      -6.6563156      5.5994366      50218.233      36.893836      36.893836      36.893836    
    317000   0.61260349    -7.5738972     -6.655005       5.5979992      50218.233      36.893836      36.893836      36.893836    
    318000   0.6113049     -7.5739631     -6.6570188      5.585704       50218.233      36.893836      36.893836      36.893836    
    319000   0.60842412    -7.5699606     -6.6573374      5.6061244      50218.233      36.893836      36.893836      36.893836    
    320000   0.6079423     -7.5704542     -6.6585538      5.6012916      50218.233      36.893836      36.893836      36.893836    
    321000   0.60594506    -7.5660338     -6.6571291      5.6298373      50218.233      36.893836      36.893836      36.893836    
    322000   0.61021637    -7.5676213     -6.6523098      5.62171        50218.233      36.893836      36.893836      36.893836    
    323000   0.61031987    -7.573455      -6.6579882      5.5925308      50218.233      36.893836      36.893836      36.893836    
    324000   0.60876054    -7.5740209     -6.6608931      5.5743796      50218.233      36.893836      36.893836      36.893836    
    325000   0.61048422    -7.5735791     -6.6578658      5.5941617      50218.233      36.893836      36.893836      36.893836    
    326000   0.60993833    -7.5759031     -6.6610086      5.5994069      50218.233      36.893836      36.893836      36.893836    
    327000   0.61158925    -7.5733942     -6.6560234      5.5926598      50218.233      36.893836      36.893836      36.893836    
    328000   0.60944911    -7.5687363     -6.6545756      5.6305331      50218.233      36.893836      36.893836      36.893836    
    329000   0.60949946    -7.5740747     -6.6598386      5.5936409      50218.233      36.893836      36.893836      36.893836    
    330000   0.61118257    -7.5792036     -6.6624428      5.5565377      50218.233      36.893836      36.893836      36.893836    
    331000   0.61170397    -7.5770849     -6.659542       5.564268       50218.233      36.893836      36.893836      36.893836    
    332000   0.60974148    -7.5718792     -6.65728        5.6060413      50218.233      36.893836      36.893836      36.893836    
    333000   0.61191056    -7.5678365     -6.6499837      5.63514        50218.233      36.893836      36.893836      36.893836    
    334000   0.60927161    -7.5720563     -6.6581618      5.6133773      50218.233      36.893836      36.893836      36.893836    
    335000   0.60859911    -7.5727368     -6.6598511      5.590737       50218.233      36.893836      36.893836      36.893836    
    336000   0.60979427    -7.5743211     -6.6596427      5.5812385      50218.233      36.893836      36.893836      36.893836    
    337000   0.6105508     -7.575836      -6.6600228      5.5746249      50218.233      36.893836      36.893836      36.893836    
    338000   0.6090941     -7.5745048     -6.6608767      5.575715       50218.233      36.893836      36.893836      36.893836    
    339000   0.60834064    -7.570291      -6.657793       5.6195902      50218.233      36.893836      36.893836      36.893836    
    340000   0.61070876    -7.5703754     -6.6543252      5.6099864      50218.233      36.893836      36.893836      36.893836    
    341000   0.61065979    -7.5740472     -6.6580705      5.5701199      50218.233      36.893836      36.893836      36.893836    
    342000   0.61233477    -7.5775085     -6.6590194      5.5623044      50218.233      36.893836      36.893836      36.893836    
    343000   0.61108234    -7.5735944     -6.6569839      5.6006801      50218.233      36.893836      36.893836      36.893836    
    344000   0.60969843    -7.577011      -6.6624764      5.5613021      50218.233      36.893836      36.893836      36.893836    
    345000   0.60961516    -7.5757713     -6.6613616      5.5622684      50218.233      36.893836      36.893836      36.893836    
    346000   0.6102649     -7.5678692     -6.6524849      5.6094696      50218.233      36.893836      36.893836      36.893836    
    347000   0.61166399    -7.5747494     -6.6572665      5.5840926      50218.233      36.893836      36.893836      36.893836    
    348000   0.61111117    -7.5745108     -6.6578571      5.577045       50218.233      36.893836      36.893836      36.893836    
    349000   0.60868565    -7.5740396     -6.6610241      5.5836635      50218.233      36.893836      36.893836      36.893836    
    350000   0.60738795    -7.569278      -6.658209       5.6064357      50218.233      36.893836      36.893836      36.893836    
    351000   0.60811981    -7.5728033     -6.6606365      5.5951048      50218.233      36.893836      36.893836      36.893836    
    352000   0.60753108    -7.5798409     -6.6685573      5.5358287      50218.233      36.893836      36.893836      36.893836    
    353000   0.60845506    -7.5716232     -6.6589536      5.6157469      50218.233      36.893836      36.893836      36.893836    
    354000   0.60890285    -7.575949      -6.6626077      5.5669436      50218.233      36.893836      36.893836      36.893836    
    355000   0.60755886    -7.5698326     -6.6585073      5.6118714      50218.233      36.893836      36.893836      36.893836    
    356000   0.61390089    -7.5760698     -6.6552316      5.5785414      50218.233      36.893836      36.893836      36.893836    
    357000   0.61061416    -7.5721603     -6.6562521      5.6011563      50218.233      36.893836      36.893836      36.893836    
    358000   0.61398018    -7.5733274     -6.6523702      5.6038251      50218.233      36.893836      36.893836      36.893836    
    359000   0.61036566    -7.575499      -6.6599635      5.5609885      50218.233      36.893836      36.893836      36.893836    
    360000   0.61182047    -7.5724567     -6.6547391      5.5892163      50218.233      36.893836      36.893836      36.893836    
    361000   0.60970226    -7.573478      -6.6589376      5.5904529      50218.233      36.893836      36.893836      36.893836    
    362000   0.60975949    -7.5740358     -6.6594096      5.580287       50218.233      36.893836      36.893836      36.893836    
    363000   0.61011962    -7.5718713     -6.6567049      5.5992846      50218.233      36.893836      36.893836      36.893836    
    364000   0.60911367    -7.5685041     -6.6548466      5.6166614      50218.233      36.893836      36.893836      36.893836    
    365000   0.60917841    -7.5707733     -6.6570187      5.6121614      50218.233      36.893836      36.893836      36.893836    
    366000   0.61279487    -7.5726572     -6.653478       5.5876405      50218.233      36.893836      36.893836      36.893836    
    367000   0.61215614    -7.5733811     -6.65516        5.5885585      50218.233      36.893836      36.893836      36.893836    
    368000   0.61209589    -7.5688729     -6.6507422      5.6336142      50218.233      36.893836      36.893836      36.893836    
    369000   0.61085283    -7.5737718     -6.6575056      5.5851827      50218.233      36.893836      36.893836      36.893836    
    370000   0.61018877    -7.5800493     -6.6647792      5.5334455      50218.233      36.893836      36.893836      36.893836    
    371000   0.61201086    -7.5723607     -6.6543575      5.595767       50218.233      36.893836      36.893836      36.893836    
    372000   0.61037657    -7.5732886     -6.6577368      5.5812373      50218.233      36.893836      36.893836      36.893836    
    373000   0.61114017    -7.5775849     -6.6608877      5.5532674      50218.233      36.893836      36.893836      36.893836    
    374000   0.60751072    -7.5708699     -6.6596168      5.6032512      50218.233      36.893836      36.893836      36.893836    
    375000   0.61161831    -7.5654232     -6.6480087      5.6445198      50218.233      36.893836      36.893836      36.893836    
    376000   0.61029486    -7.5725286     -6.6570994      5.603757       50218.233      36.893836      36.893836      36.893836    
    377000   0.61130476    -7.5712637     -6.6543196      5.6010656      50218.233      36.893836      36.893836      36.893836    
    378000   0.61171736    -7.572038      -6.654475       5.6060075      50218.233      36.893836      36.893836      36.893836    
    379000   0.60918838    -7.5731321     -6.6593625      5.5828909      50218.233      36.893836      36.893836      36.893836    
    380000   0.6116698     -7.5734643     -6.6559726      5.592287       50218.233      36.893836      36.893836      36.893836    
    381000   0.60694448    -7.573861      -6.6634572      5.5850069      50218.233      36.893836      36.893836      36.893836    
    382000   0.60881771    -7.5736452     -6.6604316      5.5883088      50218.233      36.893836      36.893836      36.893836    
    383000   0.60930825    -7.5736429     -6.6596935      5.5797224      50218.233      36.893836      36.893836      36.893836    
    384000   0.61066592    -7.5723365     -6.6563507      5.5891661      50218.233      36.893836      36.893836      36.893836    
    385000   0.60691978    -7.5722267     -6.66186        5.5908723      50218.233      36.893836      36.893836      36.893836    
    386000   0.61084878    -7.569427      -6.6531668      5.6092647      50218.233      36.893836      36.893836      36.893836    
    387000   0.60795286    -7.575216      -6.6632996      5.574451       50218.233      36.893836      36.893836      36.893836    
    388000   0.60869764    -7.5736481     -6.6606146      5.6002344      50218.233      36.893836      36.893836      36.893836    
    389000   0.61179382    -7.574136      -6.6564583      5.5890094      50218.233      36.893836      36.893836      36.893836    
    390000   0.60819235    -7.5744995     -6.6622239      5.5675946      50218.233      36.893836      36.893836      36.893836    
    391000   0.61025857    -7.5748105     -6.6594357      5.5874548      50218.233      36.893836      36.893836      36.893836    
    392000   0.60973833    -7.5699814     -6.6553869      5.6108817      50218.233      36.893836      36.893836      36.893836    
    393000   0.61064463    -7.567334      -6.6513801      5.6359281      50218.233      36.893836      36.893836      36.893836    
    394000   0.61208541    -7.5688535     -6.6507384      5.6240308      50218.233      36.893836      36.893836      36.893836    
    395000   0.60934478    -7.5698306     -6.6558264      5.6151937      50218.233      36.893836      36.893836      36.893836    
    396000   0.60950044    -7.568044      -6.6538064      5.6409037      50218.233      36.893836      36.893836      36.893836    
    397000   0.60925827    -7.5682455     -6.6543711      5.6227787      50218.233      36.893836      36.893836      36.893836    
    398000   0.60882766    -7.5656673     -6.6524388      5.6525803      50218.233      36.893836      36.893836      36.893836    
    399000   0.6107249     -7.5726714     -6.6565971      5.5983189      50218.233      36.893836      36.893836      36.893836    
    400000   0.60751043    -7.5716476     -6.6603949      5.5988502      50218.233      36.893836      36.893836      36.893836    
    401000   0.60869163    -7.5744931     -6.6614686      5.5758701      50218.233      36.893836      36.893836      36.893836    
    402000   0.61517917    -7.569787      -6.6470314      5.6136906      50218.233      36.893836      36.893836      36.893836    
    403000   0.61160568    -7.5721967     -6.6548013      5.5927911      50218.233      36.893836      36.893836      36.893836    
    404000   0.61029414    -7.5723216     -6.6568934      5.5949104      50218.233      36.893836      36.893836      36.893836    
    405000   0.6095058     -7.5750947     -6.660849       5.5834878      50218.233      36.893836      36.893836      36.893836    
    406000   0.61241885    -7.5713767     -6.6527615      5.6088623      50218.233      36.893836      36.893836      36.893836    
    407000   0.60855645    -7.5670406     -6.6542189      5.6323974      50218.233      36.893836      36.893836      36.893836    
    408000   0.60688603    -7.570268      -6.6599519      5.6003871      50218.233      36.893836      36.893836      36.893836    
    409000   0.61142879    -7.5682425     -6.6511124      5.6268659      50218.233      36.893836      36.893836      36.893836    
    410000   0.60810696    -7.5734893     -6.6613419      5.5912295      50218.233      36.893836      36.893836      36.893836    
    411000   0.61131518    -7.5713756     -6.6544159      5.5967543      50218.233      36.893836      36.893836      36.893836    
    412000   0.60718163    -7.5780193     -6.6672598      5.5484409      50218.233      36.893836      36.893836      36.893836    
    413000   0.6085957     -7.5716246     -6.658744       5.5860857      50218.233      36.893836      36.893836      36.893836    
    414000   0.60681432    -7.5662551     -6.6560466      5.6394711      50218.233      36.893836      36.893836      36.893836    
    415000   0.61242977    -7.5740283     -6.6553967      5.5836136      50218.233      36.893836      36.893836      36.893836    
    416000   0.60999704    -7.5675507     -6.6525682      5.6248778      50218.233      36.893836      36.893836      36.893836    
    417000   0.60957964    -7.5751245     -6.6607681      5.5706121      50218.233      36.893836      36.893836      36.893836    
    418000   0.61188132    -7.5778213     -6.6600124      5.5562828      50218.233      36.893836      36.893836      36.893836    
    419000   0.61125986    -7.5699201     -6.6530433      5.6205929      50218.233      36.893836      36.893836      36.893836    
    420000   0.61120203    -7.5774111     -6.6606211      5.5673592      50218.233      36.893836      36.893836      36.893836    
    421000   0.61212217    -7.5694015     -6.6512313      5.6124766      50218.233      36.893836      36.893836      36.893836    
    422000   0.61223346    -7.5706575     -6.6523204      5.6012771      50218.233      36.893836      36.893836      36.893836    
    423000   0.61090489    -7.5768937     -6.6605494      5.5579932      50218.233      36.893836      36.893836      36.893836    
    424000   0.60817549    -7.5742623     -6.662012       5.5753773      50218.233      36.893836      36.893836      36.893836    
    425000   0.60875548    -7.5702401     -6.6571199      5.6141495      50218.233      36.893836      36.893836      36.893836    
    426000   0.61157786    -7.5707552     -6.6534014      5.6194449      50218.233      36.893836      36.893836      36.893836    
    427000   0.61067401    -7.5724984     -6.6565004      5.5882638      50218.233      36.893836      36.893836      36.893836    
    428000   0.60949568    -7.5781403     -6.6639098      5.5588182      50218.233      36.893836      36.893836      36.893836    
    429000   0.60829137    -7.5709439     -6.6585198      5.6057517      50218.233      36.893836      36.893836      36.893836    
    430000   0.6070916     -7.5725087     -6.6618843      5.5978678      50218.233      36.893836      36.893836      36.893836    
    431000   0.60818827    -7.5736804     -6.661411       5.5881426      50218.233      36.893836      36.893836      36.893836    
    432000   0.60853045    -7.5676386     -6.6548559      5.6364646      50218.233      36.893836      36.893836      36.893836    
    433000   0.60847713    -7.5700413     -6.6573385      5.6130983      50218.233      36.893836      36.893836      36.893836    
    434000   0.61362451    -7.5693083     -6.6488846      5.6365863      50218.233      36.893836      36.893836      36.893836    
    435000   0.61020674    -7.5705911     -6.655294       5.6047748      50218.233      36.893836      36.893836      36.893836    
    436000   0.61041195    -7.5720111     -6.6564062      5.6085797      50218.233      36.893836      36.893836      36.893836    
    437000   0.60981695    -7.5747036     -6.6599912      5.5793135      50218.233      36.893836      36.893836      36.893836    
    438000   0.61100611    -7.5713293     -6.6548332      5.611929       50218.233      36.893836      36.893836      36.893836    
    439000   0.60829761    -7.5731885     -6.660755       5.5817037      50218.233      36.893836      36.893836      36.893836    
    440000   0.60884042    -7.5699389     -6.6566912      5.6117026      50218.233      36.893836      36.893836      36.893836    
    441000   0.60988374    -7.5764761     -6.6616635      5.5529883      50218.233      36.893836      36.893836      36.893836    
    442000   0.60733489    -7.5699867     -6.6589973      5.6035873      50218.233      36.893836      36.893836      36.893836    
    443000   0.6069423     -7.5733676     -6.6629671      5.5836135      50218.233      36.893836      36.893836      36.893836    
    444000   0.60632803    -7.5716158     -6.6621367      5.5991615      50218.233      36.893836      36.893836      36.893836    
    445000   0.60847293    -7.5721865     -6.6594901      5.6067273      50218.233      36.893836      36.893836      36.893836    
    446000   0.61165681    -7.5712442     -6.6537721      5.5989052      50218.233      36.893836      36.893836      36.893836    
    447000   0.61097144    -7.5693332     -6.6528891      5.618504       50218.233      36.893836      36.893836      36.893836    
    448000   0.61288885    -7.568171      -6.6488508      5.6211602      50218.233      36.893836      36.893836      36.893836    
    449000   0.60738401    -7.5655443     -6.6544813      5.641791       50218.233      36.893836      36.893836      36.893836    
    450000   0.61073222    -7.5746416     -6.6585563      5.5839804      50218.233      36.893836      36.893836      36.893836    
    451000   0.61145968    -7.5695695     -6.652393       5.6203336      50218.233      36.893836      36.893836      36.893836    
    452000   0.61168567    -7.5791813     -6.6616659      5.5528413      50218.233      36.893836      36.893836      36.893836    
    453000   0.60968046    -7.5755428     -6.6610351      5.5777038      50218.233      36.893836      36.893836      36.893836    
    454000   0.6093992     -7.5708905     -6.6568047      5.5991243      50218.233      36.893836      36.893836      36.893836    
    455000   0.6093471     -7.5795953     -6.6655876      5.5268092      50218.233      36.893836      36.893836      36.893836    
    456000   0.61016688    -7.5784196     -6.6631823      5.5531597      50218.233      36.893836      36.893836      36.893836    
    457000   0.61137152    -7.5736961     -6.6566518      5.5808376      50218.233      36.893836      36.893836      36.893836    
    458000   0.60913015    -7.573422      -6.6597398      5.5829243      50218.233      36.893836      36.893836      36.893836    
    459000   0.60810357    -7.5710826     -6.6589402      5.5878249      50218.233      36.893836      36.893836      36.893836    
    460000   0.60618867    -7.5763658     -6.6670957      5.5608357      50218.233      36.893836      36.893836      36.893836    
    461000   0.60847287    -7.5711508     -6.6584545      5.5987838      50218.233      36.893836      36.893836      36.893836    
    462000   0.60995507    -7.5710907     -6.6561711      5.5964388      50218.233      36.893836      36.893836      36.893836    
    463000   0.6124428     -7.5732814     -6.6546303      5.5855733      50218.233      36.893836      36.893836      36.893836    
    464000   0.60794925    -7.5739588     -6.6620479      5.5801932      50218.233      36.893836      36.893836      36.893836    
    465000   0.61037151    -7.5680179     -6.6524737      5.621716       50218.233      36.893836      36.893836      36.893836    
    466000   0.61131575    -7.5764291     -6.6594685      5.5708616      50218.233      36.893836      36.893836      36.893836    
    467000   0.61073783    -7.5736856     -6.6575919      5.5729354      50218.233      36.893836      36.893836      36.893836    
    468000   0.6089842     -7.5752329     -6.6617696      5.5706023      50218.233      36.893836      36.893836      36.893836    
    469000   0.61325306    -7.5712631     -6.6513966      5.6109212      50218.233      36.893836      36.893836      36.893836    
    470000   0.61172096    -7.5723522     -6.6547838      5.5823656      50218.233      36.893836      36.893836      36.893836    
    471000   0.60905365    -7.570339      -6.6567715      5.6010599      50218.233      36.893836      36.893836      36.893836    
    472000   0.60701805    -7.5755629     -6.6650488      5.5680182      50218.233      36.893836      36.893836      36.893836    
    473000   0.61185193    -7.5707226     -6.6529577      5.6043628      50218.233      36.893836      36.893836      36.893836    
    474000   0.6121675     -7.5733002     -6.655062       5.5838126      50218.233      36.893836      36.893836      36.893836    
    475000   0.60859131    -7.5727        -6.659826       5.5891719      50218.233      36.893836      36.893836      36.893836    
    476000   0.6067585     -7.569753      -6.6596282      5.6052291      50218.233      36.893836      36.893836      36.893836    
    477000   0.60917178    -7.5727468     -6.6590021      5.5774227      50218.233      36.893836      36.893836      36.893836    
    478000   0.61354129    -7.5771274     -6.6568285      5.5671321      50218.233      36.893836      36.893836      36.893836    
    479000   0.60863811    -7.5709149     -6.6579707      5.5975869      50218.233      36.893836      36.893836      36.893836    
    480000   0.61154079    -7.5784243     -6.6611261      5.5481869      50218.233      36.893836      36.893836      36.893836    
    481000   0.60991011    -7.5717491     -6.656897       5.5915139      50218.233      36.893836      36.893836      36.893836    
    482000   0.60959054    -7.5735668     -6.659194       5.5729284      50218.233      36.893836      36.893836      36.893836    
    483000   0.60742075    -7.5723322     -6.6612141      5.5796764      50218.233      36.893836      36.893836      36.893836    
    484000   0.60914118    -7.5771518     -6.6634531      5.5533585      50218.233      36.893836      36.893836      36.893836    
    485000   0.61040665    -7.5714305     -6.6558335      5.5951314      50218.233      36.893836      36.893836      36.893836    
    486000   0.61123886    -7.5739106     -6.6570654      5.5840346      50218.233      36.893836      36.893836      36.893836    
    487000   0.60966384    -7.5705364     -6.6560536      5.5956107      50218.233      36.893836      36.893836      36.893836    
    488000   0.61001513    -7.5770651     -6.6620555      5.5534815      50218.233      36.893836      36.893836      36.893836    
    489000   0.60907689    -7.5739814     -6.660379       5.5842562      50218.233      36.893836      36.893836      36.893836    
    490000   0.61190557    -7.5771973     -6.659352       5.5624243      50218.233      36.893836      36.893836      36.893836    
    491000   0.61060455    -7.5761323     -6.6602385      5.5715565      50218.233      36.893836      36.893836      36.893836    
    492000   0.60929717    -7.5728858     -6.658953       5.5814303      50218.233      36.893836      36.893836      36.893836    
    493000   0.61285348    -7.5793301     -6.6600629      5.5364467      50218.233      36.893836      36.893836      36.893836    
    494000   0.60716476    -7.5723507     -6.6616165      5.583942       50218.233      36.893836      36.893836      36.893836    
    495000   0.61096264    -7.5729565     -6.6565256      5.5837521      50218.233      36.893836      36.893836      36.893836    
    496000   0.60911926    -7.5757629     -6.662097       5.5699235      50218.233      36.893836      36.893836      36.893836    
    497000   0.6116259     -7.5769037     -6.6594779      5.5593313      50218.233      36.893836      36.893836      36.893836    
    498000   0.61273292    -7.5727666     -6.6536803      5.5858365      50218.233      36.893836      36.893836      36.893836    
    499000   0.60935332    -7.5763648     -6.6623479      5.5648583      50218.233      36.893836      36.893836      36.893836    
    500000   0.61162579    -7.5732218     -6.6557962      5.5849241      50218.233      36.893836      36.893836      36.893836    
    501000   0.61192021    -7.571596      -6.6537287      5.586195       50218.233      36.893836      36.893836      36.893836    
    502000   0.60793895    -7.5708134     -6.6589179      5.5947702      50218.233      36.893836      36.893836      36.893836    
    503000   0.61306654    -7.5770448     -6.657458       5.5632311      50218.233      36.893836      36.893836      36.893836    
    504000   0.60738756    -7.5708332     -6.6597648      5.5962724      50218.233      36.893836      36.893836      36.893836    
    505000   0.60754609    -7.573723      -6.6624168      5.5715498      50218.233      36.893836      36.893836      36.893836    
    506000   0.60899774    -7.5733512     -6.6598675      5.5793106      50218.233      36.893836      36.893836      36.893836    
    507000   0.61031185    -7.5706368     -6.655182       5.600301       50218.233      36.893836      36.893836      36.893836    
    508000   0.61066717    -7.5737557     -6.657768       5.5831585      50218.233      36.893836      36.893836      36.893836    
    509000   0.61089182    -7.5691336     -6.6528089      5.6311119      50218.233      36.893836      36.893836      36.893836    
    510000   0.61131618    -7.5784248     -6.6614636      5.5328966      50218.233      36.893836      36.893836      36.893836    
    511000   0.6098124     -7.5710851     -6.6563795      5.6082121      50218.233      36.893836      36.893836      36.893836    
    512000   0.60978976    -7.5740644     -6.6593928      5.579264       50218.233      36.893836      36.893836      36.893836    
    513000   0.61211108    -7.5668142     -6.6486607      5.6224381      50218.233      36.893836      36.893836      36.893836    
    514000   0.6094258     -7.5750642     -6.6609385      5.5710889      50218.233      36.893836      36.893836      36.893836    
    515000   0.61053589    -7.5740556     -6.6582648      5.5847073      50218.233      36.893836      36.893836      36.893836    
    516000   0.60918605    -7.5719739     -6.6582078      5.6040704      50218.233      36.893836      36.893836      36.893836    
    517000   0.60898432    -7.5788119     -6.6653484      5.5542665      50218.233      36.893836      36.893836      36.893836    
    518000   0.60673347    -7.5699901     -6.6599028      5.5953095      50218.233      36.893836      36.893836      36.893836    
    519000   0.61218588    -7.5719549     -6.6536892      5.5955249      50218.233      36.893836      36.893836      36.893836    
    520000   0.60925016    -7.5725936     -6.6587314      5.5934588      50218.233      36.893836      36.893836      36.893836    
    521000   0.61173571    -7.5718245     -6.654234       5.6051061      50218.233      36.893836      36.893836      36.893836    
    522000   0.6102439     -7.5706955     -6.6553427      5.6011191      50218.233      36.893836      36.893836      36.893836    
    523000   0.60794836    -7.5708443     -6.6589348      5.603244       50218.233      36.893836      36.893836      36.893836    
    524000   0.6108171     -7.5715461     -6.6553335      5.6133616      50218.233      36.893836      36.893836      36.893836    
    525000   0.61364983    -7.5738489     -6.6533872      5.5880506      50218.233      36.893836      36.893836      36.893836    
    526000   0.61037984    -7.5678776     -6.6523209      5.6257941      50218.233      36.893836      36.893836      36.893836    
    527000   0.61004409    -7.5676839     -6.6526307      5.642832       50218.233      36.893836      36.893836      36.893836    
    528000   0.61018253    -7.5739672     -6.6587064      5.5986559      50218.233      36.893836      36.893836      36.893836    
    529000   0.60752707    -7.5707344     -6.6594567      5.6068096      50218.233      36.893836      36.893836      36.893836    
    530000   0.61131897    -7.5723213     -6.6553559      5.6007936      50218.233      36.893836      36.893836      36.893836    
    531000   0.60570971    -7.5670596     -6.658508       5.6263606      50218.233      36.893836      36.893836      36.893836    
    532000   0.60741165    -7.5696248     -6.6585203      5.6061078      50218.233      36.893836      36.893836      36.893836    
    533000   0.6061904     -7.5686116     -6.659339       5.6220177      50218.233      36.893836      36.893836      36.893836    
    534000   0.60996808    -7.5717295     -6.6567904      5.5975528      50218.233      36.893836      36.893836      36.893836    
    535000   0.61074235    -7.5728737     -6.6567732      5.5849907      50218.233      36.893836      36.893836      36.893836    
    536000   0.6053083     -7.5687769     -6.6608273      5.6073793      50218.233      36.893836      36.893836      36.893836    
    537000   0.60701029    -7.5704689     -6.6599664      5.6086225      50218.233      36.893836      36.893836      36.893836    
    538000   0.61061704    -7.5674444     -6.6515318      5.622943       50218.233      36.893836      36.893836      36.893836    
    539000   0.61265935    -7.5722922     -6.6533163      5.5954947      50218.233      36.893836      36.893836      36.893836    
    540000   0.61090115    -7.5711133     -6.6547746      5.6149439      50218.233      36.893836      36.893836      36.893836    
    541000   0.61113106    -7.5691974     -6.6525138      5.6257679      50218.233      36.893836      36.893836      36.893836    
    542000   0.61041767    -7.5685963     -6.6529828      5.6295029      50218.233      36.893836      36.893836      36.893836    
    543000   0.61278166    -7.5659598     -6.6468004      5.631497       50218.233      36.893836      36.893836      36.893836    
    544000   0.60896326    -7.5685811     -6.6551492      5.6216489      50218.233      36.893836      36.893836      36.893836    
    545000   0.61008878    -7.575933      -6.6608129      5.5732301      50218.233      36.893836      36.893836      36.893836    
    546000   0.6056657     -7.5754782     -6.6669926      5.5560309      50218.233      36.893836      36.893836      36.893836    
    547000   0.61144233    -7.5688984     -6.651748       5.6162323      50218.233      36.893836      36.893836      36.893836    
    548000   0.61433679    -7.5713867     -6.6498947      5.6175074      50218.233      36.893836      36.893836      36.893836    
    549000   0.60756986    -7.5705955     -6.6592537      5.6039275      50218.233      36.893836      36.893836      36.893836    
    550000   0.61089666    -7.5706904     -6.6543584      5.6065511      50218.233      36.893836      36.893836      36.893836    
    551000   0.60840087    -7.5685359     -6.6559476      5.6178939      50218.233      36.893836      36.893836      36.893836    
    552000   0.60835715    -7.5737457     -6.661223       5.5858819      50218.233      36.893836      36.893836      36.893836    
    553000   0.60882952    -7.5754123     -6.662181       5.5872937      50218.233      36.893836      36.893836      36.893836    
    554000   0.60920764    -7.5702952     -6.6564968      5.6110598      50218.233      36.893836      36.893836      36.893836    
    555000   0.61328923    -7.5793894     -6.6594686      5.5574374      50218.233      36.893836      36.893836      36.893836    
    556000   0.60770159    -7.5688773     -6.6573379      5.6220134      50218.233      36.893836      36.893836      36.893836    
    557000   0.61230729    -7.5689415     -6.6504936      5.6244018      50218.233      36.893836      36.893836      36.893836    
    558000   0.61467478    -7.5748156     -6.6528166      5.5952171      50218.233      36.893836      36.893836      36.893836    
    559000   0.60604818    -7.5706015     -6.6615422      5.6143761      50218.233      36.893836      36.893836      36.893836    
    560000   0.60927644    -7.57269       -6.6587884      5.5844845      50218.233      36.893836      36.893836      36.893836    
    561000   0.61017784    -7.5745693     -6.6593156      5.5723338      50218.233      36.893836      36.893836      36.893836    
    562000   0.61051623    -7.5740548     -6.6582935      5.5747312      50218.233      36.893836      36.893836      36.893836    
    563000   0.60676704    -7.5733791     -6.6632415      5.5792652      50218.233      36.893836      36.893836      36.893836    
    564000   0.61080413    -7.5697079     -6.6535147      5.6159485      50218.233      36.893836      36.893836      36.893836    
    565000   0.60938576    -7.568268      -6.6542024      5.6173338      50218.233      36.893836      36.893836      36.893836    
    566000   0.61279623    -7.5710097     -6.6518284      5.5928241      50218.233      36.893836      36.893836      36.893836    
    567000   0.61112335    -7.5699213     -6.6532493      5.6036214      50218.233      36.893836      36.893836      36.893836    
    568000   0.61155633    -7.5745633     -6.6572419      5.5827608      50218.233      36.893836      36.893836      36.893836    
    569000   0.61066859    -7.5692811     -6.6532913      5.6130105      50218.233      36.893836      36.893836      36.893836    
    570000   0.61142148    -7.5742354     -6.6571162      5.5815231      50218.233      36.893836      36.893836      36.893836    
    571000   0.60884683    -7.5701005     -6.6568433      5.6202205      50218.233      36.893836      36.893836      36.893836    
    572000   0.61065329    -7.5765516     -6.6605847      5.5719384      50218.233      36.893836      36.893836      36.893836    
    573000   0.60815242    -7.5702291     -6.6580134      5.6037512      50218.233      36.893836      36.893836      36.893836    
    574000   0.60905665    -7.5686644     -6.6550925      5.6166379      50218.233      36.893836      36.893836      36.893836    
    575000   0.60981221    -7.5672612     -6.6525559      5.6275344      50218.233      36.893836      36.893836      36.893836    
    576000   0.61143588    -7.5755703     -6.6584295      5.5639687      50218.233      36.893836      36.893836      36.893836    
    577000   0.611562      -7.5682931     -6.6509632      5.6306483      50218.233      36.893836      36.893836      36.893836    
    578000   0.60871073    -7.5725785     -6.6595254      5.5913561      50218.233      36.893836      36.893836      36.893836    
    579000   0.61075773    -7.5725078     -6.6563842      5.5851263      50218.233      36.893836      36.893836      36.893836    
    580000   0.61169335    -7.5707882     -6.6532613      5.6153707      50218.233      36.893836      36.893836      36.893836    
    581000   0.61214165    -7.5734269     -6.6552275      5.5863666      50218.233      36.893836      36.893836      36.893836    
    582000   0.60969299    -7.5707104     -6.6561839      5.6022432      50218.233      36.893836      36.893836      36.893836    
    583000   0.60999877    -7.5744488     -6.6594637      5.5803002      50218.233      36.893836      36.893836      36.893836    
    584000   0.6091786     -7.5676601     -6.6539052      5.6207184      50218.233      36.893836      36.893836      36.893836    
    585000   0.61497501    -7.5756259     -6.6531765      5.5763454      50218.233      36.893836      36.893836      36.893836    
    586000   0.61014       -7.5725332     -6.6573362      5.6044603      50218.233      36.893836      36.893836      36.893836    
    587000   0.60737568    -7.5668498     -6.6557993      5.6354471      50218.233      36.893836      36.893836      36.893836    
    588000   0.60757536    -7.5700988     -6.6587487      5.6097895      50218.233      36.893836      36.893836      36.893836    
    589000   0.6090365     -7.5645277     -6.6509859      5.6552457      50218.233      36.893836      36.893836      36.893836    
    590000   0.60852689    -7.5693838     -6.6566064      5.6207056      50218.233      36.893836      36.893836      36.893836    
    591000   0.60934654    -7.568023      -6.6540162      5.6269321      50218.233      36.893836      36.893836      36.893836    
    592000   0.60835004    -7.5652871     -6.652775       5.6309965      50218.233      36.893836      36.893836      36.893836    
    593000   0.61153802    -7.5720431     -6.6547491      5.5920656      50218.233      36.893836      36.893836      36.893836    
    594000   0.61199787    -7.5702668     -6.6522831      5.6142371      50218.233      36.893836      36.893836      36.893836    
    595000   0.60848262    -7.5702909     -6.65758        5.6093574      50218.233      36.893836      36.893836      36.893836    
    596000   0.6124664     -7.5677636     -6.6490771      5.6289967      50218.233      36.893836      36.893836      36.893836    
    597000   0.60946032    -7.5674982     -6.6533207      5.6228319      50218.233      36.893836      36.893836      36.893836    
    598000   0.61177067    -7.5667455     -6.6491026      5.6283993      50218.233      36.893836      36.893836      36.893836    
    599000   0.60917754    -7.5778858     -6.6641325      5.5482823      50218.233      36.893836      36.893836      36.893836    
    600000   0.60792557    -7.5728553     -6.6609799      5.582829       50218.233      36.893836      36.893836      36.893836    
    601000   0.60967751    -7.5694792     -6.6549759      5.6055096      50218.233      36.893836      36.893836      36.893836    
    602000   0.61293166    -7.5646628     -6.6452784      5.6502094      50218.233      36.893836      36.893836      36.893836    
    603000   0.61050039    -7.5735122     -6.6577746      5.583689       50218.233      36.893836      36.893836      36.893836    
    604000   0.61017297    -7.5699869     -6.6547404      5.614284       50218.233      36.893836      36.893836      36.893836    
    605000   0.60894532    -7.5756913     -6.6622863      5.5546917      50218.233      36.893836      36.893836      36.893836    
    606000   0.61195388    -7.5727933     -6.6548755      5.5885841      50218.233      36.893836      36.893836      36.893836    
    607000   0.61275912    -7.5763073     -6.6571817      5.5712876      50218.233      36.893836      36.893836      36.893836    
    608000   0.60903718    -7.5707793     -6.6572365      5.6069145      50218.233      36.893836      36.893836      36.893836    
    609000   0.60906887    -7.5717612     -6.6581708      5.6120372      50218.233      36.893836      36.893836      36.893836    
    610000   0.60814065    -7.5694864     -6.6572884      5.6064664      50218.233      36.893836      36.893836      36.893836    
    611000   0.60870035    -7.5683397     -6.6553021      5.6115025      50218.233      36.893836      36.893836      36.893836    
    612000   0.60999696    -7.5730683     -6.6580859      5.582483       50218.233      36.893836      36.893836      36.893836    
    613000   0.60905499    -7.572232      -6.6586625      5.5943947      50218.233      36.893836      36.893836      36.893836    
    614000   0.61210659    -7.5697626     -6.6516157      5.6176291      50218.233      36.893836      36.893836      36.893836    
    615000   0.60970782    -7.5700815     -6.6555327      5.6199609      50218.233      36.893836      36.893836      36.893836    
    616000   0.60938639    -7.5715266     -6.65746        5.6064583      50218.233      36.893836      36.893836      36.893836    
    617000   0.61111436    -7.5701395     -6.653481       5.6066409      50218.233      36.893836      36.893836      36.893836    
    618000   0.6110713     -7.5723776     -6.6557837      5.6004795      50218.233      36.893836      36.893836      36.893836    
    619000   0.61211969    -7.5729313     -6.6547648      5.5940667      50218.233      36.893836      36.893836      36.893836    
    620000   0.60863761    -7.5733857     -6.6604422      5.580826       50218.233      36.893836      36.893836      36.893836    
    621000   0.60766005    -7.5695134     -6.6580363      5.614107       50218.233      36.893836      36.893836      36.893836    
    622000   0.61001624    -7.5733648     -6.6583534      5.5961058      50218.233      36.893836      36.893836      36.893836    
    623000   0.61205811    -7.5698778     -6.6518037      5.623921       50218.233      36.893836      36.893836      36.893836    
    624000   0.61028437    -7.5676078     -6.6521943      5.635925       50218.233      36.893836      36.893836      36.893836    
    625000   0.6084779     -7.5701445     -6.6574406      5.6024638      50218.233      36.893836      36.893836      36.893836    
    626000   0.61127932    -7.5695723     -6.6526664      5.6262964      50218.233      36.893836      36.893836      36.893836    
    627000   0.61253164    -7.5700114     -6.651227       5.6107597      50218.233      36.893836      36.893836      36.893836    
    628000   0.60839113    -7.5699641     -6.6573904      5.6142483      50218.233      36.893836      36.893836      36.893836    
    629000   0.61028195    -7.5762649     -6.660855       5.5748588      50218.233      36.893836      36.893836      36.893836    
    630000   0.60797519    -7.5736893     -6.6617395      5.580289       50218.233      36.893836      36.893836      36.893836    
    631000   0.60996176    -7.5787108     -6.6637812      5.5538205      50218.233      36.893836      36.893836      36.893836    
    632000   0.61043273    -7.5701011     -6.654465       5.6162188      50218.233      36.893836      36.893836      36.893836    
    633000   0.61417905    -7.5744597     -6.6532042      5.5833082      50218.233      36.893836      36.893836      36.893836    
    634000   0.61288909    -7.5713411     -6.6520206      5.6073788      50218.233      36.893836      36.893836      36.893836    
    635000   0.61230289    -7.5688326     -6.6503913      5.6312687      50218.233      36.893836      36.893836      36.893836    
    636000   0.61018808    -7.5719947     -6.6567256      5.601146       50218.233      36.893836      36.893836      36.893836    
    637000   0.6123028     -7.5656967     -6.6472556      5.656853       50218.233      36.893836      36.893836      36.893836    
    638000   0.60998464    -7.5725264     -6.6575624      5.6063632      50218.233      36.893836      36.893836      36.893836    
    639000   0.60996813    -7.5687834     -6.6538442      5.6226824      50218.233      36.893836      36.893836      36.893836    
    640000   0.60872217    -7.5705764     -6.6575062      5.604345       50218.233      36.893836      36.893836      36.893836    
    641000   0.61003409    -7.57257       -6.6575319      5.5981323      50218.233      36.893836      36.893836      36.893836    
    642000   0.61336105    -7.5781168     -6.6580883      5.5665414      50218.233      36.893836      36.893836      36.893836    
    643000   0.61266215    -7.5746961     -6.655716       5.5846398      50218.233      36.893836      36.893836      36.893836    
    644000   0.6068199     -7.5680584     -6.6578416      5.6314988      50218.233      36.893836      36.893836      36.893836    
    645000   0.61261337    -7.570211      -6.651304       5.6187883      50218.233      36.893836      36.893836      36.893836    
    646000   0.60882918    -7.5776007     -6.6643699      5.5581354      50218.233      36.893836      36.893836      36.893836    
    647000   0.61273097    -7.5712911     -6.6522077      5.619058       50218.233      36.893836      36.893836      36.893836    
    648000   0.60898699    -7.5720935     -6.658626       5.5919377      50218.233      36.893836      36.893836      36.893836    
    649000   0.61125385    -7.5693534     -6.6524857      5.6183369      50218.233      36.893836      36.893836      36.893836    
    650000   0.60789023    -7.5708435     -6.6590211      5.6068589      50218.233      36.893836      36.893836      36.893836    
    651000   0.60937893    -7.5718168     -6.6577614      5.5986766      50218.233      36.893836      36.893836      36.893836    
    652000   0.61173484    -7.5699225     -6.6523333      5.6169272      50218.233      36.893836      36.893836      36.893836    
    653000   0.61079354    -7.5703238     -6.6541465      5.6107964      50218.233      36.893836      36.893836      36.893836    
    654000   0.61444344    -7.5735014     -6.6518494      5.6013944      50218.233      36.893836      36.893836      36.893836    
    655000   0.60910907    -7.5707583     -6.6571077      5.6017974      50218.233      36.893836      36.893836      36.893836    
    656000   0.61164182    -7.5713522     -6.6539025      5.6020659      50218.233      36.893836      36.893836      36.893836    
    657000   0.61037482    -7.5727435     -6.6571943      5.5920926      50218.233      36.893836      36.893836      36.893836    
    658000   0.61029382    -7.5718316     -6.6564039      5.5976263      50218.233      36.893836      36.893836      36.893836    
    659000   0.61204538    -7.5762132     -6.6581582      5.5712413      50218.233      36.893836      36.893836      36.893836    
    660000   0.60870352    -7.5789671     -6.6659248      5.5443967      50218.233      36.893836      36.893836      36.893836    
    661000   0.60590799    -7.576533      -6.667684       5.5617176      50218.233      36.893836      36.893836      36.893836    
    662000   0.61373987    -7.5778635     -6.6572668      5.5803901      50218.233      36.893836      36.893836      36.893836    
    663000   0.60914719    -7.5747379     -6.6610301      5.5865151      50218.233      36.893836      36.893836      36.893836    
    664000   0.61175858    -7.5754446     -6.6578198      5.5808583      50218.233      36.893836      36.893836      36.893836    
    665000   0.60689195    -7.5728117     -6.6624867      5.5956739      50218.233      36.893836      36.893836      36.893836    
    666000   0.60624925    -7.5775924     -6.6682315      5.5512709      50218.233      36.893836      36.893836      36.893836    
    667000   0.60931881    -7.5694621     -6.6554969      5.6189494      50218.233      36.893836      36.893836      36.893836    
    668000   0.61138742    -7.5743152     -6.6572471      5.5769396      50218.233      36.893836      36.893836      36.893836    
    669000   0.61189075    -7.5740791     -6.656256       5.5839703      50218.233      36.893836      36.893836      36.893836    
    670000   0.6073026     -7.571045      -6.6601041      5.6004158      50218.233      36.893836      36.893836      36.893836    
    671000   0.60986666    -7.5774726     -6.6626856      5.5539509      50218.233      36.893836      36.893836      36.893836    
    672000   0.61105188    -7.5736352     -6.6570705      5.5973352      50218.233      36.893836      36.893836      36.893836    
    673000   0.61190509    -7.5732953     -6.6554507      5.5885568      50218.233      36.893836      36.893836      36.893836    
    674000   0.60889855    -7.575823      -6.6624882      5.5651946      50218.233      36.893836      36.893836      36.893836    
    675000   0.61474685    -7.5732638     -6.6511567      5.5890173      50218.233      36.893836      36.893836      36.893836    
    676000   0.61081869    -7.5728393     -6.6566243      5.5985741      50218.233      36.893836      36.893836      36.893836    
    677000   0.6073297     -7.5741065     -6.6631249      5.5856223      50218.233      36.893836      36.893836      36.893836    
    678000   0.60834149    -7.5720596     -6.6595603      5.603858       50218.233      36.893836      36.893836      36.893836    
    679000   0.61330655    -7.5784905     -6.6585438      5.5616718      50218.233      36.893836      36.893836      36.893836    
    680000   0.60940201    -7.5737368     -6.6596468      5.5960984      50218.233      36.893836      36.893836      36.893836    
    681000   0.61322987    -7.574363      -6.6545313      5.5822695      50218.233      36.893836      36.893836      36.893836    
    682000   0.61120535    -7.5762844     -6.6594894      5.5656131      50218.233      36.893836      36.893836      36.893836    
    683000   0.60975239    -7.5739927     -6.6593771      5.5929407      50218.233      36.893836      36.893836      36.893836    
    684000   0.60945096    -7.5689513     -6.6547878      5.6214891      50218.233      36.893836      36.893836      36.893836    
    685000   0.6123251     -7.5725471     -6.6540725      5.6156049      50218.233      36.893836      36.893836      36.893836    
    686000   0.61045382    -7.5763984     -6.6607307      5.5786104      50218.233      36.893836      36.893836      36.893836    
    687000   0.60833712    -7.5748596     -6.6623669      5.5755973      50218.233      36.893836      36.893836      36.893836    
    688000   0.6115601     -7.5723702     -6.6550431      5.614685       50218.233      36.893836      36.893836      36.893836    
    689000   0.60672011    -7.5766841     -6.6666169      5.5676031      50218.233      36.893836      36.893836      36.893836    
    690000   0.60905607    -7.5737013     -6.6601301      5.5831615      50218.233      36.893836      36.893836      36.893836    
    691000   0.61039319    -7.5745255     -6.6589487      5.5741953      50218.233      36.893836      36.893836      36.893836    
    692000   0.60865642    -7.5771293     -6.6641576      5.5574591      50218.233      36.893836      36.893836      36.893836    
    693000   0.60794499    -7.5724983     -6.6605938      5.5944706      50218.233      36.893836      36.893836      36.893836    
    694000   0.61147132    -7.5727614     -6.6555675      5.5997558      50218.233      36.893836      36.893836      36.893836    
    695000   0.61046135    -7.5766079     -6.6609289      5.5672476      50218.233      36.893836      36.893836      36.893836    
    696000   0.60729107    -7.5775992     -6.6666756      5.5604016      50218.233      36.893836      36.893836      36.893836    
    697000   0.60894402    -7.5752498     -6.6618468      5.5793351      50218.233      36.893836      36.893836      36.893836    
    698000   0.61083233    -7.5693294     -6.6530939      5.6163051      50218.233      36.893836      36.893836      36.893836    
    699000   0.61192177    -7.5801334     -6.6622638      5.5374014      50218.233      36.893836      36.893836      36.893836    
    700000   0.60894794    -7.576954      -6.6635451      5.5604593      50218.233      36.893836      36.893836      36.893836    
    701000   0.61020042    -7.5704676     -6.65518        5.6081902      50218.233      36.893836      36.893836      36.893836    
    702000   0.60660045    -7.5722448     -6.6623571      5.5988265      50218.233      36.893836      36.893836      36.893836    
    703000   0.60917134    -7.5769248     -6.6631808      5.5599186      50218.233      36.893836      36.893836      36.893836    
    704000   0.60783229    -7.5774463     -6.6657109      5.5700714      50218.233      36.893836      36.893836      36.893836    
    705000   0.61272584    -7.5833979     -6.6643222      5.5192889      50218.233      36.893836      36.893836      36.893836    
    706000   0.60908057    -7.5746241     -6.6610163      5.5835551      50218.233      36.893836      36.893836      36.893836    
    707000   0.61186315    -7.5777506     -6.6599689      5.5677144      50218.233      36.893836      36.893836      36.893836    
    708000   0.60927829    -7.5741587     -6.6602542      5.5871679      50218.233      36.893836      36.893836      36.893836    
    709000   0.60929246    -7.5759957     -6.66207        5.5751225      50218.233      36.893836      36.893836      36.893836    
    710000   0.60925648    -7.5790845     -6.6652128      5.5526259      50218.233      36.893836      36.893836      36.893836    
    711000   0.60897025    -7.5774881     -6.6640457      5.5510155      50218.233      36.893836      36.893836      36.893836    
    712000   0.61205318    -7.5764874     -6.6584207      5.5622777      50218.233      36.893836      36.893836      36.893836    
    713000   0.60930773    -7.5696059     -6.6556573      5.608847       50218.233      36.893836      36.893836      36.893836    
    714000   0.60871914    -7.5777586     -6.6646929      5.5688824      50218.233      36.893836      36.893836      36.893836    
    715000   0.61021881    -7.5780713     -6.6627561      5.5453766      50218.233      36.893836      36.893836      36.893836    
    716000   0.60880191    -7.5728308     -6.6596409      5.5954191      50218.233      36.893836      36.893836      36.893836    
    717000   0.60794904    -7.5714895     -6.6595789      5.5978583      50218.233      36.893836      36.893836      36.893836    
    718000   0.61061011    -7.5803249     -6.6644228      5.5429789      50218.233      36.893836      36.893836      36.893836    
    719000   0.61181858    -7.5750639     -6.6573491      5.5812962      50218.233      36.893836      36.893836      36.893836    
    720000   0.61142458    -7.5730285     -6.6559047      5.6042199      50218.233      36.893836      36.893836      36.893836    
    721000   0.60708042    -7.5743567     -6.6637491      5.5630399      50218.233      36.893836      36.893836      36.893836    
    722000   0.61027267    -7.5681952     -6.6527992      5.632946       50218.233      36.893836      36.893836      36.893836    
    723000   0.61171807    -7.5701379     -6.6525738      5.6200019      50218.233      36.893836      36.893836      36.893836    
    724000   0.60980944    -7.5714375     -6.6567363      5.5920711      50218.233      36.893836      36.893836      36.893836    
    725000   0.60814142    -7.5727508     -6.6605516      5.5786523      50218.233      36.893836      36.893836      36.893836    
    726000   0.61426824    -7.5746032     -6.6532139      5.5869761      50218.233      36.893836      36.893836      36.893836    
    727000   0.61122518    -7.5717783     -6.6549536      5.6014713      50218.233      36.893836      36.893836      36.893836    
    728000   0.61061951    -7.5746405     -6.6587242      5.5855313      50218.233      36.893836      36.893836      36.893836    
    729000   0.60922362    -7.5739594     -6.6601369      5.5810392      50218.233      36.893836      36.893836      36.893836    
    730000   0.61084201    -7.5760434     -6.6597934      5.5765588      50218.233      36.893836      36.893836      36.893836    
    731000   0.61201159    -7.5772637     -6.6592593      5.561107       50218.233      36.893836      36.893836      36.893836    
    732000   0.60947268    -7.5751664     -6.6609703      5.578394       50218.233      36.893836      36.893836      36.893836    
    733000   0.61136499    -7.5710396     -6.6540052      5.613372       50218.233      36.893836      36.893836      36.893836    
    734000   0.60835686    -7.5742028     -6.6616805      5.5946638      50218.233      36.893836      36.893836      36.893836    
    735000   0.60852692    -7.5757329     -6.6629555      5.5778518      50218.233      36.893836      36.893836      36.893836    
    736000   0.61001706    -7.5669363     -6.6519237      5.6369752      50218.233      36.893836      36.893836      36.893836    
    737000   0.61347118    -7.5763487     -6.656155       5.5769492      50218.233      36.893836      36.893836      36.893836    
    738000   0.60940864    -7.5723724     -6.6582725      5.6025846      50218.233      36.893836      36.893836      36.893836    
    739000   0.61168106    -7.5713305     -6.6538219      5.6123862      50218.233      36.893836      36.893836      36.893836    
    740000   0.61044601    -7.5739948     -6.6583388      5.5849891      50218.233      36.893836      36.893836      36.893836    
    741000   0.60780295    -7.5706443     -6.6589529      5.604377       50218.233      36.893836      36.893836      36.893836    
    742000   0.60983604    -7.5740234     -6.6592824      5.5876895      50218.233      36.893836      36.893836      36.893836    
    743000   0.60882806    -7.5651185     -6.6518894      5.6408568      50218.233      36.893836      36.893836      36.893836    
    744000   0.61105346    -7.576702      -6.6601349      5.5736463      50218.233      36.893836      36.893836      36.893836    
    745000   0.61089263    -7.573356      -6.6570301      5.596191       50218.233      36.893836      36.893836      36.893836    
    746000   0.61040275    -7.5733225     -6.6577314      5.5919704      50218.233      36.893836      36.893836      36.893836    
    747000   0.60810163    -7.5710644     -6.658925       5.6102108      50218.233      36.893836      36.893836      36.893836    
    748000   0.60843208    -7.5742921     -6.661657       5.5755612      50218.233      36.893836      36.893836      36.893836    
    749000   0.61416875    -7.5759409     -6.6547009      5.5868596      50218.233      36.893836      36.893836      36.893836    
    750000   0.61305138    -7.5724849     -6.6529209      5.6094777      50218.233      36.893836      36.893836      36.893836    
    751000   0.60735052    -7.569731      -6.6587182      5.6181446      50218.233      36.893836      36.893836      36.893836    
    752000   0.61333821    -7.5708755     -6.6508813      5.615919       50218.233      36.893836      36.893836      36.893836    
    753000   0.61153839    -7.5713798     -6.6540853      5.6085733      50218.233      36.893836      36.893836      36.893836    
    754000   0.60860697    -7.5706204     -6.6577229      5.6086587      50218.233      36.893836      36.893836      36.893836    
    755000   0.60833914    -7.5736217     -6.6611259      5.5892958      50218.233      36.893836      36.893836      36.893836    
    756000   0.60752153    -7.5708423     -6.659573       5.6086522      50218.233      36.893836      36.893836      36.893836    
    757000   0.61205505    -7.5760362     -6.6579667      5.5930702      50218.233      36.893836      36.893836      36.893836    
    758000   0.60851835    -7.5751878     -6.6624233      5.5811212      50218.233      36.893836      36.893836      36.893836    
    759000   0.60979675    -7.5753761     -6.660694       5.5744471      50218.233      36.893836      36.893836      36.893836    
    760000   0.61045259    -7.5763401     -6.6606742      5.5830717      50218.233      36.893836      36.893836      36.893836    
    761000   0.60687174    -7.5762512     -6.6659566      5.5754698      50218.233      36.893836      36.893836      36.893836    
    762000   0.61052926    -7.5696008     -6.65382        5.6199031      50218.233      36.893836      36.893836      36.893836    
    763000   0.61277274    -7.5705764     -6.6514304      5.6167862      50218.233      36.893836      36.893836      36.893836    
    764000   0.61200513    -7.5741446     -6.65615        5.579436       50218.233      36.893836      36.893836      36.893836    
    765000   0.61290232    -7.5721524     -6.652812       5.6020353      50218.233      36.893836      36.893836      36.893836    
    766000   0.60585774    -7.5640851     -6.6553114      5.6617104      50218.233      36.893836      36.893836      36.893836    
    767000   0.61104086    -7.5756518     -6.6591035      5.5888826      50218.233      36.893836      36.893836      36.893836    
    768000   0.60879018    -7.5718055     -6.6586333      5.6090017      50218.233      36.893836      36.893836      36.893836    
    769000   0.60517141    -7.5703553     -6.6626111      5.6043068      50218.233      36.893836      36.893836      36.893836    
    770000   0.61151973    -7.5706074     -6.6533408      5.6205058      50218.233      36.893836      36.893836      36.893836    
    771000   0.60888093    -7.5711833     -6.6578749      5.5928352      50218.233      36.893836      36.893836      36.893836    
    772000   0.6115272     -7.5723303     -6.6550526      5.5909713      50218.233      36.893836      36.893836      36.893836    
    773000   0.60973359    -7.5729972     -6.6584099      5.5896896      50218.233      36.893836      36.893836      36.893836    
    774000   0.61120316    -7.5697068     -6.6529151      5.6242088      50218.233      36.893836      36.893836      36.893836    
    775000   0.61144898    -7.5704184     -6.653258       5.6142649      50218.233      36.893836      36.893836      36.893836    
    776000   0.61072235    -7.5738445     -6.657774       5.5868515      50218.233      36.893836      36.893836      36.893836    
    777000   0.60918659    -7.569063      -6.6552961      5.6275458      50218.233      36.893836      36.893836      36.893836    
    778000   0.60654703    -7.5720759     -6.6622683      5.6025535      50218.233      36.893836      36.893836      36.893836    
    779000   0.61262905    -7.5727836     -6.6538531      5.5876561      50218.233      36.893836      36.893836      36.893836    
    780000   0.6096158     -7.5708067     -6.656396       5.6132045      50218.233      36.893836      36.893836      36.893836    
    781000   0.6093465     -7.5717229     -6.6577162      5.6043842      50218.233      36.893836      36.893836      36.893836    
    782000   0.60811175    -7.5692426     -6.6570879      5.6166089      50218.233      36.893836      36.893836      36.893836    
    783000   0.61036552    -7.5693133     -6.653778       5.6261175      50218.233      36.893836      36.893836      36.893836    
    784000   0.60567033    -7.5713847     -6.6628921      5.6034453      50218.233      36.893836      36.893836      36.893836    
    785000   0.60777995    -7.5689473     -6.6572903      5.6186639      50218.233      36.893836      36.893836      36.893836    
    786000   0.60671798    -7.576133      -6.666069       5.5712017      50218.233      36.893836      36.893836      36.893836    
    787000   0.60773173    -7.5669144     -6.6553298      5.630623       50218.233      36.893836      36.893836      36.893836    
    788000   0.61321923    -7.5659483     -6.6461326      5.6442347      50218.233      36.893836      36.893836      36.893836    
    789000   0.60989764    -7.5733047     -6.6584712      5.5977085      50218.233      36.893836      36.893836      36.893836    
    790000   0.60886183    -7.5740482     -6.6607684      5.5863086      50218.233      36.893836      36.893836      36.893836    
    791000   0.60874871    -7.5763122     -6.6632021      5.5740686      50218.233      36.893836      36.893836      36.893836    
    792000   0.60817996    -7.5776447     -6.6653877      5.565946       50218.233      36.893836      36.893836      36.893836    
    793000   0.61056789    -7.5764028     -6.660564       5.5587087      50218.233      36.893836      36.893836      36.893836    
    794000   0.61198814    -7.5769577     -6.6589886      5.565555       50218.233      36.893836      36.893836      36.893836    
    795000   0.61250247    -7.5746074     -6.6558667      5.5874079      50218.233      36.893836      36.893836      36.893836    
    796000   0.6109301     -7.5749499     -6.6585678      5.5745793      50218.233      36.893836      36.893836      36.893836    
    797000   0.60998341    -7.571842      -6.6568799      5.5986251      50218.233      36.893836      36.893836      36.893836    
    798000   0.61138029    -7.568814      -6.6517566      5.6370121      50218.233      36.893836      36.893836      36.893836    
    799000   0.60973937    -7.5696684     -6.6550724      5.6187683      50218.233      36.893836      36.893836      36.893836    
    800000   0.61092135    -7.5769322     -6.6605632      5.5712597      50218.233      36.893836      36.893836      36.893836    
    801000   0.60956058    -7.5722672     -6.6579394      5.6086716      50218.233      36.893836      36.893836      36.893836    
    802000   0.61057603    -7.5767579     -6.6609069      5.571884       50218.233      36.893836      36.893836      36.893836    
    803000   0.60739849    -7.5734324     -6.6623477      5.593097       50218.233      36.893836      36.893836      36.893836    
    804000   0.61273563    -7.5714831     -6.6523927      5.6285277      50218.233      36.893836      36.893836      36.893836    
    805000   0.61282469    -7.5749996     -6.6557756      5.580367       50218.233      36.893836      36.893836      36.893836    
    806000   0.6095984     -7.5723784     -6.6579938      5.5968189      50218.233      36.893836      36.893836      36.893836    
    807000   0.6107639     -7.5760245     -6.6598917      5.5709434      50218.233      36.893836      36.893836      36.893836    
    808000   0.60937845    -7.5758135     -6.6617588      5.5670715      50218.233      36.893836      36.893836      36.893836    
    809000   0.6102473     -7.5734791     -6.6581212      5.5943136      50218.233      36.893836      36.893836      36.893836    
    810000   0.60923902    -7.5722094     -6.6583639      5.5976621      50218.233      36.893836      36.893836      36.893836    
    811000   0.61045944    -7.5765494     -6.6608732      5.5564502      50218.233      36.893836      36.893836      36.893836    
    812000   0.60888822    -7.5809132     -6.6675939      5.5290192      50218.233      36.893836      36.893836      36.893836    
    813000   0.61190545    -7.5784958     -6.6606506      5.5413379      50218.233      36.893836      36.893836      36.893836    
    814000   0.60856733    -7.5794051     -6.6665671      5.5358979      50218.233      36.893836      36.893836      36.893836    
    815000   0.6077208     -7.5759723     -6.6644041      5.5671381      50218.233      36.893836      36.893836      36.893836    
    816000   0.61129076    -7.5699667     -6.6530436      5.6020553      50218.233      36.893836      36.893836      36.893836    
    817000   0.61354159    -7.5754537     -6.6551544      5.5632306      50218.233      36.893836      36.893836      36.893836    
    818000   0.61038768    -7.5744481     -6.6588796      5.5778857      50218.233      36.893836      36.893836      36.893836    
    819000   0.61126892    -7.5719081     -6.6550178      5.5882683      50218.233      36.893836      36.893836      36.893836    
    820000   0.61225378    -7.5736807     -6.655313       5.5887414      50218.233      36.893836      36.893836      36.893836    
    821000   0.609459      -7.5743286     -6.6601531      5.5715731      50218.233      36.893836      36.893836      36.893836    
    822000   0.60928477    -7.5737695     -6.6598553      5.5835708      50218.233      36.893836      36.893836      36.893836    
    823000   0.60989572    -7.5722571     -6.6574266      5.5884463      50218.233      36.893836      36.893836      36.893836    
    824000   0.60909744    -7.5770607     -6.6634276      5.546552       50218.233      36.893836      36.893836      36.893836    
    825000   0.61119985    -7.571707      -6.6549203      5.5964901      50218.233      36.893836      36.893836      36.893836    
    826000   0.60804098    -7.576025      -6.6639765      5.5482123      50218.233      36.893836      36.893836      36.893836    
    827000   0.6073746     -7.5733245     -6.6622756      5.575112       50218.233      36.893836      36.893836      36.893836    
    828000   0.61087234    -7.5746125     -6.658317       5.5695489      50218.233      36.893836      36.893836      36.893836    
    829000   0.60675396    -7.5738167     -6.6636987      5.5780891      50218.233      36.893836      36.893836      36.893836    
    830000   0.60491102    -7.5728274     -6.6654738      5.582309       50218.233      36.893836      36.893836      36.893836    
    831000   0.60908715    -7.574068      -6.6604503      5.5888191      50218.233      36.893836      36.893836      36.893836    
    832000   0.60672307    -7.5730535     -6.6629819      5.5839023      50218.233      36.893836      36.893836      36.893836    
    833000   0.60889919    -7.5772672     -6.6639314      5.5565051      50218.233      36.893836      36.893836      36.893836    
    834000   0.61081444    -7.5751264     -6.6589178      5.5734956      50218.233      36.893836      36.893836      36.893836    
    835000   0.61109748    -7.5826365     -6.6660033      5.5233231      50218.233      36.893836      36.893836      36.893836    
    836000   0.6082296     -7.5759055     -6.6635741      5.574249       50218.233      36.893836      36.893836      36.893836    
    837000   0.61074919    -7.5757007     -6.65959        5.5676139      50218.233      36.893836      36.893836      36.893836    
    838000   0.6127544     -7.5784372     -6.6593187      5.5585127      50218.233      36.893836      36.893836      36.893836    
    839000   0.61048874    -7.5769522     -6.6612321      5.5521027      50218.233      36.893836      36.893836      36.893836    
    840000   0.61096142    -7.5773163     -6.6608872      5.5521957      50218.233      36.893836      36.893836      36.893836    
    841000   0.60594704    -7.5742776     -6.66537        5.5777312      50218.233      36.893836      36.893836      36.893836    
    842000   0.60995565    -7.5773372     -6.6624167      5.5516634      50218.233      36.893836      36.893836      36.893836    
    843000   0.60948822    -7.5728831     -6.6586637      5.5994026      50218.233      36.893836      36.893836      36.893836    
    844000   0.60703327    -7.5812043     -6.6706673      5.5293473      50218.233      36.893836      36.893836      36.893836    
    845000   0.61149255    -7.5825167     -6.6652909      5.5161996      50218.233      36.893836      36.893836      36.893836    
    846000   0.61156494    -7.578817      -6.6614827      5.5564238      50218.233      36.893836      36.893836      36.893836    
    847000   0.60526392    -7.5764339     -6.6685509      5.5565197      50218.233      36.893836      36.893836      36.893836    
    848000   0.60983171    -7.5760015     -6.661267       5.563061       50218.233      36.893836      36.893836      36.893836    
    849000   0.60789669    -7.5704104     -6.6585783      5.6086627      50218.233      36.893836      36.893836      36.893836    
    850000   0.6114591     -7.5781482     -6.6609726      5.5508089      50218.233      36.893836      36.893836      36.893836    
    851000   0.60712313    -7.5775217     -6.6668499      5.5565804      50218.233      36.893836      36.893836      36.893836    
    852000   0.61292412    -7.5746355     -6.6552624      5.5796414      50218.233      36.893836      36.893836      36.893836    
    853000   0.61389983    -7.5756837     -6.6548471      5.5792613      50218.233      36.893836      36.893836      36.893836    
    854000   0.61021101    -7.573891      -6.6585875      5.5837109      50218.233      36.893836      36.893836      36.893836    
    855000   0.60920297    -7.5739141     -6.6601226      5.5791308      50218.233      36.893836      36.893836      36.893836    
    856000   0.61204602    -7.5767514     -6.6586954      5.5687477      50218.233      36.893836      36.893836      36.893836    
    857000   0.60813454    -7.5696085     -6.6574196      5.5997062      50218.233      36.893836      36.893836      36.893836    
    858000   0.60892108    -7.5724775     -6.6591089      5.5899326      50218.233      36.893836      36.893836      36.893836    
    859000   0.61018977    -7.5759208     -6.6606491      5.5727265      50218.233      36.893836      36.893836      36.893836    
    860000   0.60945099    -7.5758695     -6.661706       5.5708112      50218.233      36.893836      36.893836      36.893836    
    861000   0.60996393    -7.5736587     -6.6587258      5.5841222      50218.233      36.893836      36.893836      36.893836    
    862000   0.60769081    -7.5759854     -6.6644621      5.5681183      50218.233      36.893836      36.893836      36.893836    
    863000   0.60820298    -7.5744859     -6.6621944      5.5744645      50218.233      36.893836      36.893836      36.893836    
    864000   0.61051785    -7.571325      -6.6555612      5.5948767      50218.233      36.893836      36.893836      36.893836    
    865000   0.60897551    -7.5702215     -6.6567713      5.6097636      50218.233      36.893836      36.893836      36.893836    
    866000   0.61024752    -7.5678384     -6.6524802      5.6303631      50218.233      36.893836      36.893836      36.893836    
    867000   0.61071421    -7.5734022     -6.6573439      5.58506        50218.233      36.893836      36.893836      36.893836    
    868000   0.61073999    -7.5720614     -6.6559644      5.6028921      50218.233      36.893836      36.893836      36.893836    
    869000   0.60797655    -7.5717908     -6.6598389      5.5807517      50218.233      36.893836      36.893836      36.893836    
    870000   0.60927624    -7.5730788     -6.6591774      5.5823194      50218.233      36.893836      36.893836      36.893836    
    871000   0.60918473    -7.5741746     -6.6604105      5.5761232      50218.233      36.893836      36.893836      36.893836    
    872000   0.61104308    -7.5751796     -6.658628       5.5793369      50218.233      36.893836      36.893836      36.893836    
    873000   0.61076908    -7.5795765     -6.6634359      5.5496068      50218.233      36.893836      36.893836      36.893836    
    874000   0.60820438    -7.5734346     -6.661141       5.5927236      50218.233      36.893836      36.893836      36.893836    
    875000   0.61021249    -7.5720702     -6.6567645      5.5940178      50218.233      36.893836      36.893836      36.893836    
    876000   0.60916929    -7.5719146     -6.6581737      5.588856       50218.233      36.893836      36.893836      36.893836    
    877000   0.61346817    -7.5758491     -6.6556599      5.5683952      50218.233      36.893836      36.893836      36.893836    
    878000   0.61151318    -7.5738523     -6.6565955      5.5837887      50218.233      36.893836      36.893836      36.893836    
    879000   0.60988816    -7.5746941     -6.6598749      5.5687419      50218.233      36.893836      36.893836      36.893836    
    880000   0.61166201    -7.573307      -6.655827       5.5899915      50218.233      36.893836      36.893836      36.893836    
    881000   0.61075075    -7.5741738     -6.6580607      5.5802195      50218.233      36.893836      36.893836      36.893836    
    882000   0.60634028    -7.5699944     -6.6604969      5.5912631      50218.233      36.893836      36.893836      36.893836    
    883000   0.60906529    -7.5736585     -6.6600736      5.5796037      50218.233      36.893836      36.893836      36.893836    
    884000   0.61132398    -7.5756113     -6.6586383      5.565162       50218.233      36.893836      36.893836      36.893836    
    885000   0.6102288     -7.5730549     -6.6577247      5.5895705      50218.233      36.893836      36.893836      36.893836    
    886000   0.60950319    -7.5745546     -6.6603128      5.5829873      50218.233      36.893836      36.893836      36.893836    
    887000   0.61012911    -7.5758433     -6.6606627      5.584508       50218.233      36.893836      36.893836      36.893836    
    888000   0.61709813    -7.5766604     -6.6510264      5.5771651      50218.233      36.893836      36.893836      36.893836    
    889000   0.61193074    -7.5766328     -6.6587497      5.5583602      50218.233      36.893836      36.893836      36.893836    
    890000   0.61028272    -7.5757807     -6.6603697      5.5771785      50218.233      36.893836      36.893836      36.893836    
    891000   0.60907675    -7.5775446     -6.6639425      5.5471843      50218.233      36.893836      36.893836      36.893836    
    892000   0.61323938    -7.5725862     -6.6527403      5.6015385      50218.233      36.893836      36.893836      36.893836    
    893000   0.60743118    -7.5747714     -6.6636376      5.5644179      50218.233      36.893836      36.893836      36.893836    
    894000   0.6082517     -7.5714263     -6.6590618      5.5981912      50218.233      36.893836      36.893836      36.893836    
    895000   0.61060201    -7.5720188     -6.6561289      5.594863       50218.233      36.893836      36.893836      36.893836    
    896000   0.6085947     -7.5698968     -6.6570177      5.6042546      50218.233      36.893836      36.893836      36.893836    
    897000   0.61191597    -7.5687028     -6.6508419      5.6283578      50218.233      36.893836      36.893836      36.893836    
    898000   0.6106027     -7.5702767     -6.6543857      5.6132267      50218.233      36.893836      36.893836      36.893836    
    899000   0.61082341    -7.5705779     -6.6543559      5.6077213      50218.233      36.893836      36.893836      36.893836    
    900000   0.6095421     -7.5726263     -6.6583262      5.5908533      50218.233      36.893836      36.893836      36.893836    
    901000   0.61307028    -7.5742355     -6.6546432      5.583881       50218.233      36.893836      36.893836      36.893836    
    902000   0.608277      -7.5759871     -6.6635846      5.5573566      50218.233      36.893836      36.893836      36.893836    
    903000   0.60981861    -7.5753689     -6.660654       5.5842548      50218.233      36.893836      36.893836      36.893836    
    904000   0.61025559    -7.5782982     -6.6629278      5.556848       50218.233      36.893836      36.893836      36.893836    
    905000   0.6088612     -7.5670368     -6.653758       5.631781       50218.233      36.893836      36.893836      36.893836    
    906000   0.60930864    -7.5752403     -6.6612903      5.5803852      50218.233      36.893836      36.893836      36.893836    
    907000   0.61156618    -7.5665766     -6.6492404      5.6374601      50218.233      36.893836      36.893836      36.893836    
    908000   0.61044671    -7.5763538     -6.6606967      5.5605056      50218.233      36.893836      36.893836      36.893836    
    909000   0.60946793    -7.5741432     -6.6599543      5.592204       50218.233      36.893836      36.893836      36.893836    
    910000   0.61034053    -7.5710925     -6.6555948      5.6095662      50218.233      36.893836      36.893836      36.893836    
    911000   0.61014384    -7.5747022     -6.6594994      5.5765714      50218.233      36.893836      36.893836      36.893836    
    912000   0.61169662    -7.5768137     -6.6592818      5.5630984      50218.233      36.893836      36.893836      36.893836    
    913000   0.61373821    -7.5781758     -6.6575815      5.5514488      50218.233      36.893836      36.893836      36.893836    
    914000   0.61205845    -7.5752245     -6.6571498      5.5606225      50218.233      36.893836      36.893836      36.893836    
    915000   0.61015828    -7.5704342     -6.6552098      5.6116468      50218.233      36.893836      36.893836      36.893836    
    916000   0.6100977     -7.5743639     -6.6592303      5.5830202      50218.233      36.893836      36.893836      36.893836    
    917000   0.60787875    -7.5740454     -6.6622402      5.5715224      50218.233      36.893836      36.893836      36.893836    
    918000   0.60734526    -7.5707978     -6.6597928      5.6012496      50218.233      36.893836      36.893836      36.893836    
    919000   0.61205592    -7.5717266     -6.6536557      5.6143224      50218.233      36.893836      36.893836      36.893836    
    920000   0.6108158     -7.5733419     -6.6571313      5.5879205      50218.233      36.893836      36.893836      36.893836    
    921000   0.61409302    -7.5727919     -6.6516655      5.5940694      50218.233      36.893836      36.893836      36.893836    
    922000   0.60819489    -7.5726268     -6.6603475      5.6011087      50218.233      36.893836      36.893836      36.893836    
    923000   0.61209834    -7.5739759     -6.6558415      5.5914801      50218.233      36.893836      36.893836      36.893836    
    924000   0.60875754    -7.5722177     -6.6590944      5.5879145      50218.233      36.893836      36.893836      36.893836    
    925000   0.6088437     -7.5740899     -6.6608373      5.5904402      50218.233      36.893836      36.893836      36.893836    
    926000   0.61166089    -7.5688329     -6.6513546      5.6200374      50218.233      36.893836      36.893836      36.893836    
    927000   0.61033074    -7.5696927     -6.6542096      5.6126636      50218.233      36.893836      36.893836      36.893836    
    928000   0.61262372    -7.5710275     -6.652105       5.6028755      50218.233      36.893836      36.893836      36.893836    
    929000   0.60745593    -7.5680865     -6.6569156      5.6297324      50218.233      36.893836      36.893836      36.893836    
    930000   0.61114757    -7.5683123     -6.651604       5.6282629      50218.233      36.893836      36.893836      36.893836    
    931000   0.6118402     -7.574911      -6.6571638      5.5690941      50218.233      36.893836      36.893836      36.893836    
    932000   0.61016606    -7.5711679     -6.6559318      5.6059756      50218.233      36.893836      36.893836      36.893836    
    933000   0.61129155    -7.5676363     -6.650712       5.6271413      50218.233      36.893836      36.893836      36.893836    
    934000   0.61185839    -7.5680894     -6.6503149      5.6339815      50218.233      36.893836      36.893836      36.893836    
    935000   0.60932393    -7.5715021     -6.6575292      5.5995545      50218.233      36.893836      36.893836      36.893836    
    936000   0.60906746    -7.5732857     -6.6596976      5.590255       50218.233      36.893836      36.893836      36.893836    
    937000   0.60865224    -7.5711363     -6.6581709      5.6168509      50218.233      36.893836      36.893836      36.893836    
    938000   0.60776431    -7.5713484     -6.6597149      5.601966       50218.233      36.893836      36.893836      36.893836    
    939000   0.61166564    -7.5692917     -6.6518063      5.6200645      50218.233      36.893836      36.893836      36.893836    
    940000   0.60987549    -7.5711337     -6.6563334      5.5973299      50218.233      36.893836      36.893836      36.893836    
    941000   0.60921429    -7.5700353     -6.6562269      5.6199365      50218.233      36.893836      36.893836      36.893836    
    942000   0.60837066    -7.5735287     -6.6609857      5.5886641      50218.233      36.893836      36.893836      36.893836    
    943000   0.60806742    -7.5776506     -6.6655625      5.5582598      50218.233      36.893836      36.893836      36.893836    
    944000   0.61110716    -7.5718316     -6.6551839      5.5959164      50218.233      36.893836      36.893836      36.893836    
    945000   0.6114633     -7.5720901     -6.6549082      5.6048889      50218.233      36.893836      36.893836      36.893836    
    946000   0.61009794    -7.5732711     -6.6581372      5.5858456      50218.233      36.893836      36.893836      36.893836    
    947000   0.61211546    -7.5726091     -6.6544489      5.5904712      50218.233      36.893836      36.893836      36.893836    
    948000   0.61095836    -7.5713837     -6.6549592      5.598838       50218.233      36.893836      36.893836      36.893836    
    949000   0.61184688    -7.5689045     -6.6511472      5.6255462      50218.233      36.893836      36.893836      36.893836    
    950000   0.61045035    -7.5681837     -6.6525212      5.6152249      50218.233      36.893836      36.893836      36.893836    
    951000   0.60621369    -7.5700281     -6.6607205      5.5968512      50218.233      36.893836      36.893836      36.893836    
    952000   0.61253792    -7.575711      -6.6569172      5.558474       50218.233      36.893836      36.893836      36.893836    
    953000   0.60571557    -7.5678379     -6.6592775      5.6087064      50218.233      36.893836      36.893836      36.893836    
    954000   0.6115795     -7.5739384     -6.6565822      5.592088       50218.233      36.893836      36.893836      36.893836    
    955000   0.61264941    -7.5728778     -6.6539168      5.5892303      50218.233      36.893836      36.893836      36.893836    
    956000   0.61012866    -7.5690949     -6.6539149      5.6100091      50218.233      36.893836      36.893836      36.893836    
    957000   0.6073846     -7.5722194     -6.6611555      5.5851324      50218.233      36.893836      36.893836      36.893836    
    958000   0.61079866    -7.576491      -6.660306       5.5649256      50218.233      36.893836      36.893836      36.893836    
    959000   0.61077304    -7.5682207     -6.6520742      5.6272521      50218.233      36.893836      36.893836      36.893836    
    960000   0.60553189    -7.5699218     -6.6616369      5.6070941      50218.233      36.893836      36.893836      36.893836    
    961000   0.60881808    -7.5751357     -6.6619216      5.5819975      50218.233      36.893836      36.893836      36.893836    
    962000   0.61127515    -7.5727982     -6.6558985      5.6019077      50218.233      36.893836      36.893836      36.893836    
    963000   0.60930115    -7.5730334     -6.6590947      5.5909773      50218.233      36.893836      36.893836      36.893836    
    964000   0.61089595    -7.5726824     -6.6563515      5.5960433      50218.233      36.893836      36.893836      36.893836    
    965000   0.60921654    -7.5763193     -6.6625075      5.5616685      50218.233      36.893836      36.893836      36.893836    
    966000   0.61243168    -7.5718412     -6.6532067      5.5962269      50218.233      36.893836      36.893836      36.893836    
    967000   0.61337753    -7.5716713     -6.6516181      5.6071228      50218.233      36.893836      36.893836      36.893836    
    968000   0.61216532    -7.5761237     -6.6578888      5.5700462      50218.233      36.893836      36.893836      36.893836    
    969000   0.61119906    -7.5731607     -6.6563752      5.5852056      50218.233      36.893836      36.893836      36.893836    
    970000   0.60925963    -7.5684233     -6.6545469      5.6125336      50218.233      36.893836      36.893836      36.893836    
    971000   0.60764889    -7.5717845     -6.6603241      5.6104389      50218.233      36.893836      36.893836      36.893836    
    972000   0.60915468    -7.5775213     -6.6638023      5.5593215      50218.233      36.893836      36.893836      36.893836    
    973000   0.60812254    -7.5766766     -6.6645057      5.564655       50218.233      36.893836      36.893836      36.893836    
    974000   0.60980665    -7.5719843     -6.6572874      5.608969       50218.233      36.893836      36.893836      36.893836    
    975000   0.61057859    -7.5670833     -6.6512285      5.6345438      50218.233      36.893836      36.893836      36.893836    
    976000   0.61054813    -7.5726919     -6.6568827      5.5937285      50218.233      36.893836      36.893836      36.893836    
    977000   0.60988371    -7.5642727     -6.6494602      5.6541125      50218.233      36.893836      36.893836      36.893836    
    978000   0.61088647    -7.5725546     -6.656238       5.5926426      50218.233      36.893836      36.893836      36.893836    
    979000   0.60931615    -7.5729679     -6.6590067      5.5982293      50218.233      36.893836      36.893836      36.893836    
    980000   0.61208472    -7.5773778     -6.6592638      5.5566465      50218.233      36.893836      36.893836      36.893836    
    981000   0.60847386    -7.5708996     -6.6582018      5.6111032      50218.233      36.893836      36.893836      36.893836    
    982000   0.60993085    -7.5709781     -6.6560948      5.6161467      50218.233      36.893836      36.893836      36.893836    
    983000   0.61518306    -7.5742447     -6.6514832      5.5931         50218.233      36.893836      36.893836      36.893836    
    984000   0.60807287    -7.5753766     -6.6632803      5.5721123      50218.233      36.893836      36.893836      36.893836    
    985000   0.6058476     -7.5703263     -6.6615679      5.6055957      50218.233      36.893836      36.893836      36.893836    
    986000   0.61058039    -7.5687661     -6.6529085      5.6131712      50218.233      36.893836      36.893836      36.893836    
    987000   0.6088599     -7.5703054     -6.6570286      5.6018592      50218.233      36.893836      36.893836      36.893836    
    988000   0.60788923    -7.5686233     -6.6568024      5.6053541      50218.233      36.893836      36.893836      36.893836    
    989000   0.60977164    -7.5703268     -6.6556823      5.6067643      50218.233      36.893836      36.893836      36.893836    
    990000   0.61027087    -7.5767844     -6.6613911      5.558471       50218.233      36.893836      36.893836      36.893836    
    991000   0.61245128    -7.5658524     -6.6471886      5.6367503      50218.233      36.893836      36.893836      36.893836    
    992000   0.61169986    -7.5730022     -6.6554655      5.5982538      50218.233      36.893836      36.893836      36.893836    
    993000   0.61165047    -7.5693526     -6.65189        5.613708       50218.233      36.893836      36.893836      36.893836    
    994000   0.61074374    -7.5785127     -6.6624102      5.5401128      50218.233      36.893836      36.893836      36.893836    
    995000   0.61053133    -7.5696213     -6.6538374      5.6135537      50218.233      36.893836      36.893836      36.893836    
    996000   0.60904144    -7.5691168     -6.6555677      5.61299        50218.233      36.893836      36.893836      36.893836    
    997000   0.61290817    -7.5741148     -6.6547656      5.5864511      50218.233      36.893836      36.893836      36.893836    
    998000   0.60987083    -7.5708434     -6.6560502      5.5931618      50218.233      36.893836      36.893836      36.893836    
    999000   0.60971492    -7.5735864     -6.6590271      5.5803474      50218.233      36.893836      36.893836      36.893836    
   1000000   0.60998406    -7.5754798     -6.6605168      5.5674398      50218.233      36.893836      36.893836      36.893836    
Loop time of 4362.65 on 1 procs for 1000000 steps with 70304 atoms

Performance: 198044.656 tau/day, 229.218 timesteps/s, 16.115 Matom-step/s
100.0% CPU use with 1 MPI tasks x 1 OpenMP threads

MPI task timing breakdown:
Section |  min time  |  avg time  |  max time  |%varavg| %total
---------------------------------------------------------------
Pair    | 1069.3     | 1069.3     | 1069.3     |   0.0 | 24.51
Neigh   | 43.827     | 43.827     | 43.827     |   0.0 |  1.00
Comm    | 536.84     | 536.84     | 536.84     |   0.0 | 12.31
Output  | 0.74844    | 0.74844    | 0.74844    |   0.0 |  0.02
Modify  | 2266.4     | 2266.4     | 2266.4     |   0.0 | 51.95
Other   |            | 445.6      |            |       | 10.21

Nlocal:          70304 ave       70304 max       70304 min
Histogram: 1 0 0 0 0 0 0 0 0 0
Nghost:          37077 ave       37077 max       37077 min
Histogram: 1 0 0 0 0 0 0 0 0 0
Neighs:              0 ave           0 max           0 min
Histogram: 1 0 0 0 0 0 0 0 0 0

Total # of neighbors = 0
Ave neighs/atom = 0
Neighbor list builds = 236875
Dangerous builds = 0
clear
OMP_NUM_THREADS environment is not set. Defaulting to 1 thread. (src/comm.cpp:98)
  using 1 OpenMP thread(s) per MPI task
package gpu 0
jump dms605.lmp

variable T equal 605
# T = 1000* (temp in LJ unit)
variable f equal 1000
log log.${T}
log log.605
