variable TLJ equal (${T}/1000)
variable TLJ equal (240/1000)
variable NCyle equal 10
variable iStep equal (${f})
variable iStep equal (1000)
variable dumpStep equal (${f}*100)
variable dumpStep equal (1000*100)
variable runStep equal (${f}*100*${NCyle})
variable runStep equal (1000*100*${NCyle})
variable runStep equal (1000*100*10)

units       lj
atom_style  atomic
dimension 3
boundary     p p p
pair_style  lj/cut 2.5
read_data  ../data/T${T}.dat
read_data  ../data/T240.dat
Reading data file ...
  orthogonal box = (0.97250269 0.97250269 0.97250269) to (37.866338 37.866338 37.866338)
  1 by 2 by 2 MPI processor grid
  reading atoms ...
  70304 atoms
  reading velocities ...
  70304 velocities
  read_data CPU = 0.189 seconds
change_box all triclinic
Changing box ...
  triclinic box = (0.97250269 0.97250269 0.97250269) to (37.866338 37.866338 37.866338) with tilt (0 0 0)
mass 1 1
mass 2 1
pair_modify shift yes
pair_coeff  1 1 1 1
pair_coeff  1 2 1.5 0.8
pair_coeff  2 2 0.5 0.88


timestep 0.01
thermo ${iStep}
thermo 1000
reset_timestep 0
thermo_style custom step temp pe etotal press vol lx ly lz
fix             1 all nvt temp ${TLJ}  ${TLJ}  0.1
fix             1 all nvt temp 0.24  ${TLJ}  0.1
fix             1 all nvt temp 0.24  0.24  0.1
thermo_modify flush yes

fix dsf all deform 1 xy  wiggle 0.5  ${f}   units box
fix dsf all deform 1 xy  wiggle 0.5  1000   units box
fix ps1 all ave/time 1 1 ${iStep} c_thermo_press[1] c_thermo_press[2]  c_thermo_press[3] c_thermo_press[4]  c_thermo_press[5] c_thermo_press[6]  file  stress.${T}
fix ps1 all ave/time 1 1 1000 c_thermo_press[1] c_thermo_press[2]  c_thermo_press[3] c_thermo_press[4]  c_thermo_press[5] c_thermo_press[6]  file  stress.${T}
fix ps1 all ave/time 1 1 1000 c_thermo_press[1] c_thermo_press[2]  c_thermo_press[3] c_thermo_press[4]  c_thermo_press[5] c_thermo_press[6]  file  stress.240
dump            1 all custom ${dumpStep} dump.${T} id type x y z
dump            1 all custom 100000 dump.${T} id type x y z
dump            1 all custom 100000 dump.240 id type x y z
dump_modify 1 sort id
fix nodrift all momentum 1  linear 1 1 1
fix com_seed all recenter INIT INIT INIT shift all
run ${runStep}
run 1000000
Generated 0 of 1 mixed pair_coeff terms from geometric mixing rule
Per MPI rank memory allocation (min/avg/max) = 8.61 | 8.614 | 8.617 Mbytes
   Step          Temp          PotEng         TotEng         Press          Volume           Lx             Ly             Lz      
         0   0.24086365    -8.2266845     -7.8653942      0.23843613     50218.233      36.893836      36.893836      36.893836    
      1000   0.24116131    -8.2235091     -7.8617722      0.27061676     50218.233      36.893836      36.893836      36.893836    
      2000   0.23863205    -8.2250169     -7.8670739      0.25527238     50218.233      36.893836      36.893836      36.893836    
      3000   0.24072917    -8.2240753     -7.8629867      0.27514434     50218.233      36.893836      36.893836      36.893836    
      4000   0.24033853    -8.2241837     -7.863681       0.26928383     50218.233      36.893836      36.893836      36.893836    
      5000   0.23894874    -8.2241481     -7.8657301      0.25759046     50218.233      36.893836      36.893836      36.893836    
      6000   0.24060694    -8.2234219     -7.8625166      0.26603865     50218.233      36.893836      36.893836      36.893836    
      7000   0.24064528    -8.2238842     -7.8629214      0.26593824     50218.233      36.893836      36.893836      36.893836    
      8000   0.23989645    -8.2245821     -7.8647425      0.25590524     50218.233      36.893836      36.893836      36.893836    
      9000   0.24045967    -8.2236705     -7.8629861      0.26638254     50218.233      36.893836      36.893836      36.893836    
     10000   0.2410646     -8.2241519     -7.8625601      0.27487645     50218.233      36.893836      36.893836      36.893836    
     11000   0.23908339    -8.2223244     -7.8637044      0.28110058     50218.233      36.893836      36.893836      36.893836    
     12000   0.24078505    -8.2224793     -7.8613068      0.28486468     50218.233      36.893836      36.893836      36.893836    
     13000   0.23973622    -8.2253268     -7.8657276      0.25077237     50218.233      36.893836      36.893836      36.893836    
     14000   0.24022569    -8.2226895     -7.8623561      0.27390944     50218.233      36.893836      36.893836      36.893836    
     15000   0.24002191    -8.224488      -7.8644603      0.26164822     50218.233      36.893836      36.893836      36.893836    
     16000   0.23859373    -8.2226988     -7.8648133      0.26716692     50218.233      36.893836      36.893836      36.893836    
     17000   0.23907964    -8.2227146     -7.8641002      0.27458577     50218.233      36.893836      36.893836      36.893836    
     18000   0.24160135    -8.2237256     -7.8613287      0.25684281     50218.233      36.893836      36.893836      36.893836    
     19000   0.23914692    -8.221168      -7.8624527      0.28415957     50218.233      36.893836      36.893836      36.893836    
     20000   0.24048909    -8.2219591     -7.8612306      0.27996208     50218.233      36.893836      36.893836      36.893836    
     21000   0.24096125    -8.2217137     -7.8602769      0.28045308     50218.233      36.893836      36.893836      36.893836    
     22000   0.23925216    -8.223057      -7.8641838      0.27134128     50218.233      36.893836      36.893836      36.893836    
     23000   0.23947209    -8.2219537     -7.8627507      0.27436547     50218.233      36.893836      36.893836      36.893836    
     24000   0.23956476    -8.2221195     -7.8627775      0.27796634     50218.233      36.893836      36.893836      36.893836    
     25000   0.23959184    -8.2223194     -7.8629368      0.27961313     50218.233      36.893836      36.893836      36.893836    
     26000   0.2405664     -8.2205967     -7.8597522      0.28647239     50218.233      36.893836      36.893836      36.893836    
     27000   0.24121499    -8.2233781     -7.8615608      0.27837476     50218.233      36.893836      36.893836      36.893836    
     28000   0.24031694    -8.2215862     -7.8611159      0.28450692     50218.233      36.893836      36.893836      36.893836    
     29000   0.23967999    -8.2219781     -7.8624632      0.28054832     50218.233      36.893836      36.893836      36.893836    
     30000   0.23967411    -8.2256458     -7.8661398      0.24977527     50218.233      36.893836      36.893836      36.893836    
     31000   0.23978958    -8.2219336     -7.8622544      0.28314191     50218.233      36.893836      36.893836      36.893836    
     32000   0.23949799    -8.2220135     -7.8627717      0.27129778     50218.233      36.893836      36.893836      36.893836    
     33000   0.23960798    -8.2231795     -7.8637726      0.27306795     50218.233      36.893836      36.893836      36.893836    
     34000   0.23995724    -8.223467      -7.8635363      0.27102064     50218.233      36.893836      36.893836      36.893836    
     35000   0.23966184    -8.2236888     -7.8642012      0.2665196      50218.233      36.893836      36.893836      36.893836    
     36000   0.23907766    -8.2218671     -7.8632557      0.27427177     50218.233      36.893836      36.893836      36.893836    
     37000   0.24123797    -8.2221326     -7.8602808      0.27986687     50218.233      36.893836      36.893836      36.893836    
     38000   0.24011504    -8.2240512     -7.8638837      0.26592096     50218.233      36.893836      36.893836      36.893836    
     39000   0.23883256    -8.2237171     -7.8654733      0.25219212     50218.233      36.893836      36.893836      36.893836    
     40000   0.2399651     -8.2224426     -7.8625001      0.27468854     50218.233      36.893836      36.893836      36.893836    
     41000   0.23994605    -8.2225153     -7.8626014      0.2772064      50218.233      36.893836      36.893836      36.893836    
     42000   0.23934927    -8.2223109     -7.8632921      0.27020546     50218.233      36.893836      36.893836      36.893836    
     43000   0.23987737    -8.2238409     -7.8640299      0.26481263     50218.233      36.893836      36.893836      36.893836    
     44000   0.23914638    -8.2236992     -7.8649847      0.26238446     50218.233      36.893836      36.893836      36.893836    
     45000   0.24006049    -8.223871      -7.8637853      0.26691469     50218.233      36.893836      36.893836      36.893836    
     46000   0.23933543    -8.2248836     -7.8658856      0.26091637     50218.233      36.893836      36.893836      36.893836    
     47000   0.23928543    -8.2259866     -7.8670635      0.24832885     50218.233      36.893836      36.893836      36.893836    
     48000   0.24117682    -8.2219528     -7.8601928      0.28106952     50218.233      36.893836      36.893836      36.893836    
     49000   0.23950189    -8.2263599     -7.8671121      0.2472752      50218.233      36.893836      36.893836      36.893836    
     50000   0.24191987    -8.2229287     -7.8600541      0.27461498     50218.233      36.893836      36.893836      36.893836    
     51000   0.24020828    -8.2241073     -7.8638         0.26067642     50218.233      36.893836      36.893836      36.893836    
     52000   0.23973871    -8.2235095     -7.8639066      0.2644192      50218.233      36.893836      36.893836      36.893836    
     53000   0.23987841    -8.2249248     -7.8651123      0.25225495     50218.233      36.893836      36.893836      36.893836    
     54000   0.24003299    -8.224014      -7.8639696      0.26057294     50218.233      36.893836      36.893836      36.893836    
     55000   0.23982835    -8.2226995     -7.8629621      0.26911601     50218.233      36.893836      36.893836      36.893836    
     56000   0.24003891    -8.2234737     -7.8634205      0.26977405     50218.233      36.893836      36.893836      36.893836    
     57000   0.23983914    -8.2244611     -7.8647075      0.25914282     50218.233      36.893836      36.893836      36.893836    
     58000   0.24102575    -8.2237938     -7.8622604      0.26611393     50218.233      36.893836      36.893836      36.893836    
     59000   0.24178667    -8.2232391     -7.8605642      0.26848896     50218.233      36.893836      36.893836      36.893836    
     60000   0.24073205    -8.2242145     -7.8631216      0.26857879     50218.233      36.893836      36.893836      36.893836    
     61000   0.24018748    -8.2229663     -7.8626902      0.27024903     50218.233      36.893836      36.893836      36.893836    
     62000   0.24078516    -8.2221258     -7.8609532      0.28144199     50218.233      36.893836      36.893836      36.893836    
     63000   0.23868764    -8.2231864     -7.8651601      0.26173999     50218.233      36.893836      36.893836      36.893836    
     64000   0.23973073    -8.2230035     -7.8634125      0.26213884     50218.233      36.893836      36.893836      36.893836    
     65000   0.23992572    -8.2217424     -7.8618589      0.27345217     50218.233      36.893836      36.893836      36.893836    
     66000   0.23914951    -8.2226885     -7.8639693      0.27021324     50218.233      36.893836      36.893836      36.893836    
     67000   0.24029613    -8.2214969     -7.8610578      0.28308812     50218.233      36.893836      36.893836      36.893836    
     68000   0.24026901    -8.2241173     -7.8637189      0.26766918     50218.233      36.893836      36.893836      36.893836    
     69000   0.23954645    -8.2229232     -7.8636086      0.27485148     50218.233      36.893836      36.893836      36.893836    
     70000   0.24141596    -8.2236824     -7.8615636      0.26080915     50218.233      36.893836      36.893836      36.893836    
     71000   0.24085858    -8.2231307     -7.861848       0.27063305     50218.233      36.893836      36.893836      36.893836    
     72000   0.23932009    -8.2201567     -7.8611816      0.28971839     50218.233      36.893836      36.893836      36.893836    
     73000   0.23993249    -8.2221685     -7.8622749      0.28000305     50218.233      36.893836      36.893836      36.893836    
     74000   0.23970895    -8.2220153     -7.862457       0.28421346     50218.233      36.893836      36.893836      36.893836    
     75000   0.24047237    -8.2234987     -7.8627952      0.26684662     50218.233      36.893836      36.893836      36.893836    
     76000   0.24129263    -8.2230984     -7.8611646      0.2719545      50218.233      36.893836      36.893836      36.893836    
     77000   0.24168427    -8.2229856     -7.8604644      0.26889786     50218.233      36.893836      36.893836      36.893836    
     78000   0.23957882    -8.2225597     -7.8631966      0.27523816     50218.233      36.893836      36.893836      36.893836    
     79000   0.2395293     -8.222419      -7.8631302      0.27491684     50218.233      36.893836      36.893836      36.893836    
     80000   0.24057823    -8.2218071     -7.8609449      0.27983375     50218.233      36.893836      36.893836      36.893836    
     81000   0.24115663    -8.2244302     -7.8627004      0.26645782     50218.233      36.893836      36.893836      36.893836    
     82000   0.24088691    -8.2228648     -7.8615396      0.27263239     50218.233      36.893836      36.893836      36.893836    
     83000   0.23975245    -8.2228398     -7.8632162      0.27544747     50218.233      36.893836      36.893836      36.893836    
     84000   0.24002209    -8.2223158     -7.8622878      0.27366019     50218.233      36.893836      36.893836      36.893836    
     85000   0.23944851    -8.225419      -7.8662513      0.25340888     50218.233      36.893836      36.893836      36.893836    
     86000   0.23941094    -8.2237632     -7.8646519      0.26932575     50218.233      36.893836      36.893836      36.893836    
     87000   0.23909127    -8.2212052     -7.8625734      0.28157337     50218.233      36.893836      36.893836      36.893836    
     88000   0.24053249    -8.2231356     -7.862342       0.27319481     50218.233      36.893836      36.893836      36.893836    
     89000   0.24072883    -8.2218945     -7.8608064      0.28028523     50218.233      36.893836      36.893836      36.893836    
     90000   0.2400198     -8.2247862     -7.8647616      0.25712507     50218.233      36.893836      36.893836      36.893836    
     91000   0.24072215    -8.2239035     -7.8628254      0.25948108     50218.233      36.893836      36.893836      36.893836    
     92000   0.23953698    -8.2232444     -7.8639441      0.26447039     50218.233      36.893836      36.893836      36.893836    
     93000   0.24114462    -8.2227165     -7.8610047      0.27089291     50218.233      36.893836      36.893836      36.893836    
     94000   0.24021457    -8.2242756     -7.8639589      0.25980596     50218.233      36.893836      36.893836      36.893836    
     95000   0.240267      -8.2240308     -7.8636354      0.26677042     50218.233      36.893836      36.893836      36.893836    
     96000   0.24034781    -8.2247859     -7.8642693      0.24928968     50218.233      36.893836      36.893836      36.893836    
     97000   0.23994972    -8.2252836     -7.8653641      0.2533586      50218.233      36.893836      36.893836      36.893836    
     98000   0.23945608    -8.2252041     -7.8660251      0.25262345     50218.233      36.893836      36.893836      36.893836    
     99000   0.23967296    -8.2253843     -7.8658799      0.24728895     50218.233      36.893836      36.893836      36.893836    
    100000   0.23960548    -8.223803      -7.8643999      0.26255379     50218.233      36.893836      36.893836      36.893836    
    101000   0.23990217    -8.2220891     -7.8622409      0.28044081     50218.233      36.893836      36.893836      36.893836    
    102000   0.24137007    -8.2239125     -7.8618626      0.26676098     50218.233      36.893836      36.893836      36.893836    
    103000   0.23910748    -8.2251375     -7.8664814      0.25293452     50218.233      36.893836      36.893836      36.893836    
    104000   0.2401671     -8.2222878     -7.8620422      0.272396       50218.233      36.893836      36.893836      36.893836    
    105000   0.23874411    -8.2236389     -7.8655278      0.26162066     50218.233      36.893836      36.893836      36.893836    
    106000   0.24112162    -8.2223764     -7.8606991      0.27588778     50218.233      36.893836      36.893836      36.893836    
    107000   0.23908912    -8.2213046     -7.862676       0.27585505     50218.233      36.893836      36.893836      36.893836    
    108000   0.2385668     -8.2227339     -7.8648888      0.26866989     50218.233      36.893836      36.893836      36.893836    
    109000   0.23979343    -8.2260298     -7.8663448      0.25375175     50218.233      36.893836      36.893836      36.893836    
    110000   0.23992743    -8.2251382     -7.8652522      0.25183427     50218.233      36.893836      36.893836      36.893836    
    111000   0.23936994    -8.2216268     -7.862577       0.28457141     50218.233      36.893836      36.893836      36.893836    
    112000   0.23963272    -8.222524      -7.86308        0.27021965     50218.233      36.893836      36.893836      36.893836    
    113000   0.23923773    -8.2215455     -7.862694       0.28255853     50218.233      36.893836      36.893836      36.893836    
    114000   0.24015508    -8.22414       -7.8639126      0.25638667     50218.233      36.893836      36.893836      36.893836    
    115000   0.23966181    -8.2239632     -7.8644756      0.26149589     50218.233      36.893836      36.893836      36.893836    
    116000   0.24096257    -8.2229239     -7.8614852      0.27742619     50218.233      36.893836      36.893836      36.893836    
    117000   0.24027565    -8.2222577     -7.8618494      0.2755388      50218.233      36.893836      36.893836      36.893836    
    118000   0.23964291    -8.2221865     -7.8627272      0.27549329     50218.233      36.893836      36.893836      36.893836    
    119000   0.2397299     -8.2223533     -7.8627636      0.27273498     50218.233      36.893836      36.893836      36.893836    
    120000   0.23978659    -8.2225339     -7.8628591      0.27543296     50218.233      36.893836      36.893836      36.893836    
    121000   0.23866358    -8.2215359     -7.8635456      0.27834033     50218.233      36.893836      36.893836      36.893836    
    122000   0.2395178     -8.2229956     -7.863724       0.27261512     50218.233      36.893836      36.893836      36.893836    
    123000   0.24027909    -8.2228386     -7.8624251      0.27727413     50218.233      36.893836      36.893836      36.893836    
    124000   0.23976312    -8.2232264     -7.8635868      0.26886809     50218.233      36.893836      36.893836      36.893836    
    125000   0.24089583    -8.222539      -7.8612004      0.2772401      50218.233      36.893836      36.893836      36.893836    
    126000   0.23955416    -8.2225874     -7.8632613      0.26772234     50218.233      36.893836      36.893836      36.893836    
    127000   0.24009316    -8.2218021     -7.8616675      0.27776876     50218.233      36.893836      36.893836      36.893836    
    128000   0.2393901     -8.2243048     -7.8652247      0.26745975     50218.233      36.893836      36.893836      36.893836    
    129000   0.24030689    -8.2223251     -7.8618699      0.27107736     50218.233      36.893836      36.893836      36.893836    
    130000   0.24117974    -8.2220744     -7.86031        0.27662078     50218.233      36.893836      36.893836      36.893836    
    131000   0.23897343    -8.2221061     -7.863651       0.2739838      50218.233      36.893836      36.893836      36.893836    
    132000   0.23863792    -8.221834      -7.8638822      0.27142223     50218.233      36.893836      36.893836      36.893836    
    133000   0.23998786    -8.2237646     -7.8637879      0.26599471     50218.233      36.893836      36.893836      36.893836    
    134000   0.2391239     -8.2210115     -7.8623307      0.27342958     50218.233      36.893836      36.893836      36.893836    
    135000   0.24034408    -8.2212359     -7.8607249      0.28147233     50218.233      36.893836      36.893836      36.893836    
    136000   0.24035169    -8.2227207     -7.8621983      0.27163051     50218.233      36.893836      36.893836      36.893836    
    137000   0.24149559    -8.2215723     -7.8593341      0.27754792     50218.233      36.893836      36.893836      36.893836    
    138000   0.24062983    -8.2232776     -7.862338       0.26464033     50218.233      36.893836      36.893836      36.893836    
    139000   0.23950653    -8.2245224     -7.8652677      0.26005943     50218.233      36.893836      36.893836      36.893836    
    140000   0.23963795    -8.2226901     -7.8632383      0.26801065     50218.233      36.893836      36.893836      36.893836    
    141000   0.24066432    -8.2250076     -7.8640162      0.26415062     50218.233      36.893836      36.893836      36.893836    
    142000   0.24010209    -8.2228757     -7.8627277      0.27481381     50218.233      36.893836      36.893836      36.893836    
    143000   0.24001546    -8.2238247     -7.8638066      0.26100174     50218.233      36.893836      36.893836      36.893836    
    144000   0.23871777    -8.223299      -7.8652274      0.26548772     50218.233      36.893836      36.893836      36.893836    
    145000   0.2402709     -8.2235712     -7.86317        0.2698422      50218.233      36.893836      36.893836      36.893836    
    146000   0.2398228     -8.2254128     -7.8656837      0.26144745     50218.233      36.893836      36.893836      36.893836    
    147000   0.24090841    -8.2235216     -7.8621641      0.25416969     50218.233      36.893836      36.893836      36.893836    
    148000   0.24091914    -8.2244093     -7.8630357      0.26814635     50218.233      36.893836      36.893836      36.893836    
    149000   0.24021615    -8.2244761     -7.864157       0.25756874     50218.233      36.893836      36.893836      36.893836    
    150000   0.24123047    -8.2221735     -7.8603329      0.27470811     50218.233      36.893836      36.893836      36.893836    
    151000   0.23954186    -8.2236278     -7.8643201      0.26577291     50218.233      36.893836      36.893836      36.893836    
    152000   0.23983288    -8.2244433     -7.8646991      0.25569429     50218.233      36.893836      36.893836      36.893836    
    153000   0.24065177    -8.2235999     -7.8626274      0.2639812      50218.233      36.893836      36.893836      36.893836    
    154000   0.23973699    -8.222209      -7.8626087      0.27643592     50218.233      36.893836      36.893836      36.893836    
    155000   0.23970767    -8.2236343     -7.8640779      0.26871065     50218.233      36.893836      36.893836      36.893836    
    156000   0.239643      -8.2226032     -7.8631438      0.27369907     50218.233      36.893836      36.893836      36.893836    
    157000   0.23934654    -8.2227691     -7.8637544      0.26931036     50218.233      36.893836      36.893836      36.893836    
    158000   0.2402268     -8.2206574     -7.8603223      0.29479673     50218.233      36.893836      36.893836      36.893836    
    159000   0.2409432     -8.2232866     -7.8618769      0.27008934     50218.233      36.893836      36.893836      36.893836    
    160000   0.23896936    -8.2243586     -7.8659097      0.25504271     50218.233      36.893836      36.893836      36.893836    
    161000   0.23994563    -8.2257123     -7.865799       0.25067991     50218.233      36.893836      36.893836      36.893836    
    162000   0.23949508    -8.2230934     -7.8638559      0.27352774     50218.233      36.893836      36.893836      36.893836    
    163000   0.2409093     -8.223203      -7.8618442      0.26332899     50218.233      36.893836      36.893836      36.893836    
    164000   0.23888903    -8.2253969     -7.8670684      0.24990558     50218.233      36.893836      36.893836      36.893836    
    165000   0.24012038    -8.2240179     -7.8638424      0.26088808     50218.233      36.893836      36.893836      36.893836    
    166000   0.24166708    -8.2219955     -7.8595         0.27448223     50218.233      36.893836      36.893836      36.893836    
    167000   0.23925291    -8.2227711     -7.8638968      0.27146731     50218.233      36.893836      36.893836      36.893836    
    168000   0.23928614    -8.222782      -7.8638579      0.27104009     50218.233      36.893836      36.893836      36.893836    
    169000   0.23988182    -8.2216185     -7.8618008      0.28061137     50218.233      36.893836      36.893836      36.893836    
    170000   0.23969579    -8.2207961     -7.8612575      0.2849585      50218.233      36.893836      36.893836      36.893836    
    171000   0.24080652    -8.2217483     -7.8605437      0.28738806     50218.233      36.893836      36.893836      36.893836    
    172000   0.23940608    -8.2230507     -7.8639467      0.26470547     50218.233      36.893836      36.893836      36.893836    
    173000   0.2393973     -8.2236571     -7.8645663      0.25938246     50218.233      36.893836      36.893836      36.893836    
    174000   0.23950747    -8.2213626     -7.8621065      0.27870515     50218.233      36.893836      36.893836      36.893836    
    175000   0.24068572    -8.2233563     -7.8623329      0.26610579     50218.233      36.893836      36.893836      36.893836    
    176000   0.23849608    -8.2222789     -7.8645398      0.2752407      50218.233      36.893836      36.893836      36.893836    
    177000   0.23965883    -8.2220501     -7.862567       0.27793763     50218.233      36.893836      36.893836      36.893836    
    178000   0.24008608    -8.2221858     -7.8620618      0.28480161     50218.233      36.893836      36.893836      36.893836    
    179000   0.23903304    -8.2230273     -7.8644829      0.26842797     50218.233      36.893836      36.893836      36.893836    
    180000   0.24057511    -8.22371       -7.8628525      0.27628486     50218.233      36.893836      36.893836      36.893836    
    181000   0.23974183    -8.2234317     -7.863824       0.26586542     50218.233      36.893836      36.893836      36.893836    
    182000   0.2380561     -8.223454      -7.8663749      0.26277532     50218.233      36.893836      36.893836      36.893836    
    183000   0.24203925    -8.2223297     -7.859276       0.27310305     50218.233      36.893836      36.893836      36.893836    
    184000   0.23923678    -8.2229193     -7.8640692      0.27028102     50218.233      36.893836      36.893836      36.893836    
    185000   0.23970532    -8.2208131     -7.8612603      0.28214796     50218.233      36.893836      36.893836      36.893836    
    186000   0.24064205    -8.2249337     -7.8639757      0.26255151     50218.233      36.893836      36.893836      36.893836    
    187000   0.23925611    -8.2210597     -7.8621806      0.2881015      50218.233      36.893836      36.893836      36.893836    
    188000   0.23920872    -8.2234881     -7.8646801      0.26536229     50218.233      36.893836      36.893836      36.893836    
    189000   0.24012663    -8.2224768     -7.862292       0.27361895     50218.233      36.893836      36.893836      36.893836    
    190000   0.23978684    -8.2228962     -7.8632211      0.26739106     50218.233      36.893836      36.893836      36.893836    
    191000   0.24048667    -8.2229086     -7.8621837      0.26978692     50218.233      36.893836      36.893836      36.893836    
    192000   0.23998469    -8.2232145     -7.8632426      0.26560788     50218.233      36.893836      36.893836      36.893836    
    193000   0.23983187    -8.2253451     -7.8656025      0.25415799     50218.233      36.893836      36.893836      36.893836    
    194000   0.23975749    -8.2233741     -7.863743       0.26948451     50218.233      36.893836      36.893836      36.893836    
    195000   0.23948469    -8.2235293     -7.8643074      0.26468252     50218.233      36.893836      36.893836      36.893836    
    196000   0.24139814    -8.2259088     -7.8638167      0.25503755     50218.233      36.893836      36.893836      36.893836    
    197000   0.24080398    -8.2218754     -7.8606746      0.28050781     50218.233      36.893836      36.893836      36.893836    
    198000   0.24007031    -8.2239171     -7.8638167      0.26930667     50218.233      36.893836      36.893836      36.893836    
    199000   0.24034589    -8.2246256     -7.8641119      0.26386309     50218.233      36.893836      36.893836      36.893836    
    200000   0.24051745    -8.223781      -7.86301        0.26351989     50218.233      36.893836      36.893836      36.893836    
    201000   0.2404011     -8.2249433     -7.8643467      0.25920178     50218.233      36.893836      36.893836      36.893836    
    202000   0.24088493    -8.2233948     -7.8620725      0.27522924     50218.233      36.893836      36.893836      36.893836    
    203000   0.2406259     -8.2238959     -7.8629622      0.2655497      50218.233      36.893836      36.893836      36.893836    
    204000   0.23930478    -8.2234753     -7.8645232      0.25999388     50218.233      36.893836      36.893836      36.893836    
    205000   0.23982759    -8.2249786     -7.8652423      0.2576898      50218.233      36.893836      36.893836      36.893836    
    206000   0.24026889    -8.2254595     -7.8650613      0.2534879      50218.233      36.893836      36.893836      36.893836    
    207000   0.2387897     -8.2239373     -7.8657578      0.26197141     50218.233      36.893836      36.893836      36.893836    
    208000   0.2401342     -8.2206871     -7.8604909      0.29540484     50218.233      36.893836      36.893836      36.893836    
    209000   0.2389547     -8.2225178     -7.8640909      0.27883509     50218.233      36.893836      36.893836      36.893836    
    210000   0.24104916    -8.2240459     -7.8624774      0.26177876     50218.233      36.893836      36.893836      36.893836    
    211000   0.24067058    -8.2244491     -7.8634484      0.2614962      50218.233      36.893836      36.893836      36.893836    
    212000   0.24035754    -8.2227636     -7.8622325      0.27363281     50218.233      36.893836      36.893836      36.893836    
    213000   0.23967981    -8.2216445     -7.8621299      0.27584774     50218.233      36.893836      36.893836      36.893836    
    214000   0.24064502    -8.2245829     -7.8636205      0.26100356     50218.233      36.893836      36.893836      36.893836    
    215000   0.24064356    -8.2227626     -7.8618024      0.26882536     50218.233      36.893836      36.893836      36.893836    
    216000   0.23990897    -8.2236818     -7.8638234      0.25673428     50218.233      36.893836      36.893836      36.893836    
    217000   0.24014381    -8.223139      -7.8629284      0.27556744     50218.233      36.893836      36.893836      36.893836    
    218000   0.23999755    -8.2234495     -7.8634583      0.26897953     50218.233      36.893836      36.893836      36.893836    
    219000   0.2396912     -8.2231496     -7.8636179      0.26006968     50218.233      36.893836      36.893836      36.893836    
    220000   0.23969427    -8.2230888     -7.8635525      0.26979356     50218.233      36.893836      36.893836      36.893836    
    221000   0.24123601    -8.2202565     -7.8584076      0.29546754     50218.233      36.893836      36.893836      36.893836    
    222000   0.24003788    -8.2246149     -7.8645632      0.2606668      50218.233      36.893836      36.893836      36.893836    
    223000   0.24087957    -8.2219046     -7.8605904      0.2821594      50218.233      36.893836      36.893836      36.893836    
    224000   0.24043034    -8.2233414     -7.862701       0.27198688     50218.233      36.893836      36.893836      36.893836    
    225000   0.24079244    -8.224338      -7.8631545      0.26266519     50218.233      36.893836      36.893836      36.893836    
    226000   0.23945933    -8.2225438     -7.8633599      0.26866875     50218.233      36.893836      36.893836      36.893836    
    227000   0.24072779    -8.222529      -7.8614424      0.27599601     50218.233      36.893836      36.893836      36.893836    
    228000   0.2395475     -8.2239997     -7.8646836      0.27344653     50218.233      36.893836      36.893836      36.893836    
    229000   0.24100335    -8.2207572     -7.8592573      0.28974859     50218.233      36.893836      36.893836      36.893836    
    230000   0.239807      -8.2215214     -7.861816       0.28361596     50218.233      36.893836      36.893836      36.893836    
    231000   0.23879009    -8.2225829     -7.8644028      0.27496989     50218.233      36.893836      36.893836      36.893836    
    232000   0.24068459    -8.2209396     -7.8599178      0.2831081      50218.233      36.893836      36.893836      36.893836    
    233000   0.24144739    -8.2210626     -7.8588967      0.28845363     50218.233      36.893836      36.893836      36.893836    
    234000   0.23993174    -8.2228268     -7.8629343      0.26822067     50218.233      36.893836      36.893836      36.893836    
    235000   0.23934367    -8.2239081     -7.8648977      0.26667596     50218.233      36.893836      36.893836      36.893836    
    236000   0.23939081    -8.2245321     -7.8654509      0.25167381     50218.233      36.893836      36.893836      36.893836    
    237000   0.24167888    -8.2240865     -7.8615733      0.26470255     50218.233      36.893836      36.893836      36.893836    
    238000   0.24013343    -8.2221112     -7.8619162      0.28410991     50218.233      36.893836      36.893836      36.893836    
    239000   0.23921296    -8.2210537     -7.8622393      0.28288        50218.233      36.893836      36.893836      36.893836    
    240000   0.23992155    -8.2228647     -7.8629875      0.26253303     50218.233      36.893836      36.893836      36.893836    
    241000   0.24076708    -8.2233522     -7.8622067      0.26773294     50218.233      36.893836      36.893836      36.893836    
    242000   0.24000878    -8.2241129     -7.8641048      0.26046757     50218.233      36.893836      36.893836      36.893836    
    243000   0.24084856    -8.2230401     -7.8617724      0.27340264     50218.233      36.893836      36.893836      36.893836    
    244000   0.23987998    -8.2227639     -7.8629491      0.26461439     50218.233      36.893836      36.893836      36.893836    
    245000   0.2413201     -8.2227236     -7.8607486      0.27241802     50218.233      36.893836      36.893836      36.893836    
    246000   0.24032116    -8.2243596     -7.8638829      0.25497087     50218.233      36.893836      36.893836      36.893836    
    247000   0.24065782    -8.2232838     -7.8623022      0.26828565     50218.233      36.893836      36.893836      36.893836    
    248000   0.23972183    -8.2243818     -7.8648041      0.2539134      50218.233      36.893836      36.893836      36.893836    
    249000   0.23979458    -8.225534      -7.8658473      0.24968582     50218.233      36.893836      36.893836      36.893836    
    250000   0.23980496    -8.2258542     -7.8661518      0.24606898     50218.233      36.893836      36.893836      36.893836    
    251000   0.23873876    -8.2225234     -7.8644204      0.26794109     50218.233      36.893836      36.893836      36.893836    
    252000   0.23993688    -8.2235108     -7.8636106      0.26067886     50218.233      36.893836      36.893836      36.893836    
    253000   0.24021907    -8.2247986     -7.8644751      0.25144565     50218.233      36.893836      36.893836      36.893836    
    254000   0.23999499    -8.2248827     -7.8648953      0.25780226     50218.233      36.893836      36.893836      36.893836    
    255000   0.24046596    -8.2237272     -7.8630334      0.25909464     50218.233      36.893836      36.893836      36.893836    
    256000   0.23998165    -8.2241071     -7.8641397      0.26367666     50218.233      36.893836      36.893836      36.893836    
    257000   0.23981206    -8.2239415     -7.8642286      0.26659081     50218.233      36.893836      36.893836      36.893836    
    258000   0.23983174    -8.2248685     -7.865126       0.25033201     50218.233      36.893836      36.893836      36.893836    
    259000   0.23976251    -8.2244738     -7.8648351      0.2643232      50218.233      36.893836      36.893836      36.893836    
    260000   0.24073778    -8.2228352     -7.8617337      0.26968943     50218.233      36.893836      36.893836      36.893836    
    261000   0.24089799    -8.2234702     -7.8621284      0.26694016     50218.233      36.893836      36.893836      36.893836    
    262000   0.2392513     -8.2238166     -7.8649447      0.26454678     50218.233      36.893836      36.893836      36.893836    
    263000   0.23916554    -8.223396      -7.8646528      0.26842144     50218.233      36.893836      36.893836      36.893836    
    264000   0.23968568    -8.2234981     -7.8639747      0.2599577      50218.233      36.893836      36.893836      36.893836    
    265000   0.239682      -8.2224809     -7.862963       0.27223101     50218.233      36.893836      36.893836      36.893836    
    266000   0.23874686    -8.2238777     -7.8657625      0.26810364     50218.233      36.893836      36.893836      36.893836    
    267000   0.23928251    -8.223819      -7.8649004      0.26844417     50218.233      36.893836      36.893836      36.893836    
    268000   0.24037929    -8.2241339     -7.8635701      0.2686375      50218.233      36.893836      36.893836      36.893836    
    269000   0.23988912    -8.223794      -7.8639654      0.26437102     50218.233      36.893836      36.893836      36.893836    
    270000   0.23907008    -8.2241614     -7.8655614      0.25822203     50218.233      36.893836      36.893836      36.893836    
    271000   0.24084613    -8.2219801     -7.860716       0.27080194     50218.233      36.893836      36.893836      36.893836    
    272000   0.2399963     -8.2235534     -7.8635641      0.26472159     50218.233      36.893836      36.893836      36.893836    
    273000   0.24032773    -8.2219566     -7.8614701      0.28218424     50218.233      36.893836      36.893836      36.893836    
    274000   0.23886762    -8.2227698     -7.8644735      0.27128233     50218.233      36.893836      36.893836      36.893836    
    275000   0.23974316    -8.2196522     -7.8600426      0.29200382     50218.233      36.893836      36.893836      36.893836    
    276000   0.24044711    -8.2240887     -7.8634232      0.26551855     50218.233      36.893836      36.893836      36.893836    
    277000   0.2408735     -8.2232931     -7.8619879      0.27235166     50218.233      36.893836      36.893836      36.893836    
    278000   0.23958358    -8.2240542     -7.864684       0.26110866     50218.233      36.893836      36.893836      36.893836    
    279000   0.23868421    -8.2196548     -7.8616336      0.28949156     50218.233      36.893836      36.893836      36.893836    
    280000   0.2401546     -8.2213683     -7.8611415      0.27436834     50218.233      36.893836      36.893836      36.893836    
    281000   0.24069503    -8.2221745     -7.8611371      0.27674295     50218.233      36.893836      36.893836      36.893836    
    282000   0.23945069    -8.2215158     -7.8623449      0.27873278     50218.233      36.893836      36.893836      36.893836    
    283000   0.24042848    -8.22435       -7.8637124      0.25992967     50218.233      36.893836      36.893836      36.893836    
    284000   0.23961317    -8.222383      -7.8629683      0.27270816     50218.233      36.893836      36.893836      36.893836    
    285000   0.23877252    -8.2236488     -7.8654951      0.26267502     50218.233      36.893836      36.893836      36.893836    
    286000   0.24081761    -8.2230826     -7.8618613      0.27246532     50218.233      36.893836      36.893836      36.893836    
    287000   0.23936691    -8.2229363     -7.8638911      0.27542181     50218.233      36.893836      36.893836      36.893836    
    288000   0.23967719    -8.224013      -7.8645023      0.26677802     50218.233      36.893836      36.893836      36.893836    
    289000   0.24065699    -8.2241538     -7.8631734      0.26643192     50218.233      36.893836      36.893836      36.893836    
    290000   0.23973793    -8.2245735     -7.8649717      0.25943534     50218.233      36.893836      36.893836      36.893836    
    291000   0.24034624    -8.2246084     -7.8640942      0.26687993     50218.233      36.893836      36.893836      36.893836    
    292000   0.24112829    -8.2257773     -7.86409        0.25269314     50218.233      36.893836      36.893836      36.893836    
    293000   0.23956867    -8.2252334     -7.8658855      0.25627993     50218.233      36.893836      36.893836      36.893836    
    294000   0.23930849    -8.2227507     -7.8637931      0.26955383     50218.233      36.893836      36.893836      36.893836    
    295000   0.23944136    -8.2243357     -7.8651788      0.26767154     50218.233      36.893836      36.893836      36.893836    
    296000   0.24102904    -8.2233652     -7.8618267      0.26574275     50218.233      36.893836      36.893836      36.893836    
    297000   0.24012334    -8.2240619     -7.863882       0.25890111     50218.233      36.893836      36.893836      36.893836    
    298000   0.24031652    -8.2242258     -7.8637562      0.2499252      50218.233      36.893836      36.893836      36.893836    
    299000   0.24075035    -8.2236543     -7.8625339      0.27079136     50218.233      36.893836      36.893836      36.893836    
    300000   0.24070958    -8.2228934     -7.8618341      0.27068913     50218.233      36.893836      36.893836      36.893836    
    301000   0.240493      -8.2243017     -7.8635673      0.25902059     50218.233      36.893836      36.893836      36.893836    
    302000   0.24059185    -8.2237647     -7.8628821      0.2666971      50218.233      36.893836      36.893836      36.893836    
    303000   0.24034667    -8.2243187     -7.8638038      0.26274778     50218.233      36.893836      36.893836      36.893836    
    304000   0.24089796    -8.2245208     -7.863179       0.26089821     50218.233      36.893836      36.893836      36.893836    
    305000   0.24110047    -8.2245047     -7.8628592      0.26159503     50218.233      36.893836      36.893836      36.893836    
    306000   0.24104128    -8.2239312     -7.8623745      0.26156989     50218.233      36.893836      36.893836      36.893836    
    307000   0.24013717    -8.2251471     -7.8649465      0.26265341     50218.233      36.893836      36.893836      36.893836    
    308000   0.24050144    -8.2242898     -7.8635428      0.26332743     50218.233      36.893836      36.893836      36.893836    
    309000   0.2380886     -8.2230816     -7.8659538      0.26426882     50218.233      36.893836      36.893836      36.893836    
    310000   0.24045969    -8.222734      -7.8620496      0.26851815     50218.233      36.893836      36.893836      36.893836    
    311000   0.24051978    -8.2242276     -7.863453       0.26031961     50218.233      36.893836      36.893836      36.893836    
    312000   0.24177423    -8.2225987     -7.8599425      0.27397149     50218.233      36.893836      36.893836      36.893836    
    313000   0.2403947     -8.2218153     -7.8612284      0.2727051      50218.233      36.893836      36.893836      36.893836    
    314000   0.2401083     -8.2246964     -7.8645391      0.25468976     50218.233      36.893836      36.893836      36.893836    
    315000   0.24097332    -8.2244753     -7.8630204      0.26070327     50218.233      36.893836      36.893836      36.893836    
    316000   0.24130251    -8.2230591     -7.8611105      0.26775663     50218.233      36.893836      36.893836      36.893836    
    317000   0.23970519    -8.2228279     -7.8632752      0.27286516     50218.233      36.893836      36.893836      36.893836    
    318000   0.23986508    -8.2229007     -7.8631082      0.26496422     50218.233      36.893836      36.893836      36.893836    
    319000   0.24105013    -8.2218861     -7.860316       0.27461288     50218.233      36.893836      36.893836      36.893836    
    320000   0.23952354    -8.2227222     -7.863442       0.26875327     50218.233      36.893836      36.893836      36.893836    
    321000   0.2393946     -8.2239766     -7.8648899      0.26233919     50218.233      36.893836      36.893836      36.893836    
    322000   0.24056605    -8.2205077     -7.8596637      0.29280807     50218.233      36.893836      36.893836      36.893836    
    323000   0.23983285    -8.2216644     -7.8619203      0.27739849     50218.233      36.893836      36.893836      36.893836    
    324000   0.24035477    -8.2217732     -7.8612462      0.28326497     50218.233      36.893836      36.893836      36.893836    
    325000   0.23974655    -8.2213653     -7.8617506      0.27951549     50218.233      36.893836      36.893836      36.893836    
    326000   0.23953065    -8.2194749     -7.860184       0.29841064     50218.233      36.893836      36.893836      36.893836    
    327000   0.23885462    -8.2229974     -7.8647206      0.26955854     50218.233      36.893836      36.893836      36.893836    
    328000   0.23958199    -8.2249014     -7.8655335      0.2546739      50218.233      36.893836      36.893836      36.893836    
    329000   0.23992751    -8.2208373     -7.8609511      0.28277725     50218.233      36.893836      36.893836      36.893836    
    330000   0.23999406    -8.2229455     -7.8629596      0.26737687     50218.233      36.893836      36.893836      36.893836    
    331000   0.23922729    -8.2225717     -7.8637359      0.26988457     50218.233      36.893836      36.893836      36.893836    
    332000   0.24020288    -8.224204      -7.8639049      0.25713256     50218.233      36.893836      36.893836      36.893836    
    333000   0.23933042    -8.2229434     -7.8639529      0.26715094     50218.233      36.893836      36.893836      36.893836    
    334000   0.24015116    -8.223233      -7.8630114      0.27651269     50218.233      36.893836      36.893836      36.893836    
    335000   0.23986705    -8.224329      -7.8645336      0.25658565     50218.233      36.893836      36.893836      36.893836    
    336000   0.24062708    -8.2226417     -7.8617062      0.27930057     50218.233      36.893836      36.893836      36.893836    
    337000   0.24014442    -8.2232034     -7.8629919      0.27014437     50218.233      36.893836      36.893836      36.893836    
    338000   0.24067696    -8.2240028     -7.8629925      0.25885204     50218.233      36.893836      36.893836      36.893836    
    339000   0.24022859    -8.2238305     -7.8634927      0.26704525     50218.233      36.893836      36.893836      36.893836    
    340000   0.239568      -8.2228266     -7.8634797      0.2776384      50218.233      36.893836      36.893836      36.893836    
    341000   0.23905708    -8.2244028     -7.8658223      0.25680665     50218.233      36.893836      36.893836      36.893836    
    342000   0.23879973    -8.2236059     -7.8654114      0.27186309     50218.233      36.893836      36.893836      36.893836    
    343000   0.24154685    -8.2242901     -7.861975       0.26177311     50218.233      36.893836      36.893836      36.893836    
    344000   0.23892555    -8.2247907     -7.8664075      0.25572112     50218.233      36.893836      36.893836      36.893836    
    345000   0.24047251    -8.225992      -7.8652884      0.2520166      50218.233      36.893836      36.893836      36.893836    
    346000   0.24018368    -8.2255067     -7.8652363      0.25137634     50218.233      36.893836      36.893836      36.893836    
    347000   0.24118399    -8.2250735     -7.8633026      0.25711777     50218.233      36.893836      36.893836      36.893836    
    348000   0.239448      -8.2232301     -7.8640632      0.2692453      50218.233      36.893836      36.893836      36.893836    
    349000   0.238992      -8.2236974     -7.8652145      0.26309461     50218.233      36.893836      36.893836      36.893836    
    350000   0.2395534     -8.2240555     -7.8647305      0.25437402     50218.233      36.893836      36.893836      36.893836    
    351000   0.23979637    -8.2223982     -7.8627088      0.27757825     50218.233      36.893836      36.893836      36.893836    
    352000   0.24153483    -8.2244437     -7.8621466      0.26508179     50218.233      36.893836      36.893836      36.893836    
    353000   0.23997018    -8.2238173     -7.8638672      0.26694005     50218.233      36.893836      36.893836      36.893836    
    354000   0.23996892    -8.2225273     -7.862579       0.27513837     50218.233      36.893836      36.893836      36.893836    
    355000   0.24025217    -8.2256864     -7.8653133      0.25090675     50218.233      36.893836      36.893836      36.893836    
    356000   0.23924029    -8.2240631     -7.8652078      0.26165302     50218.233      36.893836      36.893836      36.893836    
    357000   0.2390935     -8.2246181     -7.865983       0.25902981     50218.233      36.893836      36.893836      36.893836    
    358000   0.23998502    -8.224437      -7.8644646      0.25416144     50218.233      36.893836      36.893836      36.893836    
    359000   0.23910575    -8.2244493     -7.8657958      0.25244958     50218.233      36.893836      36.893836      36.893836    
    360000   0.23929947    -8.2248978     -7.8659537      0.2656677      50218.233      36.893836      36.893836      36.893836    
    361000   0.23930375    -8.222645      -7.8636945      0.26853003     50218.233      36.893836      36.893836      36.893836    
    362000   0.23905888    -8.2229251     -7.8643418      0.27411287     50218.233      36.893836      36.893836      36.893836    
    363000   0.23969691    -8.2229475     -7.8634073      0.26481054     50218.233      36.893836      36.893836      36.893836    
    364000   0.24078058    -8.2228532     -7.8616875      0.27670496     50218.233      36.893836      36.893836      36.893836    
    365000   0.23917702    -8.2242884     -7.865528       0.26248523     50218.233      36.893836      36.893836      36.893836    
    366000   0.24005456    -8.2239812     -7.8639044      0.26610033     50218.233      36.893836      36.893836      36.893836    
    367000   0.23938218    -8.2231278     -7.8640596      0.26738814     50218.233      36.893836      36.893836      36.893836    
    368000   0.23985118    -8.223422      -7.8636504      0.26685235     50218.233      36.893836      36.893836      36.893836    
    369000   0.23892683    -8.2220846     -7.8636995      0.27899256     50218.233      36.893836      36.893836      36.893836    
    370000   0.24106032    -8.224809      -7.8632237      0.25953573     50218.233      36.893836      36.893836      36.893836    
    371000   0.23903689    -8.2232384     -7.8646882      0.26922536     50218.233      36.893836      36.893836      36.893836    
    372000   0.24137838    -8.222598      -7.8605356      0.26907893     50218.233      36.893836      36.893836      36.893836    
    373000   0.24042599    -8.2212404     -7.8606065      0.2850617      50218.233      36.893836      36.893836      36.893836    
    374000   0.23996859    -8.2229777     -7.8630299      0.2702088      50218.233      36.893836      36.893836      36.893836    
    375000   0.2397935     -8.2206007     -7.8609156      0.29259026     50218.233      36.893836      36.893836      36.893836    
    376000   0.23988212    -8.223679      -7.8638609      0.26032414     50218.233      36.893836      36.893836      36.893836    
    377000   0.24063032    -8.2216284     -7.860688       0.27495583     50218.233      36.893836      36.893836      36.893836    
    378000   0.24032647    -8.223948      -7.8634635      0.25622483     50218.233      36.893836      36.893836      36.893836    
    379000   0.24085076    -8.2234998     -7.8622288      0.27147199     50218.233      36.893836      36.893836      36.893836    
    380000   0.24049476    -8.2225813     -7.8618443      0.27791705     50218.233      36.893836      36.893836      36.893836    
    381000   0.23946444    -8.2221019     -7.8629103      0.27595623     50218.233      36.893836      36.893836      36.893836    
    382000   0.23970292    -8.2228599     -7.8633106      0.27808577     50218.233      36.893836      36.893836      36.893836    
    383000   0.23990661    -8.221956      -7.8621012      0.27753869     50218.233      36.893836      36.893836      36.893836    
    384000   0.24106738    -8.2236196     -7.8620237      0.26254682     50218.233      36.893836      36.893836      36.893836    
    385000   0.23956453    -8.2229132     -7.8635715      0.27332156     50218.233      36.893836      36.893836      36.893836    
    386000   0.23999484    -8.2230858     -7.8630987      0.27321376     50218.233      36.893836      36.893836      36.893836    
    387000   0.24008746    -8.2245848     -7.8644587      0.2541202      50218.233      36.893836      36.893836      36.893836    
    388000   0.23963517    -8.2222585     -7.8628109      0.27669505     50218.233      36.893836      36.893836      36.893836    
    389000   0.24076355    -8.2238488     -7.8627086      0.26590394     50218.233      36.893836      36.893836      36.893836    
    390000   0.23989646    -8.2237411     -7.8639015      0.26428932     50218.233      36.893836      36.893836      36.893836    
    391000   0.2408121     -8.223721      -7.862508       0.26886805     50218.233      36.893836      36.893836      36.893836    
    392000   0.24110127    -8.2232162     -7.8615694      0.26837334     50218.233      36.893836      36.893836      36.893836    
    393000   0.23899917    -8.2246506     -7.8661569      0.24636666     50218.233      36.893836      36.893836      36.893836    
    394000   0.24018912    -8.2235584     -7.8632799      0.26238272     50218.233      36.893836      36.893836      36.893836    
    395000   0.24054308    -8.2233688     -7.8625593      0.27552594     50218.233      36.893836      36.893836      36.893836    
    396000   0.23915343    -8.2244711     -7.8657461      0.24636038     50218.233      36.893836      36.893836      36.893836    
    397000   0.23952366    -8.2219006     -7.8626202      0.2794705      50218.233      36.893836      36.893836      36.893836    
    398000   0.24063659    -8.2225934     -7.8616436      0.2681112      50218.233      36.893836      36.893836      36.893836    
    399000   0.23997903    -8.2236915     -7.8637281      0.26672306     50218.233      36.893836      36.893836      36.893836    
    400000   0.24159959    -8.2255942     -7.8632         0.25684003     50218.233      36.893836      36.893836      36.893836    
    401000   0.23977221    -8.2257726     -7.8661194      0.25432302     50218.233      36.893836      36.893836      36.893836    
    402000   0.24056955    -8.2241773     -7.8633281      0.26241994     50218.233      36.893836      36.893836      36.893836    
    403000   0.23951333    -8.2236078     -7.8643429      0.26773849     50218.233      36.893836      36.893836      36.893836    
    404000   0.23924376    -8.2236648     -7.8648043      0.2642464      50218.233      36.893836      36.893836      36.893836    
    405000   0.24001728    -8.222645      -7.8626242      0.26889439     50218.233      36.893836      36.893836      36.893836    
    406000   0.24063713    -8.2223499     -7.8613993      0.27764095     50218.233      36.893836      36.893836      36.893836    
    407000   0.23915016    -8.222372      -7.8636518      0.28004528     50218.233      36.893836      36.893836      36.893836    
    408000   0.2406242     -8.2237251     -7.8627939      0.26863924     50218.233      36.893836      36.893836      36.893836    
    409000   0.2391189     -8.2246337     -7.8659604      0.26732766     50218.233      36.893836      36.893836      36.893836    
    410000   0.24047909    -8.2236806     -7.8629671      0.2599249      50218.233      36.893836      36.893836      36.893836    
    411000   0.24136606    -8.2230837     -7.8610398      0.27828927     50218.233      36.893836      36.893836      36.893836    
    412000   0.23948078    -8.2232513     -7.8640352      0.26368001     50218.233      36.893836      36.893836      36.893836    
    413000   0.24099905    -8.2236556     -7.8621622      0.26369784     50218.233      36.893836      36.893836      36.893836    
    414000   0.23877297    -8.2216083     -7.863454       0.28114389     50218.233      36.893836      36.893836      36.893836    
    415000   0.24081461    -8.2240925     -7.8628757      0.2667901      50218.233      36.893836      36.893836      36.893836    
    416000   0.23997198    -8.2240128     -7.8640599      0.26505359     50218.233      36.893836      36.893836      36.893836    
    417000   0.24172744    -8.223905      -7.861319       0.27105405     50218.233      36.893836      36.893836      36.893836    
    418000   0.23972765    -8.2216888     -7.8621024      0.28193523     50218.233      36.893836      36.893836      36.893836    
    419000   0.24000517    -8.2218185     -7.8618158      0.28071251     50218.233      36.893836      36.893836      36.893836    
    420000   0.23901656    -8.2231993     -7.8646796      0.27854815     50218.233      36.893836      36.893836      36.893836    
    421000   0.23995343    -8.2213628     -7.8614378      0.28547245     50218.233      36.893836      36.893836      36.893836    
    422000   0.23922754    -8.2219229     -7.8630867      0.27303091     50218.233      36.893836      36.893836      36.893836    
    423000   0.23943981    -8.2231639     -7.8640093      0.27600329     50218.233      36.893836      36.893836      36.893836    
    424000   0.24115183    -8.2234135     -7.8616909      0.27348515     50218.233      36.893836      36.893836      36.893836    
    425000   0.23915417    -8.2230075     -7.8642814      0.26802971     50218.233      36.893836      36.893836      36.893836    
    426000   0.24022213    -8.2239864     -7.8636583      0.25828659     50218.233      36.893836      36.893836      36.893836    
    427000   0.23938319    -8.2248606     -7.8657909      0.26163311     50218.233      36.893836      36.893836      36.893836    
    428000   0.2393744     -8.2234429     -7.8643864      0.26710564     50218.233      36.893836      36.893836      36.893836    
    429000   0.23973271    -8.2237128     -7.8641188      0.26222737     50218.233      36.893836      36.893836      36.893836    
    430000   0.23937658    -8.2214502     -7.8623904      0.28564063     50218.233      36.893836      36.893836      36.893836    
    431000   0.24087234    -8.221574      -7.8602706      0.293674       50218.233      36.893836      36.893836      36.893836    
    432000   0.23993759    -8.2224662     -7.8625649      0.27204342     50218.233      36.893836      36.893836      36.893836    
    433000   0.23948172    -8.2255413     -7.8663238      0.25208096     50218.233      36.893836      36.893836      36.893836    
    434000   0.23959008    -8.2217388     -7.8623588      0.27791372     50218.233      36.893836      36.893836      36.893836    
    435000   0.23980193    -8.2237741     -7.8640763      0.26415999     50218.233      36.893836      36.893836      36.893836    
    436000   0.23878322    -8.2239845     -7.8658147      0.25407506     50218.233      36.893836      36.893836      36.893836    
    437000   0.23925227    -8.2224071     -7.8635338      0.27465225     50218.233      36.893836      36.893836      36.893836    
    438000   0.24044485    -8.2239681     -7.863306       0.26580081     50218.233      36.893836      36.893836      36.893836    
    439000   0.23927961    -8.2238736     -7.8649593      0.27073661     50218.233      36.893836      36.893836      36.893836    
    440000   0.23917183    -8.2246354     -7.8658828      0.25739302     50218.233      36.893836      36.893836      36.893836    
    441000   0.23933516    -8.2225075     -7.8635098      0.27347334     50218.233      36.893836      36.893836      36.893836    
    442000   0.23905402    -8.2237184     -7.8651425      0.25964991     50218.233      36.893836      36.893836      36.893836    
    443000   0.24019976    -8.22309       -7.8627955      0.26996557     50218.233      36.893836      36.893836      36.893836    
    444000   0.23897536    -8.2247293     -7.8662713      0.256056       50218.233      36.893836      36.893836      36.893836    
    445000   0.23985763    -8.2219949     -7.8622136      0.27547313     50218.233      36.893836      36.893836      36.893836    
    446000   0.24069156    -8.2246679     -7.8636357      0.25882417     50218.233      36.893836      36.893836      36.893836    
    447000   0.23997117    -8.2242231     -7.8642715      0.2596919      50218.233      36.893836      36.893836      36.893836    
    448000   0.24004402    -8.2237392     -7.8636782      0.2625937      50218.233      36.893836      36.893836      36.893836    
    449000   0.24000334    -8.2236734     -7.8636735      0.26556951     50218.233      36.893836      36.893836      36.893836    
    450000   0.2399633     -8.2237545     -7.8638147      0.26977924     50218.233      36.893836      36.893836      36.893836    
    451000   0.24010048    -8.2249136     -7.864768       0.25653682     50218.233      36.893836      36.893836      36.893836    
    452000   0.23900937    -8.223985      -7.8654761      0.26141629     50218.233      36.893836      36.893836      36.893836    
    453000   0.24028637    -8.2237674     -7.863343       0.26401565     50218.233      36.893836      36.893836      36.893836    
    454000   0.24026366    -8.2254547     -7.8650643      0.2507114      50218.233      36.893836      36.893836      36.893836    
    455000   0.23911638    -8.2237727     -7.8651032      0.26353169     50218.233      36.893836      36.893836      36.893836    
    456000   0.24045157    -8.2240337     -7.8633615      0.26495931     50218.233      36.893836      36.893836      36.893836    
    457000   0.24024791    -8.222391      -7.8620243      0.27806344     50218.233      36.893836      36.893836      36.893836    
    458000   0.23967063    -8.2239364     -7.8644355      0.26749982     50218.233      36.893836      36.893836      36.893836    
    459000   0.23917594    -8.2236034     -7.8648446      0.27115703     50218.233      36.893836      36.893836      36.893836    
    460000   0.23862988    -8.2231128     -7.8651731      0.26750613     50218.233      36.893836      36.893836      36.893836    
    461000   0.23989316    -8.2226047     -7.8627701      0.27608774     50218.233      36.893836      36.893836      36.893836    
    462000   0.24025523    -8.2223227     -7.861945       0.28240477     50218.233      36.893836      36.893836      36.893836    
    463000   0.23974754    -8.2236482     -7.864032       0.26270966     50218.233      36.893836      36.893836      36.893836    
    464000   0.23884434    -8.2233643     -7.8651029      0.26773735     50218.233      36.893836      36.893836      36.893836    
    465000   0.24088456    -8.224804      -7.8634823      0.26556292     50218.233      36.893836      36.893836      36.893836    
    466000   0.23931041    -8.2235617     -7.8646012      0.26725439     50218.233      36.893836      36.893836      36.893836    
    467000   0.24138695    -8.2230651     -7.8609898      0.27232814     50218.233      36.893836      36.893836      36.893836    
    468000   0.24031597    -8.2233242     -7.8628554      0.26788071     50218.233      36.893836      36.893836      36.893836    
    469000   0.23998436    -8.2215827     -7.8616113      0.27984563     50218.233      36.893836      36.893836      36.893836    
    470000   0.24036105    -8.2222062     -7.8616697      0.27680835     50218.233      36.893836      36.893836      36.893836    
    471000   0.24058641    -8.2243109     -7.8634364      0.2593739      50218.233      36.893836      36.893836      36.893836    
    472000   0.24087108    -8.2219278     -7.8606263      0.27992792     50218.233      36.893836      36.893836      36.893836    
    473000   0.2400453     -8.2220106     -7.8619477      0.28496035     50218.233      36.893836      36.893836      36.893836    
    474000   0.24012234    -8.2232638     -7.8630854      0.27324138     50218.233      36.893836      36.893836      36.893836    
    475000   0.24008216    -8.2224204     -7.8623023      0.27430547     50218.233      36.893836      36.893836      36.893836    
    476000   0.23885373    -8.221569      -7.8632935      0.2832377      50218.233      36.893836      36.893836      36.893836    
    477000   0.24037925    -8.2240017     -7.863438       0.2674504      50218.233      36.893836      36.893836      36.893836    
    478000   0.24048289    -8.2230123     -7.8622931      0.2750198      50218.233      36.893836      36.893836      36.893836    
    479000   0.24156177    -8.2213481     -7.8590106      0.2916579      50218.233      36.893836      36.893836      36.893836    
    480000   0.24020653    -8.2221505     -7.8618458      0.27881014     50218.233      36.893836      36.893836      36.893836    
    481000   0.24024123    -8.2216642     -7.8613075      0.27814095     50218.233      36.893836      36.893836      36.893836    
    482000   0.23985184    -8.2240149     -7.8642422      0.26644436     50218.233      36.893836      36.893836      36.893836    
    483000   0.24038337    -8.2217433     -7.8611734      0.2778343      50218.233      36.893836      36.893836      36.893836    
    484000   0.23853136    -8.2227067     -7.8649148      0.26795823     50218.233      36.893836      36.893836      36.893836    
    485000   0.23996951    -8.2242657     -7.8643165      0.26457826     50218.233      36.893836      36.893836      36.893836    
    486000   0.23929345    -8.2241927     -7.8652576      0.25495459     50218.233      36.893836      36.893836      36.893836    
    487000   0.24028684    -8.2239028     -7.8634776      0.26465146     50218.233      36.893836      36.893836      36.893836    
    488000   0.23905911    -8.2226792     -7.8640957      0.26655603     50218.233      36.893836      36.893836      36.893836    
    489000   0.24086537    -8.2239293     -7.8626364      0.25962933     50218.233      36.893836      36.893836      36.893836    
    490000   0.2396016     -8.2235222     -7.8641249      0.2647012      50218.233      36.893836      36.893836      36.893836    
    491000   0.23893482    -8.2223759     -7.8639787      0.27638137     50218.233      36.893836      36.893836      36.893836    
    492000   0.24025038    -8.2230193     -7.8626489      0.27201209     50218.233      36.893836      36.893836      36.893836    
    493000   0.2388908     -8.2246735     -7.8663424      0.26338619     50218.233      36.893836      36.893836      36.893836    
    494000   0.23887776    -8.2240706     -7.865759       0.25525001     50218.233      36.893836      36.893836      36.893836    
    495000   0.24079591    -8.2233        -7.8621113      0.26697128     50218.233      36.893836      36.893836      36.893836    
    496000   0.2386434     -8.2239137     -7.8659537      0.26681971     50218.233      36.893836      36.893836      36.893836    
    497000   0.24075092    -8.222806      -7.8616847      0.26910681     50218.233      36.893836      36.893836      36.893836    
    498000   0.24085735    -8.2230426     -7.8617618      0.27062489     50218.233      36.893836      36.893836      36.893836    
    499000   0.2403439     -8.2246195     -7.8641087      0.25632556     50218.233      36.893836      36.893836      36.893836    
    500000   0.24048228    -8.2232832     -7.8625649      0.26755669     50218.233      36.893836      36.893836      36.893836    
    501000   0.24048695    -8.2250598     -7.8643345      0.25453488     50218.233      36.893836      36.893836      36.893836    
    502000   0.24031457    -8.2239701     -7.8635033      0.26022435     50218.233      36.893836      36.893836      36.893836    
    503000   0.24042046    -8.2222959     -7.8616704      0.28429643     50218.233      36.893836      36.893836      36.893836    
    504000   0.24006331    -8.2266583     -7.8665685      0.24315271     50218.233      36.893836      36.893836      36.893836    
    505000   0.24032604    -8.2240311     -7.8635472      0.26709873     50218.233      36.893836      36.893836      36.893836    
    506000   0.24021385    -8.222703      -7.8623874      0.27143012     50218.233      36.893836      36.893836      36.893836    
    507000   0.23901966    -8.2230771     -7.8645527      0.26886315     50218.233      36.893836      36.893836      36.893836    
    508000   0.24105408    -8.2225742     -7.8609982      0.27533222     50218.233      36.893836      36.893836      36.893836    
    509000   0.23959574    -8.222238      -7.8628495      0.28003604     50218.233      36.893836      36.893836      36.893836    
    510000   0.23924873    -8.223441      -7.864573       0.26291642     50218.233      36.893836      36.893836      36.893836    
    511000   0.23888298    -8.2213979     -7.8630785      0.28738335     50218.233      36.893836      36.893836      36.893836    
    512000   0.24073767    -8.2227772     -7.8616759      0.27702039     50218.233      36.893836      36.893836      36.893836    
    513000   0.24051642    -8.2226036     -7.8618341      0.27155201     50218.233      36.893836      36.893836      36.893836    
    514000   0.2404659     -8.2228654     -7.8621716      0.27965424     50218.233      36.893836      36.893836      36.893836    
    515000   0.23926826    -8.2228091     -7.8639118      0.27335812     50218.233      36.893836      36.893836      36.893836    
    516000   0.24057459    -8.2219922     -7.8611355      0.28013062     50218.233      36.893836      36.893836      36.893836    
    517000   0.24013028    -8.2228283     -7.862638       0.27664832     50218.233      36.893836      36.893836      36.893836    
    518000   0.2412149     -8.2237092     -7.861892       0.26273073     50218.233      36.893836      36.893836      36.893836    
    519000   0.24019925    -8.2229217     -7.862628       0.2645746      50218.233      36.893836      36.893836      36.893836    
    520000   0.23922339    -8.2224065     -7.8635766      0.2693319      50218.233      36.893836      36.893836      36.893836    
    521000   0.24011273    -8.2250781     -7.8649142      0.25702793     50218.233      36.893836      36.893836      36.893836    
    522000   0.23934084    -8.2240244     -7.8650182      0.26293149     50218.233      36.893836      36.893836      36.893836    
    523000   0.23979969    -8.2211841     -7.8614897      0.28973473     50218.233      36.893836      36.893836      36.893836    
    524000   0.24036403    -8.2233145     -7.8627736      0.2708502      50218.233      36.893836      36.893836      36.893836    
    525000   0.23964974    -8.2232007     -7.8637312      0.27175663     50218.233      36.893836      36.893836      36.893836    
    526000   0.2411407     -8.2231648     -7.8614589      0.26942278     50218.233      36.893836      36.893836      36.893836    
    527000   0.24085336    -8.2242025     -7.8629276      0.26305125     50218.233      36.893836      36.893836      36.893836    
    528000   0.23989013    -8.2207111     -7.860881       0.29360441     50218.233      36.893836      36.893836      36.893836    
    529000   0.23889474    -8.2222056     -7.8638686      0.26490475     50218.233      36.893836      36.893836      36.893836    
    530000   0.24064461    -8.2211816     -7.8602198      0.29111621     50218.233      36.893836      36.893836      36.893836    
    531000   0.24062917    -8.2225267     -7.861588       0.2806697      50218.233      36.893836      36.893836      36.893836    
    532000   0.23927568    -8.2218693     -7.8629609      0.27631161     50218.233      36.893836      36.893836      36.893836    
    533000   0.23963582    -8.2245581     -7.8651095      0.26198208     50218.233      36.893836      36.893836      36.893836    
    534000   0.23815542    -8.2237743     -7.8665462      0.25534824     50218.233      36.893836      36.893836      36.893836    
    535000   0.24040319    -8.2240753     -7.8634756      0.2674485      50218.233      36.893836      36.893836      36.893836    
    536000   0.24091844    -8.2243175     -7.862945       0.25840763     50218.233      36.893836      36.893836      36.893836    
    537000   0.24033939    -8.2230175     -7.8625136      0.27060044     50218.233      36.893836      36.893836      36.893836    
    538000   0.2393423     -8.2245703     -7.865562       0.25716664     50218.233      36.893836      36.893836      36.893836    
    539000   0.23960078    -8.2216546     -7.8622585      0.27589299     50218.233      36.893836      36.893836      36.893836    
    540000   0.24003766    -8.2234853     -7.8634339      0.26373309     50218.233      36.893836      36.893836      36.893836    
    541000   0.23939759    -8.2236637     -7.8645725      0.26853617     50218.233      36.893836      36.893836      36.893836    
    542000   0.24112284    -8.2242845     -7.8626053      0.26374229     50218.233      36.893836      36.893836      36.893836    
    543000   0.23906008    -8.2226778     -7.8640928      0.27062858     50218.233      36.893836      36.893836      36.893836    
    544000   0.24007981    -8.2222206     -7.862106       0.27747227     50218.233      36.893836      36.893836      36.893836    
    545000   0.23974179    -8.2210969     -7.8614893      0.28660949     50218.233      36.893836      36.893836      36.893836    
    546000   0.2394333     -8.2226619     -7.8635171      0.26733727     50218.233      36.893836      36.893836      36.893836    
    547000   0.23940788    -8.2235343     -7.8644276      0.26303329     50218.233      36.893836      36.893836      36.893836    
    548000   0.23994287    -8.2239443     -7.8640351      0.26302804     50218.233      36.893836      36.893836      36.893836    
    549000   0.239517      -8.2253028     -7.8660325      0.25070286     50218.233      36.893836      36.893836      36.893836    
    550000   0.24029866    -8.2232465     -7.8628037      0.27188833     50218.233      36.893836      36.893836      36.893836    
    551000   0.23997184    -8.2240827     -7.86413        0.26673665     50218.233      36.893836      36.893836      36.893836    
    552000   0.23949862    -8.2235679     -7.8643251      0.26280998     50218.233      36.893836      36.893836      36.893836    
    553000   0.24204759    -8.2267888     -7.8637225      0.24350879     50218.233      36.893836      36.893836      36.893836    
    554000   0.23951587    -8.2244666     -7.8651979      0.25723304     50218.233      36.893836      36.893836      36.893836    
    555000   0.240338      -8.2256055     -7.8651036      0.24430671     50218.233      36.893836      36.893836      36.893836    
    556000   0.23977594    -8.2234337     -7.8637749      0.26681408     50218.233      36.893836      36.893836      36.893836    
    557000   0.23921587    -8.2234225     -7.8646038      0.26993384     50218.233      36.893836      36.893836      36.893836    
    558000   0.23925034    -8.2230491     -7.8641786      0.26723117     50218.233      36.893836      36.893836      36.893836    
    559000   0.24053223    -8.2242463     -7.8634531      0.25869198     50218.233      36.893836      36.893836      36.893836    
    560000   0.23952452    -8.2229091     -7.8636274      0.26680219     50218.233      36.893836      36.893836      36.893836    
    561000   0.24009535    -8.2229923     -7.8628544      0.26709979     50218.233      36.893836      36.893836      36.893836    
    562000   0.23965772    -8.2219868     -7.8625053      0.27579265     50218.233      36.893836      36.893836      36.893836    
    563000   0.23930942    -8.2198754     -7.8609163      0.29189348     50218.233      36.893836      36.893836      36.893836    
    564000   0.23972474    -8.2207419     -7.8611599      0.28708138     50218.233      36.893836      36.893836      36.893836    
    565000   0.24078466    -8.2227671     -7.8615952      0.27156529     50218.233      36.893836      36.893836      36.893836    
    566000   0.24018931    -8.2221504     -7.8618716      0.28188348     50218.233      36.893836      36.893836      36.893836    
    567000   0.24013823    -8.2240006     -7.8637984      0.2649285      50218.233      36.893836      36.893836      36.893836    
    568000   0.23952388    -8.223869      -7.8645883      0.25754916     50218.233      36.893836      36.893836      36.893836    
    569000   0.24070566    -8.2223848     -7.8613314      0.27750267     50218.233      36.893836      36.893836      36.893836    
    570000   0.23843371    -8.2234459     -7.8658005      0.26366825     50218.233      36.893836      36.893836      36.893836    
    571000   0.24062039    -8.2212006     -7.8602751      0.28146832     50218.233      36.893836      36.893836      36.893836    
    572000   0.23968093    -8.2224745     -7.8629582      0.27388697     50218.233      36.893836      36.893836      36.893836    
    573000   0.24018311    -8.2228382     -7.8625686      0.26094993     50218.233      36.893836      36.893836      36.893836    
    574000   0.24006972    -8.2232025     -7.8631031      0.26517845     50218.233      36.893836      36.893836      36.893836    
    575000   0.24144589    -8.2225306     -7.8603669      0.27199825     50218.233      36.893836      36.893836      36.893836    
    576000   0.23906015    -8.22355       -7.8649649      0.25969711     50218.233      36.893836      36.893836      36.893836    
    577000   0.2402344     -8.2219718     -7.8616253      0.28062378     50218.233      36.893836      36.893836      36.893836    
    578000   0.23980928    -8.2232217     -7.8635129      0.27666461     50218.233      36.893836      36.893836      36.893836    
    579000   0.23913955    -8.2243141     -7.8656099      0.25771723     50218.233      36.893836      36.893836      36.893836    
    580000   0.23945864    -8.2241786     -7.8649958      0.25791298     50218.233      36.893836      36.893836      36.893836    
    581000   0.23972825    -8.2223138     -7.8627265      0.280069       50218.233      36.893836      36.893836      36.893836    
    582000   0.23949326    -8.2217749     -7.8625402      0.27704782     50218.233      36.893836      36.893836      36.893836    
    583000   0.24071542    -8.2235274     -7.8624594      0.27633145     50218.233      36.893836      36.893836      36.893836    
    584000   0.2406951     -8.222468      -7.8614305      0.27222641     50218.233      36.893836      36.893836      36.893836    
    585000   0.23946131    -8.2214322     -7.8622453      0.28048476     50218.233      36.893836      36.893836      36.893836    
    586000   0.24001705    -8.2224736     -7.8624532      0.27529443     50218.233      36.893836      36.893836      36.893836    
    587000   0.24049783    -8.2249443     -7.8642027      0.25195031     50218.233      36.893836      36.893836      36.893836    
    588000   0.24000149    -8.2240898     -7.8640926      0.26249158     50218.233      36.893836      36.893836      36.893836    
    589000   0.24002215    -8.2242719     -7.8642438      0.25831391     50218.233      36.893836      36.893836      36.893836    
    590000   0.24006428    -8.2241684     -7.8640771      0.25797534     50218.233      36.893836      36.893836      36.893836    
    591000   0.23983075    -8.2228167     -7.8630757      0.26687608     50218.233      36.893836      36.893836      36.893836    
    592000   0.24016883    -8.2223971     -7.862149       0.27792948     50218.233      36.893836      36.893836      36.893836    
    593000   0.23977936    -8.2242169     -7.864553       0.26366965     50218.233      36.893836      36.893836      36.893836    
    594000   0.24038677    -8.2256561     -7.8650811      0.25553059     50218.233      36.893836      36.893836      36.893836    
    595000   0.23842913    -8.2227247     -7.8650861      0.26532222     50218.233      36.893836      36.893836      36.893836    
    596000   0.2395245     -8.2269587     -7.8676771      0.24499477     50218.233      36.893836      36.893836      36.893836    
    597000   0.23966497    -8.2251067     -7.8656143      0.25056189     50218.233      36.893836      36.893836      36.893836    
    598000   0.24006158    -8.2249383     -7.8648511      0.25016701     50218.233      36.893836      36.893836      36.893836    
    599000   0.23979543    -8.2237969     -7.8641088      0.25965776     50218.233      36.893836      36.893836      36.893836    
    600000   0.24054038    -8.2244542     -7.8636488      0.26306428     50218.233      36.893836      36.893836      36.893836    
    601000   0.24111828    -8.2225026     -7.8608303      0.27324379     50218.233      36.893836      36.893836      36.893836    
    602000   0.24022966    -8.2254687     -7.8651294      0.24894314     50218.233      36.893836      36.893836      36.893836    
    603000   0.23882609    -8.2243366     -7.8661026      0.25635437     50218.233      36.893836      36.893836      36.893836    
    604000   0.24151915    -8.2240635     -7.8617899      0.26242822     50218.233      36.893836      36.893836      36.893836    
    605000   0.24016798    -8.2233322     -7.8630853      0.26144425     50218.233      36.893836      36.893836      36.893836    
    606000   0.24082151    -8.2224134     -7.8611863      0.26994015     50218.233      36.893836      36.893836      36.893836    
    607000   0.23956203    -8.2217107     -7.8623728      0.28873774     50218.233      36.893836      36.893836      36.893836    
    608000   0.24047037    -8.2227717     -7.8620712      0.27543728     50218.233      36.893836      36.893836      36.893836    
    609000   0.23995232    -8.2244985     -7.8645752      0.25584336     50218.233      36.893836      36.893836      36.893836    
    610000   0.23929218    -8.2277801     -7.868847       0.23514228     50218.233      36.893836      36.893836      36.893836    
    611000   0.23909818    -8.2243325     -7.8656904      0.25989257     50218.233      36.893836      36.893836      36.893836    
    612000   0.23775075    -8.2236773     -7.8670563      0.25924649     50218.233      36.893836      36.893836      36.893836    
    613000   0.24048234    -8.2252942     -7.8645758      0.2516043      50218.233      36.893836      36.893836      36.893836    
    614000   0.23993359    -8.2223876     -7.8624923      0.27708398     50218.233      36.893836      36.893836      36.893836    
    615000   0.24017248    -8.2232983     -7.8630447      0.26758759     50218.233      36.893836      36.893836      36.893836    
    616000   0.24052658    -8.2218504     -7.8610656      0.27893059     50218.233      36.893836      36.893836      36.893836    
    617000   0.24009525    -8.2226306     -7.8624928      0.27146956     50218.233      36.893836      36.893836      36.893836    
    618000   0.24061196    -8.2227888     -7.861876       0.27315762     50218.233      36.893836      36.893836      36.893836    
    619000   0.24018796    -8.2247462     -7.8644694      0.25786767     50218.233      36.893836      36.893836      36.893836    
    620000   0.23962273    -8.22208       -7.862651       0.27933914     50218.233      36.893836      36.893836      36.893836    
    621000   0.2395191     -8.2204299     -7.8611564      0.28992792     50218.233      36.893836      36.893836      36.893836    
    622000   0.23949265    -8.2225663     -7.8633324      0.27509076     50218.233      36.893836      36.893836      36.893836    
    623000   0.24016793    -8.2215502     -7.8613034      0.28895584     50218.233      36.893836      36.893836      36.893836    
    624000   0.2409586     -8.2216162     -7.8601834      0.27963068     50218.233      36.893836      36.893836      36.893836    
    625000   0.23936742    -8.2214612     -7.8624152      0.28022069     50218.233      36.893836      36.893836      36.893836    
    626000   0.23991495    -8.2214238     -7.8615565      0.28310945     50218.233      36.893836      36.893836      36.893836    
    627000   0.24067093    -8.2234924     -7.8624912      0.26496922     50218.233      36.893836      36.893836      36.893836    
    628000   0.24069755    -8.2211029     -7.8600618      0.28904388     50218.233      36.893836      36.893836      36.893836    
    629000   0.24021532    -8.2215062     -7.8611884      0.28134506     50218.233      36.893836      36.893836      36.893836    
    630000   0.24139516    -8.2236234     -7.8615358      0.26784965     50218.233      36.893836      36.893836      36.893836    
    631000   0.24158965    -8.22267       -7.8602906      0.2806503      50218.233      36.893836      36.893836      36.893836    
    632000   0.24002547    -8.2233482     -7.8633151      0.27254612     50218.233      36.893836      36.893836      36.893836    
    633000   0.23985937    -8.2227761     -7.8629922      0.27245801     50218.233      36.893836      36.893836      36.893836    
    634000   0.24030298    -8.2225042     -7.8620548      0.2691898      50218.233      36.893836      36.893836      36.893836    
    635000   0.24025328    -8.2228166     -7.8624418      0.27439214     50218.233      36.893836      36.893836      36.893836    
    636000   0.24059462    -8.2220151     -7.8611283      0.28152786     50218.233      36.893836      36.893836      36.893836    
    637000   0.24114048    -8.2258024     -7.8640968      0.2504503      50218.233      36.893836      36.893836      36.893836    
    638000   0.24031024    -8.2242318     -7.8637716      0.26026001     50218.233      36.893836      36.893836      36.893836    
    639000   0.23795434    -8.2211465     -7.8642201      0.28554895     50218.233      36.893836      36.893836      36.893836    
    640000   0.23933532    -8.2239106     -7.8649127      0.26594897     50218.233      36.893836      36.893836      36.893836    
    641000   0.2405719     -8.2219947     -7.8611419      0.28186348     50218.233      36.893836      36.893836      36.893836    
    642000   0.23989014    -8.2237975     -7.8639674      0.26338964     50218.233      36.893836      36.893836      36.893836    
    643000   0.23878546    -8.2224951     -7.864322       0.27525947     50218.233      36.893836      36.893836      36.893836    
    644000   0.2410022     -8.2240368     -7.8625386      0.26028026     50218.233      36.893836      36.893836      36.893836    
    645000   0.24111449    -8.2254247     -7.8637581      0.26016686     50218.233      36.893836      36.893836      36.893836    
    646000   0.239871      -8.2244955     -7.8646941      0.25927992     50218.233      36.893836      36.893836      36.893836    
    647000   0.2393235     -8.2250117     -7.8660316      0.24883201     50218.233      36.893836      36.893836      36.893836    
    648000   0.24089177    -8.2229912     -7.8616587      0.27583233     50218.233      36.893836      36.893836      36.893836    
    649000   0.23919205    -8.2271072     -7.8683243      0.24100941     50218.233      36.893836      36.893836      36.893836    
    650000   0.2399091     -8.2247268     -7.8648683      0.25793268     50218.233      36.893836      36.893836      36.893836    
    651000   0.24019308    -8.2232563     -7.8629718      0.27248057     50218.233      36.893836      36.893836      36.893836    
    652000   0.2392995     -8.2249781     -7.866034       0.25649348     50218.233      36.893836      36.893836      36.893836    
    653000   0.24085835    -8.2235553     -7.8622729      0.26439554     50218.233      36.893836      36.893836      36.893836    
    654000   0.24073295    -8.2251625     -7.8640682      0.25429121     50218.233      36.893836      36.893836      36.893836    
    655000   0.2400665     -8.2237471     -7.8636525      0.268391       50218.233      36.893836      36.893836      36.893836    
    656000   0.240752      -8.2252839     -7.8641611      0.25678198     50218.233      36.893836      36.893836      36.893836    
    657000   0.2399081     -8.2241506     -7.8642936      0.25611396     50218.233      36.893836      36.893836      36.893836    
    658000   0.23859286    -8.2216078     -7.8637236      0.28051698     50218.233      36.893836      36.893836      36.893836    
    659000   0.24098848    -8.226645      -7.8651675      0.25049537     50218.233      36.893836      36.893836      36.893836    
    660000   0.24065945    -8.2224466     -7.8614625      0.28301746     50218.233      36.893836      36.893836      36.893836    
    661000   0.24031698    -8.223272      -7.8628016      0.27627006     50218.233      36.893836      36.893836      36.893836    
    662000   0.23992099    -8.2242624     -7.864386       0.26262164     50218.233      36.893836      36.893836      36.893836    
    663000   0.23965312    -8.222913      -7.8634384      0.26802258     50218.233      36.893836      36.893836      36.893836    
    664000   0.23986279    -8.2210177     -7.8612286      0.2863375      50218.233      36.893836      36.893836      36.893836    
    665000   0.2409842     -8.2231076     -7.8616364      0.26431521     50218.233      36.893836      36.893836      36.893836    
    666000   0.24060918    -8.2212006     -7.8602919      0.28435104     50218.233      36.893836      36.893836      36.893836    
    667000   0.24023222    -8.2253728     -7.8650296      0.25301271     50218.233      36.893836      36.893836      36.893836    
    668000   0.23993184    -8.2241064     -7.8642138      0.25783849     50218.233      36.893836      36.893836      36.893836    
    669000   0.24017132    -8.2214926     -7.8612407      0.28889549     50218.233      36.893836      36.893836      36.893836    
    670000   0.24033265    -8.2230592     -7.8625654      0.26977093     50218.233      36.893836      36.893836      36.893836    
    671000   0.24070147    -8.221848      -7.8608009      0.27630314     50218.233      36.893836      36.893836      36.893836    
    672000   0.24108367    -8.2235735     -7.8619531      0.27220824     50218.233      36.893836      36.893836      36.893836    
    673000   0.24033794    -8.2227349     -7.8622331      0.27835879     50218.233      36.893836      36.893836      36.893836    
    674000   0.2408234     -8.22235       -7.86112        0.27695153     50218.233      36.893836      36.893836      36.893836    
    675000   0.23981016    -8.2221545     -7.8624444      0.2761471      50218.233      36.893836      36.893836      36.893836    
    676000   0.23933879    -8.2232201     -7.864217       0.26208142     50218.233      36.893836      36.893836      36.893836    
    677000   0.2400874     -8.2229738     -7.8628478      0.27006212     50218.233      36.893836      36.893836      36.893836    
    678000   0.24055798    -8.2216327     -7.8608009      0.28376175     50218.233      36.893836      36.893836      36.893836    
    679000   0.24070626    -8.2228122     -7.8617579      0.27248475     50218.233      36.893836      36.893836      36.893836    
    680000   0.24065897    -8.2217935     -7.8608101      0.28089768     50218.233      36.893836      36.893836      36.893836    
    681000   0.24072573    -8.2251956     -7.8641121      0.25337423     50218.233      36.893836      36.893836      36.893836    
    682000   0.23888601    -8.2256073     -7.8672834      0.25373485     50218.233      36.893836      36.893836      36.893836    
    683000   0.2391735     -8.2223974     -7.8636422      0.27587326     50218.233      36.893836      36.893836      36.893836    
    684000   0.23954552    -8.2229794     -7.8636662      0.27012903     50218.233      36.893836      36.893836      36.893836    
    685000   0.2398948     -8.222109      -7.8622719      0.27603295     50218.233      36.893836      36.893836      36.893836    
    686000   0.24055466    -8.2228037     -7.8619768      0.26892856     50218.233      36.893836      36.893836      36.893836    
    687000   0.23933353    -8.2223909     -7.8633957      0.28008075     50218.233      36.893836      36.893836      36.893836    
    688000   0.24010228    -8.2230271     -7.8628788      0.26632608     50218.233      36.893836      36.893836      36.893836    
    689000   0.23876139    -8.2235809     -7.8654439      0.26839001     50218.233      36.893836      36.893836      36.893836    
    690000   0.23997237    -8.2206383     -7.8606848      0.29131215     50218.233      36.893836      36.893836      36.893836    
    691000   0.23973735    -8.2223302     -7.8627293      0.27497035     50218.233      36.893836      36.893836      36.893836    
    692000   0.23873433    -8.2237389     -7.8656425      0.26573098     50218.233      36.893836      36.893836      36.893836    
    693000   0.23968398    -8.2242379     -7.864717       0.2565862      50218.233      36.893836      36.893836      36.893836    
    694000   0.23991984    -8.2221541     -7.8622795      0.2773251      50218.233      36.893836      36.893836      36.893836    
    695000   0.23941737    -8.2237924     -7.8646714      0.26464601     50218.233      36.893836      36.893836      36.893836    
    696000   0.23848905    -8.2241035     -7.866375       0.26125195     50218.233      36.893836      36.893836      36.893836    
    697000   0.24046211    -8.223948      -7.86326        0.26365353     50218.233      36.893836      36.893836      36.893836    
    698000   0.24031364    -8.2255521     -7.8650868      0.24787464     50218.233      36.893836      36.893836      36.893836    
    699000   0.24048169    -8.2237212     -7.8630038      0.26400075     50218.233      36.893836      36.893836      36.893836    
    700000   0.24141468    -8.2222838     -7.8601669      0.27463444     50218.233      36.893836      36.893836      36.893836    
    701000   0.24027747    -8.222604      -7.8621929      0.27571359     50218.233      36.893836      36.893836      36.893836    
    702000   0.24015502    -8.2229859     -7.8627585      0.27090596     50218.233      36.893836      36.893836      36.893836    
    703000   0.24002636    -8.2235647     -7.8635303      0.2690597      50218.233      36.893836      36.893836      36.893836    
    704000   0.24006823    -8.2228673     -7.8627701      0.27363643     50218.233      36.893836      36.893836      36.893836    
    705000   0.24013243    -8.223601      -7.8634075      0.26573549     50218.233      36.893836      36.893836      36.893836    
    706000   0.23952453    -8.2235897     -7.864308       0.27838901     50218.233      36.893836      36.893836      36.893836    
    707000   0.24050929    -8.2245407     -7.8637819      0.25760752     50218.233      36.893836      36.893836      36.893836    
    708000   0.24176307    -8.2251754     -7.862536       0.25711921     50218.233      36.893836      36.893836      36.893836    
    709000   0.23982658    -8.2222375     -7.8625027      0.27685083     50218.233      36.893836      36.893836      36.893836    
    710000   0.24002999    -8.2226062     -7.8625664      0.27971354     50218.233      36.893836      36.893836      36.893836    
    711000   0.23959001    -8.2246017     -7.8652218      0.25577555     50218.233      36.893836      36.893836      36.893836    
    712000   0.23955119    -8.2250588     -7.8657371      0.25625754     50218.233      36.893836      36.893836      36.893836    
    713000   0.24102036    -8.2239147     -7.8623893      0.26319479     50218.233      36.893836      36.893836      36.893836    
    714000   0.24019121    -8.2207886     -7.8605069      0.27968424     50218.233      36.893836      36.893836      36.893836    
    715000   0.23909424    -8.223327      -7.8646908      0.26381205     50218.233      36.893836      36.893836      36.893836    
    716000   0.24027185    -8.2230891     -7.8626865      0.27206391     50218.233      36.893836      36.893836      36.893836    
    717000   0.23937258    -8.222989      -7.8639352      0.27027207     50218.233      36.893836      36.893836      36.893836    
    718000   0.24013447    -8.221342      -7.8611454      0.2854718      50218.233      36.893836      36.893836      36.893836    
    719000   0.24024191    -8.2235034     -7.8631456      0.26349881     50218.233      36.893836      36.893836      36.893836    
    720000   0.23928917    -8.2204698     -7.8615412      0.28266868     50218.233      36.893836      36.893836      36.893836    
    721000   0.23902525    -8.2223372     -7.8638045      0.2725478      50218.233      36.893836      36.893836      36.893836    
    722000   0.2401964     -8.2220646     -7.8617751      0.27601574     50218.233      36.893836      36.893836      36.893836    
    723000   0.23983176    -8.2240586     -7.864316       0.26077973     50218.233      36.893836      36.893836      36.893836    
    724000   0.23996483    -8.2230419     -7.8630998      0.26998041     50218.233      36.893836      36.893836      36.893836    
    725000   0.23842802    -8.2234989     -7.8658619      0.2668267      50218.233      36.893836      36.893836      36.893836    
    726000   0.24074489    -8.2231609     -7.8620487      0.27191082     50218.233      36.893836      36.893836      36.893836    
    727000   0.24104098    -8.2232312     -7.8616749      0.27543084     50218.233      36.893836      36.893836      36.893836    
    728000   0.24065183    -8.2233281     -7.8623555      0.2690801      50218.233      36.893836      36.893836      36.893836    
    729000   0.23929759    -8.2220176     -7.8630763      0.27751105     50218.233      36.893836      36.893836      36.893836    
    730000   0.24022863    -8.2232619     -7.8629241      0.26849154     50218.233      36.893836      36.893836      36.893836    
    731000   0.23939739    -8.225528      -7.8664371      0.25438231     50218.233      36.893836      36.893836      36.893836    
    732000   0.240942      -8.2238163     -7.8624084      0.26983227     50218.233      36.893836      36.893836      36.893836    
    733000   0.24096135    -8.2237405     -7.8623036      0.26545146     50218.233      36.893836      36.893836      36.893836    
    734000   0.23940123    -8.2232874     -7.8641906      0.27142878     50218.233      36.893836      36.893836      36.893836    
    735000   0.23988459    -8.2207558     -7.860934       0.28701841     50218.233      36.893836      36.893836      36.893836    
    736000   0.23834203    -8.2226773     -7.8651693      0.27572405     50218.233      36.893836      36.893836      36.893836    
    737000   0.240683      -8.2222442     -7.8612248      0.2819286      50218.233      36.893836      36.893836      36.893836    
    738000   0.24044862    -8.2225632     -7.8618954      0.28113403     50218.233      36.893836      36.893836      36.893836    
    739000   0.23898704    -8.2243262     -7.8658507      0.26529711     50218.233      36.893836      36.893836      36.893836    
    740000   0.23967625    -8.2232258     -7.8637166      0.27621618     50218.233      36.893836      36.893836      36.893836    
    741000   0.24003849    -8.2240911     -7.8640384      0.25615795     50218.233      36.893836      36.893836      36.893836    
    742000   0.24097635    -8.2235647     -7.8621053      0.26293585     50218.233      36.893836      36.893836      36.893836    
    743000   0.24100884    -8.2237265     -7.8622184      0.26332977     50218.233      36.893836      36.893836      36.893836    
    744000   0.23954425    -8.2239279     -7.8646166      0.25803643     50218.233      36.893836      36.893836      36.893836    
    745000   0.23972305    -8.2237148     -7.8641353      0.26840099     50218.233      36.893836      36.893836      36.893836    
    746000   0.24166514    -8.2247561     -7.8622636      0.25442871     50218.233      36.893836      36.893836      36.893836    
    747000   0.24081909    -8.2244594     -7.8632359      0.25464645     50218.233      36.893836      36.893836      36.893836    
    748000   0.24018554    -8.2233342     -7.863061       0.27040523     50218.233      36.893836      36.893836      36.893836    
    749000   0.23995045    -8.2244344     -7.8645139      0.25317795     50218.233      36.893836      36.893836      36.893836    
    750000   0.23967714    -8.2246711     -7.8651605      0.26093863     50218.233      36.893836      36.893836      36.893836    
    751000   0.23987611    -8.2228338     -7.8630247      0.27129478     50218.233      36.893836      36.893836      36.893836    
    752000   0.2404864     -8.2228042     -7.8620798      0.27581767     50218.233      36.893836      36.893836      36.893836    
    753000   0.23933844    -8.2236183     -7.8646158      0.26994017     50218.233      36.893836      36.893836      36.893836    
    754000   0.23978401    -8.2227121     -7.8630412      0.26908628     50218.233      36.893836      36.893836      36.893836    
    755000   0.23864016    -8.2232314     -7.8652763      0.2655863      50218.233      36.893836      36.893836      36.893836    
    756000   0.23831469    -8.2255155     -7.8680486      0.25481109     50218.233      36.893836      36.893836      36.893836    
    757000   0.23941566    -8.2225713     -7.8634529      0.27118858     50218.233      36.893836      36.893836      36.893836    
    758000   0.24006414    -8.2240137     -7.8639226      0.25807115     50218.233      36.893836      36.893836      36.893836    
    759000   0.24022358    -8.2241363     -7.863806       0.26157209     50218.233      36.893836      36.893836      36.893836    
    760000   0.23920614    -8.2224292     -7.8636251      0.26520468     50218.233      36.893836      36.893836      36.893836    
    761000   0.24008282    -8.221619      -7.8614998      0.27224862     50218.233      36.893836      36.893836      36.893836    
    762000   0.2403902     -8.2215151     -7.8609349      0.28561489     50218.233      36.893836      36.893836      36.893836    
    763000   0.23993086    -8.2227093     -7.8628182      0.26766933     50218.233      36.893836      36.893836      36.893836    
    764000   0.2402342     -8.2241929     -7.8638468      0.26603525     50218.233      36.893836      36.893836      36.893836    
    765000   0.24130923    -8.2217436     -7.8597848      0.27910114     50218.233      36.893836      36.893836      36.893836    
    766000   0.24010042    -8.225347      -7.8652015      0.25903019     50218.233      36.893836      36.893836      36.893836    
    767000   0.23976932    -8.2231408     -7.8634919      0.26466561     50218.233      36.893836      36.893836      36.893836    
    768000   0.23921181    -8.2229979     -7.8641853      0.27164219     50218.233      36.893836      36.893836      36.893836    
    769000   0.24009076    -8.223416      -7.863285       0.26815816     50218.233      36.893836      36.893836      36.893836    
    770000   0.23993427    -8.2237749     -7.8638786      0.26681116     50218.233      36.893836      36.893836      36.893836    
    771000   0.24018354    -8.2206834     -7.8604132      0.28745094     50218.233      36.893836      36.893836      36.893836    
    772000   0.24041271    -8.2219105     -7.8612965      0.27675709     50218.233      36.893836      36.893836      36.893836    
    773000   0.23802319    -8.2235442     -7.8665145      0.26462994     50218.233      36.893836      36.893836      36.893836    
    774000   0.23994385    -8.2225063     -7.8625956      0.27308759     50218.233      36.893836      36.893836      36.893836    
    775000   0.23927443    -8.2209751     -7.8620685      0.28773728     50218.233      36.893836      36.893836      36.893836    
    776000   0.24067377    -8.2231758     -7.8621703      0.27326381     50218.233      36.893836      36.893836      36.893836    
    777000   0.23900749    -8.22167       -7.8631639      0.28518735     50218.233      36.893836      36.893836      36.893836    
    778000   0.24094899    -8.2226532     -7.8612348      0.27928662     50218.233      36.893836      36.893836      36.893836    
    779000   0.2402256     -8.2241661     -7.8638328      0.25572711     50218.233      36.893836      36.893836      36.893836    
    780000   0.23988179    -8.2227465     -7.8629289      0.27002906     50218.233      36.893836      36.893836      36.893836    
    781000   0.24038088    -8.220479      -7.8599128      0.29242695     50218.233      36.893836      36.893836      36.893836    
    782000   0.23926997    -8.2236741     -7.8647743      0.25974265     50218.233      36.893836      36.893836      36.893836    
    783000   0.23983693    -8.2227677     -7.8630174      0.27776319     50218.233      36.893836      36.893836      36.893836    
    784000   0.23914626    -8.2215146     -7.8628004      0.28215112     50218.233      36.893836      36.893836      36.893836    
    785000   0.24077928    -8.2265724     -7.8654086      0.24974834     50218.233      36.893836      36.893836      36.893836    
    786000   0.24033395    -8.2227134     -7.8622176      0.27102193     50218.233      36.893836      36.893836      36.893836    
    787000   0.23968976    -8.2206374     -7.8611079      0.2853798      50218.233      36.893836      36.893836      36.893836    
    788000   0.24055121    -8.2248326     -7.864011       0.25521521     50218.233      36.893836      36.893836      36.893836    
    789000   0.24034991    -8.224794      -7.8642743      0.25764211     50218.233      36.893836      36.893836      36.893836    
    790000   0.24050633    -8.2251263     -7.8643719      0.25415931     50218.233      36.893836      36.893836      36.893836    
    791000   0.24074516    -8.224351      -7.8632384      0.2581583      50218.233      36.893836      36.893836      36.893836    
    792000   0.239738      -8.2237695     -7.8641676      0.26578686     50218.233      36.893836      36.893836      36.893836    
    793000   0.24029884    -8.2218318     -7.8613887      0.280451       50218.233      36.893836      36.893836      36.893836    
    794000   0.23897951    -8.223026      -7.8645619      0.27272801     50218.233      36.893836      36.893836      36.893836    
    795000   0.2400956     -8.2245427     -7.8644045      0.25763911     50218.233      36.893836      36.893836      36.893836    
    796000   0.24032899    -8.2244892     -7.8640009      0.25586545     50218.233      36.893836      36.893836      36.893836    
    797000   0.23903498    -8.2219038     -7.8633564      0.27238369     50218.233      36.893836      36.893836      36.893836    
    798000   0.24059753    -8.2243231     -7.863432       0.26688798     50218.233      36.893836      36.893836      36.893836    
    799000   0.24105745    -8.2239179     -7.8623368      0.2573385      50218.233      36.893836      36.893836      36.893836    
    800000   0.24055853    -8.225527      -7.8646943      0.25967237     50218.233      36.893836      36.893836      36.893836    
    801000   0.23993168    -8.2237488     -7.8638564      0.25935982     50218.233      36.893836      36.893836      36.893836    
    802000   0.24198887    -8.2243276     -7.8613495      0.26799862     50218.233      36.893836      36.893836      36.893836    
    803000   0.2395322     -8.2223155     -7.8630223      0.27098654     50218.233      36.893836      36.893836      36.893836    
    804000   0.2403634     -8.224048      -7.863508       0.25937129     50218.233      36.893836      36.893836      36.893836    
    805000   0.24036759    -8.2248001     -7.8642539      0.25469299     50218.233      36.893836      36.893836      36.893836    
    806000   0.24081616    -8.2238817     -7.8626626      0.26404636     50218.233      36.893836      36.893836      36.893836    
    807000   0.23999118    -8.2236905     -7.8637089      0.26333127     50218.233      36.893836      36.893836      36.893836    
    808000   0.23942932    -8.2240344     -7.8648955      0.26294073     50218.233      36.893836      36.893836      36.893836    
    809000   0.23896514    -8.2223127     -7.8638701      0.28359068     50218.233      36.893836      36.893836      36.893836    
    810000   0.24089605    -8.2224179     -7.861079       0.27578386     50218.233      36.893836      36.893836      36.893836    
    811000   0.24116654    -8.223892      -7.8621473      0.26305516     50218.233      36.893836      36.893836      36.893836    
    812000   0.2394019     -8.2228185     -7.8637208      0.27350806     50218.233      36.893836      36.893836      36.893836    
    813000   0.23998083    -8.223213      -7.8632469      0.26489571     50218.233      36.893836      36.893836      36.893836    
    814000   0.23927626    -8.2216029     -7.8626936      0.2772403      50218.233      36.893836      36.893836      36.893836    
    815000   0.2405858     -8.2214764     -7.8606028      0.28277154     50218.233      36.893836      36.893836      36.893836    
    816000   0.24089538    -8.2240008     -7.8626628      0.26846378     50218.233      36.893836      36.893836      36.893836    
    817000   0.24128414    -8.2216475     -7.8597264      0.28028135     50218.233      36.893836      36.893836      36.893836    
    818000   0.23998853    -8.2236901     -7.8637124      0.26259909     50218.233      36.893836      36.893836      36.893836    
    819000   0.23877978    -8.223806      -7.8656414      0.26365982     50218.233      36.893836      36.893836      36.893836    
    820000   0.23979865    -8.224995      -7.8653021      0.25572407     50218.233      36.893836      36.893836      36.893836    
    821000   0.23917362    -8.2230169     -7.8642616      0.27672111     50218.233      36.893836      36.893836      36.893836    
    822000   0.23976959    -8.2199433     -7.860294       0.29042067     50218.233      36.893836      36.893836      36.893836    
    823000   0.23974177    -8.2215057     -7.8618981      0.2833481      50218.233      36.893836      36.893836      36.893836    
    824000   0.23946       -8.2219135     -7.8627286      0.27334351     50218.233      36.893836      36.893836      36.893836    
    825000   0.24099882    -8.2228425     -7.8613494      0.28232831     50218.233      36.893836      36.893836      36.893836    
    826000   0.23944032    -8.2209779     -7.8618226      0.27883285     50218.233      36.893836      36.893836      36.893836    
    827000   0.23942813    -8.2235385     -7.8644014      0.26644451     50218.233      36.893836      36.893836      36.893836    
    828000   0.2399245     -8.222995      -7.8631133      0.27774045     50218.233      36.893836      36.893836      36.893836    
    829000   0.23934478    -8.2222478     -7.8632358      0.27340437     50218.233      36.893836      36.893836      36.893836    
    830000   0.2401714     -8.2232637     -7.8630117      0.26891791     50218.233      36.893836      36.893836      36.893836    
    831000   0.24078402    -8.2241893     -7.8630184      0.26009895     50218.233      36.893836      36.893836      36.893836    
    832000   0.2389483     -8.222056      -7.8636387      0.27534        50218.233      36.893836      36.893836      36.893836    
    833000   0.24000107    -8.2224567     -7.8624602      0.27709913     50218.233      36.893836      36.893836      36.893836    
    834000   0.24089184    -8.2234348     -7.8621022      0.27091009     50218.233      36.893836      36.893836      36.893836    
    835000   0.24037848    -8.2255866     -7.865024       0.24830377     50218.233      36.893836      36.893836      36.893836    
    836000   0.23974061    -8.2218491     -7.8622433      0.27558404     50218.233      36.893836      36.893836      36.893836    
    837000   0.24048748    -8.2220954     -7.8613693      0.28641637     50218.233      36.893836      36.893836      36.893836    
    838000   0.2388952     -8.2224261     -7.8640884      0.27227894     50218.233      36.893836      36.893836      36.893836    
    839000   0.24006175    -8.2242198     -7.8641323      0.25548918     50218.233      36.893836      36.893836      36.893836    
    840000   0.23905483    -8.2239845     -7.8654073      0.25405116     50218.233      36.893836      36.893836      36.893836    
    841000   0.23965788    -8.2251468     -7.8656651      0.25642491     50218.233      36.893836      36.893836      36.893836    
    842000   0.23887255    -8.2265512     -7.8682475      0.24297574     50218.233      36.893836      36.893836      36.893836    
    843000   0.24013476    -8.2242907     -7.8640937      0.25403738     50218.233      36.893836      36.893836      36.893836    
    844000   0.24002014    -8.2241971     -7.8641721      0.26022714     50218.233      36.893836      36.893836      36.893836    
    845000   0.24000174    -8.2237947     -7.8637972      0.26830279     50218.233      36.893836      36.893836      36.893836    
    846000   0.24083771    -8.2234711     -7.8622197      0.26437164     50218.233      36.893836      36.893836      36.893836    
    847000   0.24077863    -8.2226115     -7.8614486      0.26752898     50218.233      36.893836      36.893836      36.893836    
    848000   0.24064755    -8.2238479     -7.8628817      0.26082475     50218.233      36.893836      36.893836      36.893836    
    849000   0.23989559    -8.2230437     -7.8632054      0.26397893     50218.233      36.893836      36.893836      36.893836    
    850000   0.23912044    -8.2255552     -7.8668797      0.24938663     50218.233      36.893836      36.893836      36.893836    
    851000   0.24046067    -8.2242252     -7.8635393      0.26234493     50218.233      36.893836      36.893836      36.893836    
    852000   0.23993122    -8.2217487     -7.861857       0.27618256     50218.233      36.893836      36.893836      36.893836    
    853000   0.23907047    -8.2247838     -7.8661832      0.24997838     50218.233      36.893836      36.893836      36.893836    
    854000   0.24065634    -8.2228765     -7.8618971      0.26912363     50218.233      36.893836      36.893836      36.893836    
    855000   0.24107957    -8.2240199     -7.8624057      0.26462872     50218.233      36.893836      36.893836      36.893836    
    856000   0.23997693    -8.2252321     -7.8652718      0.25798357     50218.233      36.893836      36.893836      36.893836    
    857000   0.2389994     -8.2227625     -7.8642685      0.26955401     50218.233      36.893836      36.893836      36.893836    
    858000   0.23914587    -8.224994      -7.8662803      0.25019668     50218.233      36.893836      36.893836      36.893836    
    859000   0.24011184    -8.2235832     -7.8634206      0.27264207     50218.233      36.893836      36.893836      36.893836    
    860000   0.23924611    -8.2219358     -7.8630717      0.27769498     50218.233      36.893836      36.893836      36.893836    
    861000   0.24039165    -8.2235724     -7.8629901      0.26404266     50218.233      36.893836      36.893836      36.893836    
    862000   0.23926689    -8.2229293     -7.8640341      0.27394364     50218.233      36.893836      36.893836      36.893836    
    863000   0.23987325    -8.2231794     -7.8633746      0.26482418     50218.233      36.893836      36.893836      36.893836    
    864000   0.23969439    -8.2224438     -7.8629073      0.27066469     50218.233      36.893836      36.893836      36.893836    
    865000   0.23934038    -8.2241841     -7.8651786      0.2597768      50218.233      36.893836      36.893836      36.893836    
    866000   0.23926125    -8.2225391     -7.8636524      0.27511479     50218.233      36.893836      36.893836      36.893836    
    867000   0.24022411    -8.2224245     -7.8620935      0.27554862     50218.233      36.893836      36.893836      36.893836    
    868000   0.24101555    -8.2227982     -7.86128        0.27947215     50218.233      36.893836      36.893836      36.893836    
    869000   0.23968703    -8.2234805     -7.863955       0.26210976     50218.233      36.893836      36.893836      36.893836    
    870000   0.23985486    -8.2211317     -7.8613545      0.28043826     50218.233      36.893836      36.893836      36.893836    
    871000   0.24052638    -8.2229008     -7.8621164      0.26951308     50218.233      36.893836      36.893836      36.893836    
    872000   0.24060006    -8.2237065     -7.8628115      0.2686367      50218.233      36.893836      36.893836      36.893836    
    873000   0.24096805    -8.221229      -7.859782       0.27861408     50218.233      36.893836      36.893836      36.893836    
    874000   0.2402312     -8.2213345     -7.8609929      0.2804233      50218.233      36.893836      36.893836      36.893836    
    875000   0.240239      -8.2223037     -7.8619504      0.28040283     50218.233      36.893836      36.893836      36.893836    
    876000   0.24080144    -8.2247143     -7.8635173      0.26353272     50218.233      36.893836      36.893836      36.893836    
    877000   0.24137772    -8.2221021     -7.8600407      0.28382067     50218.233      36.893836      36.893836      36.893836    
    878000   0.23920116    -8.2225399     -7.8637433      0.27566224     50218.233      36.893836      36.893836      36.893836    
    879000   0.2395805     -8.224044      -7.8646784      0.26770707     50218.233      36.893836      36.893836      36.893836    
    880000   0.24020412    -8.2214824     -7.8611814      0.27759684     50218.233      36.893836      36.893836      36.893836    
    881000   0.2393995     -8.2222872     -7.8631931      0.28447853     50218.233      36.893836      36.893836      36.893836    
    882000   0.23864115    -8.2231792     -7.8652226      0.2672101      50218.233      36.893836      36.893836      36.893836    
    883000   0.24009429    -8.2218644     -7.8617281      0.27865045     50218.233      36.893836      36.893836      36.893836    
    884000   0.24016525    -8.2232386     -7.8629959      0.27063293     50218.233      36.893836      36.893836      36.893836    
    885000   0.23894494    -8.2255223     -7.86711        0.2533954      50218.233      36.893836      36.893836      36.893836    
    886000   0.240751      -8.2247103     -7.863589       0.26342906     50218.233      36.893836      36.893836      36.893836    
    887000   0.24055259    -8.2251345     -7.8643108      0.25239621     50218.233      36.893836      36.893836      36.893836    
    888000   0.23950318    -8.2247901     -7.8655404      0.24815724     50218.233      36.893836      36.893836      36.893836    
    889000   0.23961774    -8.2236354     -7.8642139      0.26125055     50218.233      36.893836      36.893836      36.893836    
    890000   0.23915341    -8.2216756     -7.8629506      0.28188437     50218.233      36.893836      36.893836      36.893836    
    891000   0.23932573    -8.2240733     -7.8650898      0.259026       50218.233      36.893836      36.893836      36.893836    
    892000   0.23950135    -8.2246591     -7.8654122      0.2552635      50218.233      36.893836      36.893836      36.893836    
    893000   0.23940679    -8.2245801     -7.865475       0.25895039     50218.233      36.893836      36.893836      36.893836    
    894000   0.24073497    -8.2224621     -7.8613648      0.27106784     50218.233      36.893836      36.893836      36.893836    
    895000   0.2383816     -8.226063      -7.8684957      0.24865072     50218.233      36.893836      36.893836      36.893836    
    896000   0.23938396    -8.2232709     -7.8642         0.27502717     50218.233      36.893836      36.893836      36.893836    
    897000   0.24054156    -8.2234679     -7.8626607      0.26622175     50218.233      36.893836      36.893836      36.893836    
    898000   0.24044849    -8.2257321     -7.8650645      0.24315793     50218.233      36.893836      36.893836      36.893836    
    899000   0.24037279    -8.222838      -7.862284       0.27642965     50218.233      36.893836      36.893836      36.893836    
    900000   0.24049609    -8.224514      -7.863775       0.26078368     50218.233      36.893836      36.893836      36.893836    
    901000   0.23903781    -8.2243624     -7.8658108      0.25704537     50218.233      36.893836      36.893836      36.893836    
    902000   0.24020356    -8.2234419     -7.8631416      0.27237823     50218.233      36.893836      36.893836      36.893836    
    903000   0.24010584    -8.2243081     -7.8641545      0.26728169     50218.233      36.893836      36.893836      36.893836    
    904000   0.239553      -8.2232046     -7.8638802      0.27412109     50218.233      36.893836      36.893836      36.893836    
    905000   0.24035567    -8.2236247     -7.8630963      0.27028415     50218.233      36.893836      36.893836      36.893836    
    906000   0.23963089    -8.2248632     -7.8654219      0.25976059     50218.233      36.893836      36.893836      36.893836    
    907000   0.23928488    -8.2244776     -7.8655554      0.261298       50218.233      36.893836      36.893836      36.893836    
    908000   0.23992422    -8.2240112     -7.8641299      0.25912293     50218.233      36.893836      36.893836      36.893836    
    909000   0.23907881    -8.2252314     -7.8666183      0.25165676     50218.233      36.893836      36.893836      36.893836    
    910000   0.23932863    -8.2246318     -7.8656439      0.26310875     50218.233      36.893836      36.893836      36.893836    
    911000   0.23946757    -8.2236726     -7.8644764      0.26551815     50218.233      36.893836      36.893836      36.893836    
    912000   0.23911035    -8.223746      -7.8650856      0.26623367     50218.233      36.893836      36.893836      36.893836    
    913000   0.23940328    -8.2237341     -7.8646343      0.25214308     50218.233      36.893836      36.893836      36.893836    
    914000   0.23980168    -8.2235802     -7.8638828      0.26789975     50218.233      36.893836      36.893836      36.893836    
    915000   0.2396115     -8.2247239     -7.8653118      0.25759611     50218.233      36.893836      36.893836      36.893836    
    916000   0.24032203    -8.2242741     -7.8637962      0.26402277     50218.233      36.893836      36.893836      36.893836    
    917000   0.23991933    -8.2232159     -7.863342       0.27132269     50218.233      36.893836      36.893836      36.893836    
    918000   0.24017983    -8.2227072     -7.8624426      0.27053712     50218.233      36.893836      36.893836      36.893836    
    919000   0.23926495    -8.2225804     -7.8636881      0.27335622     50218.233      36.893836      36.893836      36.893836    
    920000   0.23911498    -8.220314      -7.8616466      0.29031027     50218.233      36.893836      36.893836      36.893836    
    921000   0.23860972    -8.2240062     -7.8660967      0.26132765     50218.233      36.893836      36.893836      36.893836    
    922000   0.23809045    -8.220941      -7.8638105      0.27971929     50218.233      36.893836      36.893836      36.893836    
    923000   0.23887131    -8.2225039     -7.8642021      0.27766191     50218.233      36.893836      36.893836      36.893836    
    924000   0.2400542     -8.222974      -7.8628978      0.27200605     50218.233      36.893836      36.893836      36.893836    
    925000   0.23889663    -8.2235477     -7.8652079      0.26087297     50218.233      36.893836      36.893836      36.893836    
    926000   0.24049267    -8.2216097     -7.8608758      0.28392179     50218.233      36.893836      36.893836      36.893836    
    927000   0.23983649    -8.2208847     -7.8611351      0.28521576     50218.233      36.893836      36.893836      36.893836    
    928000   0.24053335    -8.2224562     -7.8616613      0.2739789      50218.233      36.893836      36.893836      36.893836    
    929000   0.24058552    -8.2231263     -7.8622532      0.27612632     50218.233      36.893836      36.893836      36.893836    
    930000   0.23961862    -8.2223797     -7.8629569      0.27788034     50218.233      36.893836      36.893836      36.893836    
    931000   0.24079831    -8.2235221     -7.8623298      0.26731272     50218.233      36.893836      36.893836      36.893836    
    932000   0.24096827    -8.2230678     -7.8616206      0.27638379     50218.233      36.893836      36.893836      36.893836    
    933000   0.23994738    -8.2217007     -7.8617847      0.27710822     50218.233      36.893836      36.893836      36.893836    
    934000   0.23972694    -8.2236975     -7.8641122      0.26250511     50218.233      36.893836      36.893836      36.893836    
    935000   0.24050444    -8.2235105     -7.862759       0.26452727     50218.233      36.893836      36.893836      36.893836    
    936000   0.24087254    -8.222323      -7.8610194      0.27331213     50218.233      36.893836      36.893836      36.893836    
    937000   0.24094259    -8.2255176     -7.8641089      0.25056144     50218.233      36.893836      36.893836      36.893836    
    938000   0.24036871    -8.2229704     -7.8624225      0.26780243     50218.233      36.893836      36.893836      36.893836    
    939000   0.24022211    -8.2248549     -7.8645269      0.2536455      50218.233      36.893836      36.893836      36.893836    
    940000   0.24012587    -8.2241856     -7.8640019      0.263896       50218.233      36.893836      36.893836      36.893836    
    941000   0.23977213    -8.2216674     -7.8620143      0.27419863     50218.233      36.893836      36.893836      36.893836    
    942000   0.2388507     -8.2227647     -7.8644938      0.26420516     50218.233      36.893836      36.893836      36.893836    
    943000   0.23928884    -8.224273      -7.8653449      0.26621373     50218.233      36.893836      36.893836      36.893836    
    944000   0.24018684    -8.2233921     -7.863117       0.27010329     50218.233      36.893836      36.893836      36.893836    
    945000   0.23994003    -8.2235596     -7.8636547      0.27335122     50218.233      36.893836      36.893836      36.893836    
    946000   0.24037787    -8.2235616     -7.8629999      0.26782585     50218.233      36.893836      36.893836      36.893836    
    947000   0.24000206    -8.2255055     -7.8655075      0.25817548     50218.233      36.893836      36.893836      36.893836    
    948000   0.24083331    -8.2229886     -7.8617438      0.26281946     50218.233      36.893836      36.893836      36.893836    
    949000   0.23998849    -8.2252002     -7.8652225      0.25585288     50218.233      36.893836      36.893836      36.893836    
    950000   0.24072771    -8.2239507     -7.8628643      0.26282112     50218.233      36.893836      36.893836      36.893836    
    951000   0.23897706    -8.2246321     -7.8661716      0.26376189     50218.233      36.893836      36.893836      36.893836    
    952000   0.2408125     -8.2227341     -7.8615205      0.26934492     50218.233      36.893836      36.893836      36.893836    
    953000   0.23876231    -8.2241804     -7.866042       0.25893237     50218.233      36.893836      36.893836      36.893836    
    954000   0.24004178    -8.2249158     -7.8648583      0.2542514      50218.233      36.893836      36.893836      36.893836    
    955000   0.23861704    -8.2222052     -7.8642848      0.26863404     50218.233      36.893836      36.893836      36.893836    
    956000   0.23960455    -8.2235164     -7.8641147      0.2627797      50218.233      36.893836      36.893836      36.893836    
    957000   0.23976135    -8.224885      -7.8652481      0.25670678     50218.233      36.893836      36.893836      36.893836    
    958000   0.23999424    -8.2240101     -7.8640239      0.26105463     50218.233      36.893836      36.893836      36.893836    
    959000   0.23945952    -8.2247712     -7.865587       0.25373129     50218.233      36.893836      36.893836      36.893836    
    960000   0.24006905    -8.2250098     -7.8649113      0.26026534     50218.233      36.893836      36.893836      36.893836    
    961000   0.23873226    -8.2251488     -7.8670556      0.25735767     50218.233      36.893836      36.893836      36.893836    
    962000   0.24050311    -8.224068      -7.8633184      0.26279774     50218.233      36.893836      36.893836      36.893836    
    963000   0.24038292    -8.2238437     -7.8632744      0.26765518     50218.233      36.893836      36.893836      36.893836    
    964000   0.24056695    -8.2244683     -7.863623       0.25369267     50218.233      36.893836      36.893836      36.893836    
    965000   0.24074711    -8.2235881     -7.8624726      0.26928002     50218.233      36.893836      36.893836      36.893836    
    966000   0.23927402    -8.2238209     -7.8649149      0.2651531      50218.233      36.893836      36.893836      36.893836    
    967000   0.24123744    -8.2226238     -7.8607728      0.27605186     50218.233      36.893836      36.893836      36.893836    
    968000   0.23948378    -8.2238866     -7.8646661      0.25869067     50218.233      36.893836      36.893836      36.893836    
    969000   0.23989482    -8.2244662     -7.8646291      0.26021813     50218.233      36.893836      36.893836      36.893836    
    970000   0.24128563    -8.2240125     -7.8620892      0.2668049      50218.233      36.893836      36.893836      36.893836    
    971000   0.2390217     -8.2216796     -7.8631521      0.28084576     50218.233      36.893836      36.893836      36.893836    
    972000   0.23980769    -8.2222637     -7.8625572      0.28068455     50218.233      36.893836      36.893836      36.893836    
    973000   0.23916272    -8.2231801     -7.8644411      0.26807066     50218.233      36.893836      36.893836      36.893836    
    974000   0.23822014    -8.2228076     -7.8654824      0.26862982     50218.233      36.893836      36.893836      36.893836    
    975000   0.23984396    -8.222125      -7.8623642      0.28464133     50218.233      36.893836      36.893836      36.893836    
    976000   0.24017546    -8.2210158     -7.8607577      0.28404767     50218.233      36.893836      36.893836      36.893836    
    977000   0.23885195    -8.2225765     -7.8643036      0.27782644     50218.233      36.893836      36.893836      36.893836    
    978000   0.24004797    -8.2233704     -7.8633036      0.27431414     50218.233      36.893836      36.893836      36.893836    
    979000   0.23832931    -8.2236046     -7.8661157      0.27014345     50218.233      36.893836      36.893836      36.893836    
    980000   0.24078851    -8.2232443     -7.8620667      0.27185966     50218.233      36.893836      36.893836      36.893836    
    981000   0.24019339    -8.2238684     -7.8635834      0.26167767     50218.233      36.893836      36.893836      36.893836    
    982000   0.2384891     -8.2231296     -7.8654011      0.25887287     50218.233      36.893836      36.893836      36.893836    
    983000   0.24057247    -8.2242667     -7.8634131      0.26161991     50218.233      36.893836      36.893836      36.893836    
    984000   0.24059831    -8.2229254     -7.8620331      0.2750372      50218.233      36.893836      36.893836      36.893836    
    985000   0.23964853    -8.2233882     -7.8639205      0.26689185     50218.233      36.893836      36.893836      36.893836    
    986000   0.23876958    -8.2233806     -7.8652313      0.26073531     50218.233      36.893836      36.893836      36.893836    
    987000   0.23967447    -8.2252874     -7.8657808      0.25112414     50218.233      36.893836      36.893836      36.893836    
    988000   0.24097357    -8.2230807     -7.8616255      0.26938451     50218.233      36.893836      36.893836      36.893836    
    989000   0.24131782    -8.2218934     -7.8599218      0.27683912     50218.233      36.893836      36.893836      36.893836    
    990000   0.24073278    -8.2231143     -7.8620203      0.26789838     50218.233      36.893836      36.893836      36.893836    
    991000   0.2404109     -8.2238002     -7.863189       0.25617805     50218.233      36.893836      36.893836      36.893836    
    992000   0.24017899    -8.2239765     -7.8637131      0.26265446     50218.233      36.893836      36.893836      36.893836    
    993000   0.23999989    -8.2250801     -7.8650854      0.25904492     50218.233      36.893836      36.893836      36.893836    
    994000   0.24057502    -8.2232165     -7.8623591      0.27440528     50218.233      36.893836      36.893836      36.893836    
    995000   0.23959752    -8.2231348     -7.8637437      0.26138617     50218.233      36.893836      36.893836      36.893836    
    996000   0.24033576    -8.2246396     -7.8641411      0.25237788     50218.233      36.893836      36.893836      36.893836    
    997000   0.23999824    -8.2237229     -7.8637307      0.2643043      50218.233      36.893836      36.893836      36.893836    
    998000   0.23936202    -8.2238191     -7.8647811      0.26803033     50218.233      36.893836      36.893836      36.893836    
    999000   0.24011185    -8.2233777     -7.863215       0.26616154     50218.233      36.893836      36.893836      36.893836    
   1000000   0.23896374    -8.2235964     -7.8651559      0.26235983     50218.233      36.893836      36.893836      36.893836    
Loop time of 1492.31 on 4 procs for 1000000 steps with 70304 atoms

Performance: 578967.631 tau/day, 670.101 timesteps/s, 47.111 Matom-step/s
95.5% CPU use with 4 MPI tasks x 1 OpenMP threads

MPI task timing breakdown:
Section |  min time  |  avg time  |  max time  |%varavg| %total
---------------------------------------------------------------
Pair    | 417.35     | 518.48     | 652.04     | 398.3 | 34.74
Neigh   | 4.3191     | 4.6971     | 5.0142     |  13.0 |  0.31
Comm    | 211.26     | 213.89     | 217.4      |  15.2 | 14.33
Output  | 0.19935    | 0.20851    | 0.228      |   2.5 |  0.01
Modify  | 544.54     | 675.79     | 776.01     | 343.8 | 45.28
Other   |            | 79.25      |            |       |  5.31

Nlocal:          17576 ave       17639 max       17528 min
Histogram: 1 0 0 1 1 0 0 0 0 1
Nghost:          16829 ave       16857 max       16808 min
Histogram: 1 0 1 0 1 0 0 0 0 1
Neighs:              0 ave           0 max           0 min
Histogram: 4 0 0 0 0 0 0 0 0 0

Total # of neighbors = 0
Ave neighs/atom = 0
Neighbor list builds = 145378
Dangerous builds = 0
clear
OMP_NUM_THREADS environment is not set. Defaulting to 1 thread. (src/comm.cpp:98)
  using 1 OpenMP thread(s) per MPI task
package gpu 0
jump dms220.lmp

variable T equal 220
# T = 1000* (temp in LJ unit)
variable f equal 1000
log log.${T}
log log.220
