variable TLJ equal (${T}/1000)
variable TLJ equal (280/1000)
variable NCyle equal 10
variable iStep equal (${f})
variable iStep equal (1000)
variable dumpStep equal (${f}*100)
variable dumpStep equal (1000*100)
variable runStep equal (${f}*100*${NCyle})
variable runStep equal (1000*100*${NCyle})
variable runStep equal (1000*100*10)

units       lj
atom_style  atomic
dimension 3
boundary     p p p
pair_style  lj/cut 2.5
read_data  ../data/T${T}.dat
read_data  ../data/T280.dat
Reading data file ...
  orthogonal box = (0.97250269 0.97250269 0.97250269) to (37.866338 37.866338 37.866338)
  1 by 2 by 2 MPI processor grid
  reading atoms ...
  70304 atoms
  reading velocities ...
  70304 velocities
  read_data CPU = 0.189 seconds
change_box all triclinic
Changing box ...
  triclinic box = (0.97250269 0.97250269 0.97250269) to (37.866338 37.866338 37.866338) with tilt (0 0 0)
mass 1 1
mass 2 1
pair_modify shift yes
pair_coeff  1 1 1 1
pair_coeff  1 2 1.5 0.8
pair_coeff  2 2 0.5 0.88


timestep 0.01
thermo ${iStep}
thermo 1000
reset_timestep 0
thermo_style custom step temp pe etotal press vol lx ly lz
fix             1 all nvt temp ${TLJ}  ${TLJ}  0.1
fix             1 all nvt temp 0.28  ${TLJ}  0.1
fix             1 all nvt temp 0.28  0.28  0.1
thermo_modify flush yes

fix dsf all deform 1 xy  wiggle 0.5  ${f}   units box
fix dsf all deform 1 xy  wiggle 0.5  1000   units box
fix ps1 all ave/time 1 1 ${iStep} c_thermo_press[1] c_thermo_press[2]  c_thermo_press[3] c_thermo_press[4]  c_thermo_press[5] c_thermo_press[6]  file  stress.${T}
fix ps1 all ave/time 1 1 1000 c_thermo_press[1] c_thermo_press[2]  c_thermo_press[3] c_thermo_press[4]  c_thermo_press[5] c_thermo_press[6]  file  stress.${T}
fix ps1 all ave/time 1 1 1000 c_thermo_press[1] c_thermo_press[2]  c_thermo_press[3] c_thermo_press[4]  c_thermo_press[5] c_thermo_press[6]  file  stress.280
dump            1 all custom ${dumpStep} dump.${T} id type x y z
dump            1 all custom 100000 dump.${T} id type x y z
dump            1 all custom 100000 dump.280 id type x y z
dump_modify 1 sort id
fix nodrift all momentum 1  linear 1 1 1
fix com_seed all recenter INIT INIT INIT shift all
run ${runStep}
run 1000000
Generated 0 of 1 mixed pair_coeff terms from geometric mixing rule
Per MPI rank memory allocation (min/avg/max) = 8.612 | 8.614 | 8.617 Mbytes
   Step          Temp          PotEng         TotEng         Press          Volume           Lx             Ly             Lz      
         0   0.2807277     -8.167219      -7.7461335      0.74754833     50218.233      36.893836      36.893836      36.893836    
      1000   0.28032865    -8.1664666     -7.7459796      0.73963379     50218.233      36.893836      36.893836      36.893836    
      2000   0.28021915    -8.1646529     -7.7443301      0.75453852     50218.233      36.893836      36.893836      36.893836    
      3000   0.27942694    -8.1693116     -7.7501771      0.7232274      50218.233      36.893836      36.893836      36.893836    
      4000   0.27905358    -8.1670173     -7.7484429      0.7385833      50218.233      36.893836      36.893836      36.893836    
      5000   0.27981877    -8.1669273     -7.7472051      0.743573       50218.233      36.893836      36.893836      36.893836    
      6000   0.28048384    -8.1667263     -7.7460065      0.74407494     50218.233      36.893836      36.893836      36.893836    
      7000   0.2806971     -8.1670197     -7.7459801      0.73573596     50218.233      36.893836      36.893836      36.893836    
      8000   0.27984523    -8.1664311     -7.7466693      0.74228002     50218.233      36.893836      36.893836      36.893836    
      9000   0.28044051    -8.1625313     -7.7418765      0.77698188     50218.233      36.893836      36.893836      36.893836    
     10000   0.28005357    -8.1636941     -7.7436198      0.77250086     50218.233      36.893836      36.893836      36.893836    
     11000   0.27913478    -8.1651463     -7.7464501      0.75471285     50218.233      36.893836      36.893836      36.893836    
     12000   0.2804655     -8.1637264     -7.7430341      0.76951617     50218.233      36.893836      36.893836      36.893836    
     13000   0.28051919    -8.1665136     -7.7457408      0.73544833     50218.233      36.893836      36.893836      36.893836    
     14000   0.27972226    -8.1636457     -7.7440683      0.75888592     50218.233      36.893836      36.893836      36.893836    
     15000   0.27945481    -8.1661622     -7.7469859      0.74469028     50218.233      36.893836      36.893836      36.893836    
     16000   0.27932106    -8.1655968     -7.7466212      0.75456416     50218.233      36.893836      36.893836      36.893836    
     17000   0.27850111    -8.164218      -7.7464723      0.75686037     50218.233      36.893836      36.893836      36.893836    
     18000   0.28084272    -8.1634594     -7.7422013      0.77187305     50218.233      36.893836      36.893836      36.893836    
     19000   0.28020963    -8.1632406     -7.7429321      0.76828085     50218.233      36.893836      36.893836      36.893836    
     20000   0.28035669    -8.1638749     -7.7433459      0.75602712     50218.233      36.893836      36.893836      36.893836    
     21000   0.2811464     -8.1638116     -7.742098       0.76294935     50218.233      36.893836      36.893836      36.893836    
     22000   0.28111367    -8.1645915     -7.742927       0.75823992     50218.233      36.893836      36.893836      36.893836    
     23000   0.28077004    -8.1657795     -7.7446304      0.75237462     50218.233      36.893836      36.893836      36.893836    
     24000   0.27901       -8.1624012     -7.7438922      0.77625649     50218.233      36.893836      36.893836      36.893836    
     25000   0.28042779    -8.1641587     -7.743523       0.76359032     50218.233      36.893836      36.893836      36.893836    
     26000   0.27965396    -8.1637934     -7.7443184      0.75979293     50218.233      36.893836      36.893836      36.893836    
     27000   0.28101645    -8.1632605     -7.7417418      0.7710415      50218.233      36.893836      36.893836      36.893836    
     28000   0.28022064    -8.1641755     -7.7438506      0.76201891     50218.233      36.893836      36.893836      36.893836    
     29000   0.28138497    -8.164124      -7.7420526      0.76332909     50218.233      36.893836      36.893836      36.893836    
     30000   0.27897636    -8.1625764     -7.7441178      0.76724071     50218.233      36.893836      36.893836      36.893836    
     31000   0.27970827    -8.1628506     -7.7432942      0.7718499      50218.233      36.893836      36.893836      36.893836    
     32000   0.2804455     -8.1615599     -7.7408976      0.78803688     50218.233      36.893836      36.893836      36.893836    
     33000   0.2804649     -8.1656998     -7.7450085      0.74340618     50218.233      36.893836      36.893836      36.893836    
     34000   0.27967376    -8.1656649     -7.7461603      0.74429395     50218.233      36.893836      36.893836      36.893836    
     35000   0.28011257    -8.1647224     -7.7445595      0.75615726     50218.233      36.893836      36.893836      36.893836    
     36000   0.27968175    -8.1637469     -7.7442302      0.77045781     50218.233      36.893836      36.893836      36.893836    
     37000   0.28024752    -8.166042      -7.7456767      0.74331088     50218.233      36.893836      36.893836      36.893836    
     38000   0.27891485    -8.1654929     -7.7471266      0.74881651     50218.233      36.893836      36.893836      36.893836    
     39000   0.28047704    -8.166125      -7.7454154      0.74953571     50218.233      36.893836      36.893836      36.893836    
     40000   0.2791392     -8.163908      -7.7452052      0.76588151     50218.233      36.893836      36.893836      36.893836    
     41000   0.28042827    -8.164042      -7.7434055      0.7585776      50218.233      36.893836      36.893836      36.893836    
     42000   0.27808423    -8.1669759     -7.7498555      0.73189463     50218.233      36.893836      36.893836      36.893836    
     43000   0.2801159     -8.1666503     -7.7464824      0.74366133     50218.233      36.893836      36.893836      36.893836    
     44000   0.27923516    -8.167515      -7.7486683      0.7318196      50218.233      36.893836      36.893836      36.893836    
     45000   0.28108354    -8.1642666     -7.7426472      0.75974222     50218.233      36.893836      36.893836      36.893836    
     46000   0.27951418    -8.1656363     -7.7463709      0.74915152     50218.233      36.893836      36.893836      36.893836    
     47000   0.27957073    -8.1656477     -7.7462976      0.74661641     50218.233      36.893836      36.893836      36.893836    
     48000   0.27892976    -8.1651117     -7.746723       0.76004487     50218.233      36.893836      36.893836      36.893836    
     49000   0.27958669    -8.1641245     -7.7447504      0.76782712     50218.233      36.893836      36.893836      36.893836    
     50000   0.27927185    -8.1644597     -7.7455579      0.7576828      50218.233      36.893836      36.893836      36.893836    
     51000   0.28187347    -8.1650591     -7.742255       0.75085408     50218.233      36.893836      36.893836      36.893836    
     52000   0.27914764    -8.1659486     -7.7472331      0.75112536     50218.233      36.893836      36.893836      36.893836    
     53000   0.28098173    -8.1669782     -7.7455116      0.74195241     50218.233      36.893836      36.893836      36.893836    
     54000   0.28028429    -8.1640233     -7.7436029      0.76113922     50218.233      36.893836      36.893836      36.893836    
     55000   0.27913703    -8.1662023     -7.7475027      0.75169868     50218.233      36.893836      36.893836      36.893836    
     56000   0.27974953    -8.164855      -7.7452367      0.75162332     50218.233      36.893836      36.893836      36.893836    
     57000   0.27885928    -8.1658463     -7.7475633      0.7429859      50218.233      36.893836      36.893836      36.893836    
     58000   0.28222075    -8.1651333     -7.7418082      0.76026207     50218.233      36.893836      36.893836      36.893836    
     59000   0.28140906    -8.1660036     -7.743896       0.75153211     50218.233      36.893836      36.893836      36.893836    
     60000   0.27940813    -8.1671039     -7.7479977      0.73776767     50218.233      36.893836      36.893836      36.893836    
     61000   0.27864724    -8.1654766     -7.7475117      0.75169024     50218.233      36.893836      36.893836      36.893836    
     62000   0.27920561    -8.1646464     -7.7458439      0.75914895     50218.233      36.893836      36.893836      36.893836    
     63000   0.28162513    -8.1651786     -7.7427469      0.75871271     50218.233      36.893836      36.893836      36.893836    
     64000   0.27930006    -8.1673721     -7.748428       0.73844088     50218.233      36.893836      36.893836      36.893836    
     65000   0.27946602    -8.1663377     -7.7471447      0.74362264     50218.233      36.893836      36.893836      36.893836    
     66000   0.27900165    -8.1662379     -7.7477414      0.747202       50218.233      36.893836      36.893836      36.893836    
     67000   0.27911836    -8.1641869     -7.7455153      0.75783946     50218.233      36.893836      36.893836      36.893836    
     68000   0.28001145    -8.1640093     -7.7439981      0.7598405      50218.233      36.893836      36.893836      36.893836    
     69000   0.27921854    -8.1664324     -7.7476105      0.74476763     50218.233      36.893836      36.893836      36.893836    
     70000   0.27909643    -8.1673319     -7.7486932      0.7453766      50218.233      36.893836      36.893836      36.893836    
     71000   0.28030346    -8.1632785     -7.7428293      0.76713036     50218.233      36.893836      36.893836      36.893836    
     72000   0.2794638     -8.1650846     -7.7458948      0.75873725     50218.233      36.893836      36.893836      36.893836    
     73000   0.28025045    -8.1645471     -7.7441774      0.76142186     50218.233      36.893836      36.893836      36.893836    
     74000   0.27958933    -8.1638624     -7.7444843      0.7583736      50218.233      36.893836      36.893836      36.893836    
     75000   0.28024348    -8.1624152     -7.742056       0.77667274     50218.233      36.893836      36.893836      36.893836    
     76000   0.27970356    -8.1632514     -7.743702       0.7637939      50218.233      36.893836      36.893836      36.893836    
     77000   0.28018009    -8.1648685     -7.7446043      0.75763236     50218.233      36.893836      36.893836      36.893836    
     78000   0.2801091     -8.1659689     -7.7458112      0.74602012     50218.233      36.893836      36.893836      36.893836    
     79000   0.27936731    -8.1652787     -7.7462337      0.74488328     50218.233      36.893836      36.893836      36.893836    
     80000   0.27858279    -8.1621336     -7.7442653      0.78417845     50218.233      36.893836      36.893836      36.893836    
     81000   0.27981957    -8.1638926     -7.7441693      0.75554595     50218.233      36.893836      36.893836      36.893836    
     82000   0.27906982    -8.1651499     -7.7465511      0.75404779     50218.233      36.893836      36.893836      36.893836    
     83000   0.27947681    -8.1652673     -7.7460581      0.75095709     50218.233      36.893836      36.893836      36.893836    
     84000   0.27987755    -8.1652635     -7.7454531      0.75851909     50218.233      36.893836      36.893836      36.893836    
     85000   0.28070882    -8.1656066     -7.7445494      0.7511495      50218.233      36.893836      36.893836      36.893836    
     86000   0.27975649    -8.1660589     -7.7464301      0.74958014     50218.233      36.893836      36.893836      36.893836    
     87000   0.28022636    -8.1640786     -7.743745       0.77199873     50218.233      36.893836      36.893836      36.893836    
     88000   0.28033757    -8.1645186     -7.7440182      0.76305109     50218.233      36.893836      36.893836      36.893836    
     89000   0.27874529    -8.1660488     -7.7479368      0.7449528      50218.233      36.893836      36.893836      36.893836    
     90000   0.27896478    -8.1642733     -7.745832       0.75976138     50218.233      36.893836      36.893836      36.893836    
     91000   0.28033668    -8.165301      -7.744802       0.75792434     50218.233      36.893836      36.893836      36.893836    
     92000   0.28012413    -8.166297      -7.7461168      0.74416897     50218.233      36.893836      36.893836      36.893836    
     93000   0.28024201    -8.1654073     -7.7450502      0.7488374      50218.233      36.893836      36.893836      36.893836    
     94000   0.27931919    -8.1673588     -7.7483859      0.73245449     50218.233      36.893836      36.893836      36.893836    
     95000   0.27920168    -8.1670104     -7.7482138      0.73610425     50218.233      36.893836      36.893836      36.893836    
     96000   0.27940907    -8.166128      -7.7470204      0.7427689      50218.233      36.893836      36.893836      36.893836    
     97000   0.27906244    -8.165019      -7.7464313      0.75616542     50218.233      36.893836      36.893836      36.893836    
     98000   0.27942327    -8.1652292     -7.7461002      0.75910114     50218.233      36.893836      36.893836      36.893836    
     99000   0.27870374    -8.1660241     -7.7479745      0.74324314     50218.233      36.893836      36.893836      36.893836    
    100000   0.28154972    -8.1650616     -7.7427431      0.75380776     50218.233      36.893836      36.893836      36.893836    
    101000   0.27906632    -8.1654752     -7.7468817      0.75535134     50218.233      36.893836      36.893836      36.893836    
    102000   0.27876637    -8.1669607     -7.7488171      0.745024       50218.233      36.893836      36.893836      36.893836    
    103000   0.27901053    -8.1677119     -7.7492021      0.73520718     50218.233      36.893836      36.893836      36.893836    
    104000   0.27829385    -8.1660664     -7.7486315      0.74944918     50218.233      36.893836      36.893836      36.893836    
    105000   0.28090823    -8.1656042     -7.7442478      0.75783132     50218.233      36.893836      36.893836      36.893836    
    106000   0.28214619    -8.1641585     -7.7409452      0.76660521     50218.233      36.893836      36.893836      36.893836    
    107000   0.28006106    -8.1640254     -7.7439398      0.77092566     50218.233      36.893836      36.893836      36.893836    
    108000   0.27948115    -8.1680163     -7.7488005      0.73337463     50218.233      36.893836      36.893836      36.893836    
    109000   0.28039736    -8.1673751     -7.7467851      0.7350389      50218.233      36.893836      36.893836      36.893836    
    110000   0.28024096    -8.1665489     -7.7461935      0.74058621     50218.233      36.893836      36.893836      36.893836    
    111000   0.2789471     -8.1623182     -7.7439035      0.76974042     50218.233      36.893836      36.893836      36.893836    
    112000   0.27865579    -8.1653848     -7.747407       0.75685204     50218.233      36.893836      36.893836      36.893836    
    113000   0.27928455    -8.1669739     -7.7480531      0.74325045     50218.233      36.893836      36.893836      36.893836    
    114000   0.28065626    -8.1657378     -7.7447594      0.75860319     50218.233      36.893836      36.893836      36.893836    
    115000   0.28037421    -8.1663612     -7.7458059      0.74069383     50218.233      36.893836      36.893836      36.893836    
    116000   0.28143866    -8.1665622     -7.7444102      0.74333717     50218.233      36.893836      36.893836      36.893836    
    117000   0.2794432     -8.1639241     -7.7447652      0.76145776     50218.233      36.893836      36.893836      36.893836    
    118000   0.28106324    -8.1623659     -7.7407771      0.77152311     50218.233      36.893836      36.893836      36.893836    
    119000   0.27945442    -8.1647825     -7.7456068      0.74876626     50218.233      36.893836      36.893836      36.893836    
    120000   0.2809302     -8.1636089     -7.7422196      0.76984161     50218.233      36.893836      36.893836      36.893836    
    121000   0.27985329    -8.1654704     -7.7456964      0.74578769     50218.233      36.893836      36.893836      36.893836    
    122000   0.27987831    -8.1632411     -7.7434296      0.7620264      50218.233      36.893836      36.893836      36.893836    
    123000   0.27943437    -8.1647108     -7.7455653      0.7626945      50218.233      36.893836      36.893836      36.893836    
    124000   0.28176516    -8.1640711     -7.7414294      0.76196393     50218.233      36.893836      36.893836      36.893836    
    125000   0.28011791    -8.1651595     -7.7449886      0.75807274     50218.233      36.893836      36.893836      36.893836    
    126000   0.27898843    -8.1634527     -7.744976       0.7705248      50218.233      36.893836      36.893836      36.893836    
    127000   0.27946751    -8.1645567     -7.7453614      0.75103534     50218.233      36.893836      36.893836      36.893836    
    128000   0.27907178    -8.1628194     -7.7442177      0.77301111     50218.233      36.893836      36.893836      36.893836    
    129000   0.27985123    -8.162454      -7.7426831      0.78086348     50218.233      36.893836      36.893836      36.893836    
    130000   0.28035451    -8.1641172     -7.7435914      0.76651097     50218.233      36.893836      36.893836      36.893836    
    131000   0.28032248    -8.1647145     -7.7442368      0.7577431      50218.233      36.893836      36.893836      36.893836    
    132000   0.27991282    -8.1659806     -7.7461173      0.75351136     50218.233      36.893836      36.893836      36.893836    
    133000   0.28161328    -8.1615744     -7.7391605      0.77869264     50218.233      36.893836      36.893836      36.893836    
    134000   0.28088672    -8.1644239     -7.7430998      0.75644549     50218.233      36.893836      36.893836      36.893836    
    135000   0.27949267    -8.1642335     -7.7450005      0.76430279     50218.233      36.893836      36.893836      36.893836    
    136000   0.27995106    -8.1655693     -7.7456487      0.75295644     50218.233      36.893836      36.893836      36.893836    
    137000   0.28116216    -8.1648733     -7.7431361      0.75939222     50218.233      36.893836      36.893836      36.893836    
    138000   0.27968123    -8.1663777     -7.7468618      0.75156372     50218.233      36.893836      36.893836      36.893836    
    139000   0.27868245    -8.1654226     -7.7474049      0.74926531     50218.233      36.893836      36.893836      36.893836    
    140000   0.27935536    -8.165683      -7.7466559      0.75185286     50218.233      36.893836      36.893836      36.893836    
    141000   0.28119238    -8.163778      -7.7419954      0.76198784     50218.233      36.893836      36.893836      36.893836    
    142000   0.27955814    -8.166067      -7.7467357      0.74082578     50218.233      36.893836      36.893836      36.893836    
    143000   0.28132078    -8.1675921     -7.7456169      0.73915507     50218.233      36.893836      36.893836      36.893836    
    144000   0.28099014    -8.1632442     -7.7417649      0.76017312     50218.233      36.893836      36.893836      36.893836    
    145000   0.27995058    -8.1650824     -7.7451625      0.75631686     50218.233      36.893836      36.893836      36.893836    
    146000   0.2804847     -8.1671622     -7.7464411      0.73843237     50218.233      36.893836      36.893836      36.893836    
    147000   0.27995803    -8.1653708     -7.7454397      0.75542285     50218.233      36.893836      36.893836      36.893836    
    148000   0.27933387    -8.1663032     -7.7473083      0.7469393      50218.233      36.893836      36.893836      36.893836    
    149000   0.2803311     -8.1656005     -7.7451099      0.757273       50218.233      36.893836      36.893836      36.893836    
    150000   0.28044388    -8.1649418     -7.744282       0.7603108      50218.233      36.893836      36.893836      36.893836    
    151000   0.27957752    -8.1651744     -7.7458141      0.75611843     50218.233      36.893836      36.893836      36.893836    
    152000   0.2793144     -8.1656916     -7.746726       0.74324048     50218.233      36.893836      36.893836      36.893836    
    153000   0.28120928    -8.1697618     -7.7479539      0.71763598     50218.233      36.893836      36.893836      36.893836    
    154000   0.28020331    -8.1649239     -7.7446249      0.74897452     50218.233      36.893836      36.893836      36.893836    
    155000   0.27979636    -8.1646894     -7.7450008      0.75823776     50218.233      36.893836      36.893836      36.893836    
    156000   0.2793529     -8.1666683     -7.7476449      0.74237961     50218.233      36.893836      36.893836      36.893836    
    157000   0.27861021    -8.165711      -7.7478017      0.74795162     50218.233      36.893836      36.893836      36.893836    
    158000   0.28037207    -8.1647424     -7.7441903      0.76146238     50218.233      36.893836      36.893836      36.893836    
    159000   0.27940719    -8.1646279     -7.7455231      0.75757546     50218.233      36.893836      36.893836      36.893836    
    160000   0.28001553    -8.165092      -7.7450747      0.74729615     50218.233      36.893836      36.893836      36.893836    
    161000   0.28068006    -8.1637466     -7.7427325      0.76710535     50218.233      36.893836      36.893836      36.893836    
    162000   0.2794545     -8.1636501     -7.7444743      0.76539652     50218.233      36.893836      36.893836      36.893836    
    163000   0.27938971    -8.1631634     -7.7440847      0.7683992      50218.233      36.893836      36.893836      36.893836    
    164000   0.27928672    -8.1653933     -7.7464692      0.75286331     50218.233      36.893836      36.893836      36.893836    
    165000   0.28115534    -8.16318       -7.7414529      0.77228265     50218.233      36.893836      36.893836      36.893836    
    166000   0.27948432    -8.1654515     -7.746231       0.75339832     50218.233      36.893836      36.893836      36.893836    
    167000   0.2794382     -8.1682927     -7.7491413      0.73374078     50218.233      36.893836      36.893836      36.893836    
    168000   0.28002705    -8.167059      -7.7470244      0.74753999     50218.233      36.893836      36.893836      36.893836    
    169000   0.27984513    -8.1650064     -7.7452447      0.75018713     50218.233      36.893836      36.893836      36.893836    
    170000   0.2791327     -8.1629345     -7.7442414      0.76430973     50218.233      36.893836      36.893836      36.893836    
    171000   0.27934071    -8.1653154     -7.7463103      0.75563155     50218.233      36.893836      36.893836      36.893836    
    172000   0.28019889    -8.1637876     -7.7434953      0.76559838     50218.233      36.893836      36.893836      36.893836    
    173000   0.28043255    -8.1648739     -7.7442311      0.75499054     50218.233      36.893836      36.893836      36.893836    
    174000   0.27980229    -8.1661273     -7.7464298      0.74746809     50218.233      36.893836      36.893836      36.893836    
    175000   0.28045485    -8.1639629     -7.7432866      0.76238629     50218.233      36.893836      36.893836      36.893836    
    176000   0.28051426    -8.1649767     -7.7442113      0.75583842     50218.233      36.893836      36.893836      36.893836    
    177000   0.27914195    -8.1668243     -7.7481173      0.74337476     50218.233      36.893836      36.893836      36.893836    
    178000   0.27952874    -8.1656033     -7.7463162      0.74795187     50218.233      36.893836      36.893836      36.893836    
    179000   0.27923547    -8.1657361     -7.7468888      0.74841911     50218.233      36.893836      36.893836      36.893836    
    180000   0.28027821    -8.1627204     -7.742309       0.77523234     50218.233      36.893836      36.893836      36.893836    
    181000   0.27982572    -8.167645      -7.7479124      0.73271849     50218.233      36.893836      36.893836      36.893836    
    182000   0.27871548    -8.1622255     -7.7441582      0.77590045     50218.233      36.893836      36.893836      36.893836    
    183000   0.28176559    -8.1659082     -7.7432659      0.7495098      50218.233      36.893836      36.893836      36.893836    
    184000   0.27962449    -8.1649007     -7.7454699      0.74917666     50218.233      36.893836      36.893836      36.893836    
    185000   0.28028894    -8.1640228     -7.7435954      0.76617024     50218.233      36.893836      36.893836      36.893836    
    186000   0.28011827    -8.1647253     -7.7445539      0.75702136     50218.233      36.893836      36.893836      36.893836    
    187000   0.27897224    -8.1682437     -7.7497913      0.72975862     50218.233      36.893836      36.893836      36.893836    
    188000   0.27892147    -8.1663319     -7.7479557      0.74597266     50218.233      36.893836      36.893836      36.893836    
    189000   0.27926803    -8.1623378     -7.7434417      0.77870206     50218.233      36.893836      36.893836      36.893836    
    190000   0.27991862    -8.1646599     -7.744788       0.76417823     50218.233      36.893836      36.893836      36.893836    
    191000   0.27966839    -8.163499      -7.7440024      0.76022712     50218.233      36.893836      36.893836      36.893836    
    192000   0.2800034     -8.164745      -7.7447458      0.75042099     50218.233      36.893836      36.893836      36.893836    
    193000   0.27957881    -8.165423      -7.7460608      0.76336123     50218.233      36.893836      36.893836      36.893836    
    194000   0.27886522    -8.163644      -7.7453522      0.7602176      50218.233      36.893836      36.893836      36.893836    
    195000   0.28007739    -8.1636047     -7.7434946      0.76635385     50218.233      36.893836      36.893836      36.893836    
    196000   0.2802889     -8.1659863     -7.7455589      0.74829407     50218.233      36.893836      36.893836      36.893836    
    197000   0.28031122    -8.164709      -7.7442482      0.75544387     50218.233      36.893836      36.893836      36.893836    
    198000   0.28079663    -8.1681703     -7.7469814      0.73245195     50218.233      36.893836      36.893836      36.893836    
    199000   0.28007907    -8.1670801     -7.7469675      0.72812777     50218.233      36.893836      36.893836      36.893836    
    200000   0.28176019    -8.1641591     -7.7415249      0.7720042      50218.233      36.893836      36.893836      36.893836    
    201000   0.27996345    -8.1660641     -7.7461249      0.74812955     50218.233      36.893836      36.893836      36.893836    
    202000   0.28022213    -8.1696403     -7.749313       0.71377602     50218.233      36.893836      36.893836      36.893836    
    203000   0.28108626    -8.1684439     -7.7468205      0.72681116     50218.233      36.893836      36.893836      36.893836    
    204000   0.27978873    -8.1645407     -7.7448636      0.76154961     50218.233      36.893836      36.893836      36.893836    
    205000   0.27953446    -8.164567      -7.7452713      0.76175991     50218.233      36.893836      36.893836      36.893836    
    206000   0.27845663    -8.1671584     -7.7494794      0.73925221     50218.233      36.893836      36.893836      36.893836    
    207000   0.27923027    -8.1680225     -7.7491831      0.73125456     50218.233      36.893836      36.893836      36.893836    
    208000   0.28064444    -8.1646554     -7.7436947      0.76218237     50218.233      36.893836      36.893836      36.893836    
    209000   0.27799941    -8.1641025     -7.7471094      0.7552749      50218.233      36.893836      36.893836      36.893836    
    210000   0.28156917    -8.1658687     -7.743521       0.74995377     50218.233      36.893836      36.893836      36.893836    
    211000   0.28072684    -8.1674878     -7.7464035      0.73048517     50218.233      36.893836      36.893836      36.893836    
    212000   0.27973722    -8.1662516     -7.7466517      0.75349076     50218.233      36.893836      36.893836      36.893836    
    213000   0.27890665    -8.1672974     -7.7489433      0.74394798     50218.233      36.893836      36.893836      36.893836    
    214000   0.27916695    -8.1640386     -7.7452941      0.76283012     50218.233      36.893836      36.893836      36.893836    
    215000   0.27977675    -8.1642836     -7.7446245      0.76101396     50218.233      36.893836      36.893836      36.893836    
    216000   0.28039624    -8.1660878     -7.7454994      0.73973849     50218.233      36.893836      36.893836      36.893836    
    217000   0.27957862    -8.1659323     -7.7465703      0.75214057     50218.233      36.893836      36.893836      36.893836    
    218000   0.27898889    -8.1652226     -7.7467453      0.76155003     50218.233      36.893836      36.893836      36.893836    
    219000   0.27879762    -8.1639128     -7.7457223      0.76047347     50218.233      36.893836      36.893836      36.893836    
    220000   0.27961703    -8.1645936     -7.7451741      0.76179405     50218.233      36.893836      36.893836      36.893836    
    221000   0.27864908    -8.1649863     -7.7470186      0.75815801     50218.233      36.893836      36.893836      36.893836    
    222000   0.28041084    -8.1618553     -7.741245       0.78275057     50218.233      36.893836      36.893836      36.893836    
    223000   0.27968421    -8.1641594     -7.7446391      0.76139805     50218.233      36.893836      36.893836      36.893836    
    224000   0.27883895    -8.167039      -7.7487865      0.75250094     50218.233      36.893836      36.893836      36.893836    
    225000   0.28008546    -8.1651194     -7.7449972      0.75830708     50218.233      36.893836      36.893836      36.893836    
    226000   0.27878524    -8.1636191     -7.7454471      0.76373604     50218.233      36.893836      36.893836      36.893836    
    227000   0.27965907    -8.1629684     -7.7434857      0.76860761     50218.233      36.893836      36.893836      36.893836    
    228000   0.2792826     -8.165692      -7.746774       0.74962684     50218.233      36.893836      36.893836      36.893836    
    229000   0.27948449    -8.1649621     -7.7457414      0.76114898     50218.233      36.893836      36.893836      36.893836    
    230000   0.27985314    -8.1641652     -7.7443914      0.7578041      50218.233      36.893836      36.893836      36.893836    
    231000   0.27910326    -8.167993      -7.7493441      0.73773598     50218.233      36.893836      36.893836      36.893836    
    232000   0.28208502    -8.1650423     -7.7419207      0.76824795     50218.233      36.893836      36.893836      36.893836    
    233000   0.28080569    -8.1675763     -7.7463737      0.73758373     50218.233      36.893836      36.893836      36.893836    
    234000   0.28171452    -8.164385      -7.7418192      0.76394071     50218.233      36.893836      36.893836      36.893836    
    235000   0.28062738    -8.165278      -7.7443429      0.75352452     50218.233      36.893836      36.893836      36.893836    
    236000   0.28104489    -8.1636118     -7.7420504      0.76721953     50218.233      36.893836      36.893836      36.893836    
    237000   0.28023229    -8.1657734     -7.745431       0.75828823     50218.233      36.893836      36.893836      36.893836    
    238000   0.27882525    -8.165111      -7.7468791      0.75057347     50218.233      36.893836      36.893836      36.893836    
    239000   0.27803586    -8.1672698     -7.750222       0.73648351     50218.233      36.893836      36.893836      36.893836    
    240000   0.28101021    -8.1651828     -7.7436735      0.75792369     50218.233      36.893836      36.893836      36.893836    
    241000   0.27968365    -8.1686197     -7.7491002      0.7373164      50218.233      36.893836      36.893836      36.893836    
    242000   0.27924167    -8.1665857     -7.7477292      0.75039536     50218.233      36.893836      36.893836      36.893836    
    243000   0.28054817    -8.1661912     -7.7453749      0.7532829      50218.233      36.893836      36.893836      36.893836    
    244000   0.28018054    -8.1645625     -7.7442977      0.76099242     50218.233      36.893836      36.893836      36.893836    
    245000   0.28069752    -8.1651841     -7.7441438      0.74226587     50218.233      36.893836      36.893836      36.893836    
    246000   0.28182201    -8.167186      -7.744459       0.75470269     50218.233      36.893836      36.893836      36.893836    
    247000   0.27955695    -8.1646358     -7.7453064      0.75335563     50218.233      36.893836      36.893836      36.893836    
    248000   0.28060291    -8.1650753     -7.7441769      0.7553667      50218.233      36.893836      36.893836      36.893836    
    249000   0.27930692    -8.1655405     -7.7465861      0.7467616      50218.233      36.893836      36.893836      36.893836    
    250000   0.27965887    -8.165489      -7.7460066      0.75394895     50218.233      36.893836      36.893836      36.893836    
    251000   0.27972178    -8.1667552     -7.7471785      0.73747434     50218.233      36.893836      36.893836      36.893836    
    252000   0.28039766    -8.1647693     -7.7441788      0.76347688     50218.233      36.893836      36.893836      36.893836    
    253000   0.28108037    -8.1663079     -7.7446933      0.74218032     50218.233      36.893836      36.893836      36.893836    
    254000   0.28006605    -8.1677624     -7.7476693      0.73497229     50218.233      36.893836      36.893836      36.893836    
    255000   0.27977866    -8.1630945     -7.7434325      0.7647031      50218.233      36.893836      36.893836      36.893836    
    256000   0.27863524    -8.1661123     -7.7481654      0.74209065     50218.233      36.893836      36.893836      36.893836    
    257000   0.27996229    -8.1653279     -7.7453905      0.74648008     50218.233      36.893836      36.893836      36.893836    
    258000   0.28128996    -8.1657826     -7.7438537      0.75229247     50218.233      36.893836      36.893836      36.893836    
    259000   0.27777124    -8.1650684     -7.7484174      0.75517642     50218.233      36.893836      36.893836      36.893836    
    260000   0.27907692    -8.1631068     -7.7444973      0.77081149     50218.233      36.893836      36.893836      36.893836    
    261000   0.2786789     -8.1656467     -7.7476343      0.74990264     50218.233      36.893836      36.893836      36.893836    
    262000   0.28223553    -8.1635865     -7.7402392      0.77757162     50218.233      36.893836      36.893836      36.893836    
    263000   0.27952237    -8.1650541     -7.7457765      0.75216362     50218.233      36.893836      36.893836      36.893836    
    264000   0.27928406    -8.1661092     -7.7471891      0.74492426     50218.233      36.893836      36.893836      36.893836    
    265000   0.27898788    -8.1642129     -7.745737       0.76064772     50218.233      36.893836      36.893836      36.893836    
    266000   0.28042021    -8.1628002     -7.7421759      0.77262307     50218.233      36.893836      36.893836      36.893836    
    267000   0.28016754    -8.1626796     -7.7424343      0.76760809     50218.233      36.893836      36.893836      36.893836    
    268000   0.27964772    -8.1651308     -7.7456652      0.75508979     50218.233      36.893836      36.893836      36.893836    
    269000   0.27957501    -8.1663868     -7.7470302      0.74675628     50218.233      36.893836      36.893836      36.893836    
    270000   0.28038003    -8.1647962     -7.7442321      0.76292797     50218.233      36.893836      36.893836      36.893836    
    271000   0.27998875    -8.1620252     -7.7420481      0.77673403     50218.233      36.893836      36.893836      36.893836    
    272000   0.2822476     -8.1648259     -7.7414605      0.75604033     50218.233      36.893836      36.893836      36.893836    
    273000   0.28045215    -8.1641395     -7.7434673      0.76463812     50218.233      36.893836      36.893836      36.893836    
    274000   0.27974508    -8.1647749     -7.7451633      0.76278731     50218.233      36.893836      36.893836      36.893836    
    275000   0.28076409    -8.1651142     -7.743974       0.76351573     50218.233      36.893836      36.893836      36.893836    
    276000   0.27899306    -8.1645057     -7.746022       0.75534721     50218.233      36.893836      36.893836      36.893836    
    277000   0.2783124     -8.1637155     -7.7462529      0.76209617     50218.233      36.893836      36.893836      36.893836    
    278000   0.27930477    -8.1658716     -7.7469204      0.75087601     50218.233      36.893836      36.893836      36.893836    
    279000   0.27997113    -8.1636765     -7.7437258      0.77184119     50218.233      36.893836      36.893836      36.893836    
    280000   0.28071743    -8.1643876     -7.7433174      0.7612753      50218.233      36.893836      36.893836      36.893836    
    281000   0.28049383    -8.1654308     -7.7446961      0.75010072     50218.233      36.893836      36.893836      36.893836    
    282000   0.28011774    -8.1628863     -7.7427157      0.7774495      50218.233      36.893836      36.893836      36.893836    
    283000   0.28041495    -8.1625588     -7.7419424      0.77596213     50218.233      36.893836      36.893836      36.893836    
    284000   0.28070226    -8.1647451     -7.7436977      0.75854394     50218.233      36.893836      36.893836      36.893836    
    285000   0.28020899    -8.1657376     -7.7454301      0.74685379     50218.233      36.893836      36.893836      36.893836    
    286000   0.27987599    -8.1627589     -7.7429509      0.77421269     50218.233      36.893836      36.893836      36.893836    
    287000   0.27939099    -8.1627661     -7.7436856      0.77262406     50218.233      36.893836      36.893836      36.893836    
    288000   0.28022116    -8.1659106     -7.7455848      0.75123974     50218.233      36.893836      36.893836      36.893836    
    289000   0.28079852    -8.1633214     -7.7421297      0.77297599     50218.233      36.893836      36.893836      36.893836    
    290000   0.27915333    -8.1657609     -7.7470369      0.75295092     50218.233      36.893836      36.893836      36.893836    
    291000   0.27850388    -8.1650436     -7.7472937      0.76096598     50218.233      36.893836      36.893836      36.893836    
    292000   0.28102678    -8.1646748     -7.7431406      0.76351794     50218.233      36.893836      36.893836      36.893836    
    293000   0.27995625    -8.1657019     -7.7457735      0.7519293      50218.233      36.893836      36.893836      36.893836    
    294000   0.27943986    -8.1688971     -7.7497432      0.72170583     50218.233      36.893836      36.893836      36.893836    
    295000   0.28073592    -8.1665975     -7.7454996      0.74307164     50218.233      36.893836      36.893836      36.893836    
    296000   0.28068968    -8.1647634     -7.7437348      0.75726211     50218.233      36.893836      36.893836      36.893836    
    297000   0.27964323    -8.1666236     -7.7471647      0.74621354     50218.233      36.893836      36.893836      36.893836    
    298000   0.27941098    -8.1653064     -7.7461959      0.75970494     50218.233      36.893836      36.893836      36.893836    
    299000   0.28026376    -8.1665903     -7.7462007      0.74113971     50218.233      36.893836      36.893836      36.893836    
    300000   0.27941166    -8.165603      -7.7464914      0.75657575     50218.233      36.893836      36.893836      36.893836    
    301000   0.27964211    -8.1646481     -7.7451909      0.75802716     50218.233      36.893836      36.893836      36.893836    
    302000   0.28013805    -8.1649096     -7.7447086      0.7532422      50218.233      36.893836      36.893836      36.893836    
    303000   0.28016454    -8.1660852     -7.7458443      0.75010459     50218.233      36.893836      36.893836      36.893836    
    304000   0.27949174    -8.1663855     -7.7471538      0.75294021     50218.233      36.893836      36.893836      36.893836    
    305000   0.28159942    -8.1663066     -7.7439135      0.74770824     50218.233      36.893836      36.893836      36.893836    
    306000   0.27968718    -8.1641132     -7.7445884      0.76045615     50218.233      36.893836      36.893836      36.893836    
    307000   0.27991139    -8.1630754     -7.7432143      0.77093866     50218.233      36.893836      36.893836      36.893836    
    308000   0.27934974    -8.1663522     -7.7473336      0.74853922     50218.233      36.893836      36.893836      36.893836    
    309000   0.28193428    -8.167748      -7.7448526      0.73455081     50218.233      36.893836      36.893836      36.893836    
    310000   0.27971144    -8.1675795     -7.7480183      0.73621229     50218.233      36.893836      36.893836      36.893836    
    311000   0.27954638    -8.1678257     -7.7485121      0.73708066     50218.233      36.893836      36.893836      36.893836    
    312000   0.27998088    -8.1629964     -7.7430311      0.77362848     50218.233      36.893836      36.893836      36.893836    
    313000   0.27974526    -8.1651614     -7.7455495      0.74990366     50218.233      36.893836      36.893836      36.893836    
    314000   0.28119784    -8.166758      -7.7449672      0.74782227     50218.233      36.893836      36.893836      36.893836    
    315000   0.28067693    -8.1634953     -7.7424859      0.75930565     50218.233      36.893836      36.893836      36.893836    
    316000   0.27994387    -8.1653282     -7.7454184      0.75561201     50218.233      36.893836      36.893836      36.893836    
    317000   0.27950966    -8.1633555     -7.7440969      0.76127627     50218.233      36.893836      36.893836      36.893836    
    318000   0.27991278    -8.1652048     -7.7453416      0.75105163     50218.233      36.893836      36.893836      36.893836    
    319000   0.27930976    -8.1644697     -7.745511       0.76463922     50218.233      36.893836      36.893836      36.893836    
    320000   0.27984551    -8.1647945     -7.7450322      0.75808925     50218.233      36.893836      36.893836      36.893836    
    321000   0.27973243    -8.164719      -7.7451263      0.75666446     50218.233      36.893836      36.893836      36.893836    
    322000   0.28031107    -8.1633805     -7.7429199      0.76568652     50218.233      36.893836      36.893836      36.893836    
    323000   0.27845163    -8.1631188     -7.7454473      0.77001159     50218.233      36.893836      36.893836      36.893836    
    324000   0.28112422    -8.1643595     -7.7426791      0.76098178     50218.233      36.893836      36.893836      36.893836    
    325000   0.27966595    -8.164702      -7.745209       0.76923529     50218.233      36.893836      36.893836      36.893836    
    326000   0.27973362    -8.1654129     -7.7458184      0.75622173     50218.233      36.893836      36.893836      36.893836    
    327000   0.28004628    -8.163361      -7.7432976      0.76944651     50218.233      36.893836      36.893836      36.893836    
    328000   0.27933707    -8.1645602     -7.7455605      0.75578612     50218.233      36.893836      36.893836      36.893836    
    329000   0.28070328    -8.1648855     -7.7438366      0.75763554     50218.233      36.893836      36.893836      36.893836    
    330000   0.28009479    -8.1620497     -7.7419135      0.77354619     50218.233      36.893836      36.893836      36.893836    
    331000   0.27839062    -8.1662882     -7.7487082      0.7464977      50218.233      36.893836      36.893836      36.893836    
    332000   0.27902754    -8.1634257     -7.7448904      0.76154494     50218.233      36.893836      36.893836      36.893836    
    333000   0.28051594    -8.1648762     -7.7441082      0.75453384     50218.233      36.893836      36.893836      36.893836    
    334000   0.28056576    -8.1639257     -7.743083       0.76883434     50218.233      36.893836      36.893836      36.893836    
    335000   0.28012724    -8.1644371     -7.7442522      0.758247       50218.233      36.893836      36.893836      36.893836    
    336000   0.27990221    -8.1654201     -7.7455727      0.75488007     50218.233      36.893836      36.893836      36.893836    
    337000   0.27948096    -8.1643742     -7.7451587      0.76510271     50218.233      36.893836      36.893836      36.893836    
    338000   0.27909522    -8.1647103     -7.7460735      0.75940605     50218.233      36.893836      36.893836      36.893836    
    339000   0.2782042     -8.1650976     -7.7477973      0.76278209     50218.233      36.893836      36.893836      36.893836    
    340000   0.27897679    -8.1652397     -7.7467804      0.74707771     50218.233      36.893836      36.893836      36.893836    
    341000   0.28140356    -8.1662152     -7.7441158      0.75187427     50218.233      36.893836      36.893836      36.893836    
    342000   0.28106293    -8.1653365     -7.7437481      0.75110251     50218.233      36.893836      36.893836      36.893836    
    343000   0.27928807    -8.1667275     -7.7478014      0.74853502     50218.233      36.893836      36.893836      36.893836    
    344000   0.2800688     -8.1637272     -7.74363        0.76013386     50218.233      36.893836      36.893836      36.893836    
    345000   0.27951764    -8.1646413     -7.7453708      0.75513381     50218.233      36.893836      36.893836      36.893836    
    346000   0.27953087    -8.1667479     -7.7474576      0.73987662     50218.233      36.893836      36.893836      36.893836    
    347000   0.27998627    -8.1662437     -7.7462702      0.73824999     50218.233      36.893836      36.893836      36.893836    
    348000   0.27841546    -8.166463      -7.7488458      0.75141554     50218.233      36.893836      36.893836      36.893836    
    349000   0.28127432    -8.162704      -7.7407985      0.7730208      50218.233      36.893836      36.893836      36.893836    
    350000   0.28061272    -8.1663459     -7.7454329      0.74516514     50218.233      36.893836      36.893836      36.893836    
    351000   0.28215347    -8.167283      -7.7440588      0.74383339     50218.233      36.893836      36.893836      36.893836    
    352000   0.2802253     -8.1653516     -7.7450196      0.75755476     50218.233      36.893836      36.893836      36.893836    
    353000   0.28202686    -8.1663204     -7.7432861      0.75077431     50218.233      36.893836      36.893836      36.893836    
    354000   0.27992726    -8.1668671     -7.7469822      0.74088516     50218.233      36.893836      36.893836      36.893836    
    355000   0.27986692    -8.164574      -7.7447796      0.76627533     50218.233      36.893836      36.893836      36.893836    
    356000   0.28002114    -8.1666937     -7.746668       0.74480803     50218.233      36.893836      36.893836      36.893836    
    357000   0.27928668    -8.166375      -7.747451       0.75162056     50218.233      36.893836      36.893836      36.893836    
    358000   0.27932587    -8.1654812     -7.7464983      0.74848256     50218.233      36.893836      36.893836      36.893836    
    359000   0.28016241    -8.1644739     -7.7442362      0.76258989     50218.233      36.893836      36.893836      36.893836    
    360000   0.27989847    -8.1679595     -7.7481178      0.73926845     50218.233      36.893836      36.893836      36.893836    
    361000   0.27905715    -8.1653792     -7.7467995      0.75537542     50218.233      36.893836      36.893836      36.893836    
    362000   0.27916404    -8.1656931     -7.746953       0.75218973     50218.233      36.893836      36.893836      36.893836    
    363000   0.28085059    -8.1639264     -7.7426565      0.75473072     50218.233      36.893836      36.893836      36.893836    
    364000   0.27985016    -8.16557       -7.7458008      0.75268023     50218.233      36.893836      36.893836      36.893836    
    365000   0.27942698    -8.1636464     -7.7445119      0.76746933     50218.233      36.893836      36.893836      36.893836    
    366000   0.28073411    -8.1642171     -7.7431219      0.76534035     50218.233      36.893836      36.893836      36.893836    
    367000   0.27921033    -8.1657949     -7.7469854      0.75040028     50218.233      36.893836      36.893836      36.893836    
    368000   0.28070424    -8.1658575     -7.7448072      0.75534086     50218.233      36.893836      36.893836      36.893836    
    369000   0.27756618    -8.1650951     -7.7487518      0.75196324     50218.233      36.893836      36.893836      36.893836    
    370000   0.28116557    -8.1639036     -7.7421612      0.76493968     50218.233      36.893836      36.893836      36.893836    
    371000   0.27875725    -8.1631178     -7.7449879      0.77368888     50218.233      36.893836      36.893836      36.893836    
    372000   0.28029752    -8.1651083     -7.744668       0.75407056     50218.233      36.893836      36.893836      36.893836    
    373000   0.27861132    -8.1648621     -7.7469511      0.75443688     50218.233      36.893836      36.893836      36.893836    
    374000   0.27894735    -8.1651812     -7.7467661      0.75457844     50218.233      36.893836      36.893836      36.893836    
    375000   0.28066316    -8.1655298     -7.744541       0.74687919     50218.233      36.893836      36.893836      36.893836    
    376000   0.27830043    -8.1656705     -7.7482258      0.75340205     50218.233      36.893836      36.893836      36.893836    
    377000   0.28034962    -8.1644539     -7.7439354      0.76418295     50218.233      36.893836      36.893836      36.893836    
    378000   0.27943753    -8.1638419     -7.7446916      0.75905828     50218.233      36.893836      36.893836      36.893836    
    379000   0.27945471    -8.1650068     -7.7458307      0.75718371     50218.233      36.893836      36.893836      36.893836    
    380000   0.28091284    -8.1649485     -7.7435853      0.75616749     50218.233      36.893836      36.893836      36.893836    
    381000   0.28106562    -8.1638881     -7.7422957      0.77166313     50218.233      36.893836      36.893836      36.893836    
    382000   0.27999627    -8.1638598     -7.7438714      0.76784292     50218.233      36.893836      36.893836      36.893836    
    383000   0.27858942    -8.1651007     -7.7472225      0.75155575     50218.233      36.893836      36.893836      36.893836    
    384000   0.27934006    -8.1658887     -7.7468845      0.74875795     50218.233      36.893836      36.893836      36.893836    
    385000   0.28113665    -8.1660185     -7.7443195      0.75786618     50218.233      36.893836      36.893836      36.893836    
    386000   0.28097224    -8.166147      -7.7446946      0.74453267     50218.233      36.893836      36.893836      36.893836    
    387000   0.28042999    -8.1651486     -7.7445096      0.75307228     50218.233      36.893836      36.893836      36.893836    
    388000   0.27920538    -8.1654688     -7.7466667      0.74791235     50218.233      36.893836      36.893836      36.893836    
    389000   0.28015154    -8.166257      -7.7460357      0.74303879     50218.233      36.893836      36.893836      36.893836    
    390000   0.28157756    -8.1675645     -7.7452042      0.74030813     50218.233      36.893836      36.893836      36.893836    
    391000   0.27947809    -8.1641755     -7.7449643      0.75330422     50218.233      36.893836      36.893836      36.893836    
    392000   0.28056941    -8.1653223     -7.7444741      0.7524053      50218.233      36.893836      36.893836      36.893836    
    393000   0.28103915    -8.1656212     -7.7440685      0.75824656     50218.233      36.893836      36.893836      36.893836    
    394000   0.28083791    -8.1653349     -7.7440841      0.75411178     50218.233      36.893836      36.893836      36.893836    
    395000   0.2811468     -8.1658477     -7.7441335      0.75066868     50218.233      36.893836      36.893836      36.893836    
    396000   0.2790662     -8.1668616     -7.7482682      0.74055698     50218.233      36.893836      36.893836      36.893836    
    397000   0.28027202    -8.1646607     -7.7442587      0.7576261      50218.233      36.893836      36.893836      36.893836    
    398000   0.28161436    -8.1656852     -7.7432697      0.75611558     50218.233      36.893836      36.893836      36.893836    
    399000   0.28108627    -8.1636671     -7.7420437      0.76760297     50218.233      36.893836      36.893836      36.893836    
    400000   0.2780329     -8.1667999     -7.7497565      0.74153777     50218.233      36.893836      36.893836      36.893836    
    401000   0.27996379    -8.1650424     -7.7451027      0.75484789     50218.233      36.893836      36.893836      36.893836    
    402000   0.27952628    -8.1673049     -7.7480215      0.73544215     50218.233      36.893836      36.893836      36.893836    
    403000   0.28098649    -8.1643303     -7.7428565      0.76643995     50218.233      36.893836      36.893836      36.893836    
    404000   0.28075736    -8.1664423     -7.7453123      0.74525984     50218.233      36.893836      36.893836      36.893836    
    405000   0.2793244     -8.1639145     -7.7449339      0.77093441     50218.233      36.893836      36.893836      36.893836    
    406000   0.27961628    -8.1651727     -7.7457543      0.75240818     50218.233      36.893836      36.893836      36.893836    
    407000   0.28062068    -8.1660537     -7.7451287      0.74855656     50218.233      36.893836      36.893836      36.893836    
    408000   0.27887841    -8.16422       -7.7459083      0.75620383     50218.233      36.893836      36.893836      36.893836    
    409000   0.28083795    -8.166771      -7.74552        0.74014038     50218.233      36.893836      36.893836      36.893836    
    410000   0.27965242    -8.1664786     -7.747006       0.74399215     50218.233      36.893836      36.893836      36.893836    
    411000   0.28154539    -8.1664666     -7.7441545      0.74780313     50218.233      36.893836      36.893836      36.893836    
    412000   0.27971758    -8.165202      -7.7456316      0.75662869     50218.233      36.893836      36.893836      36.893836    
    413000   0.27992899    -8.163744      -7.7438565      0.77757602     50218.233      36.893836      36.893836      36.893836    
    414000   0.2803435     -8.1653483     -7.744839       0.7467134      50218.233      36.893836      36.893836      36.893836    
    415000   0.27959423    -8.1662645     -7.7468791      0.73910489     50218.233      36.893836      36.893836      36.893836    
    416000   0.27964175    -8.1663437     -7.746887       0.7449274      50218.233      36.893836      36.893836      36.893836    
    417000   0.27894176    -8.1645418     -7.7461351      0.76104351     50218.233      36.893836      36.893836      36.893836    
    418000   0.27973157    -8.165341      -7.7457497      0.75112151     50218.233      36.893836      36.893836      36.893836    
    419000   0.27926766    -8.1616138     -7.7427182      0.77785865     50218.233      36.893836      36.893836      36.893836    
    420000   0.27868848    -8.1630459     -7.7450191      0.76193432     50218.233      36.893836      36.893836      36.893836    
    421000   0.27950717    -8.1624151     -7.7431603      0.77264425     50218.233      36.893836      36.893836      36.893836    
    422000   0.28024071    -8.1642553     -7.7439002      0.77212224     50218.233      36.893836      36.893836      36.893836    
    423000   0.27957487    -8.1659493     -7.7465929      0.75160584     50218.233      36.893836      36.893836      36.893836    
    424000   0.28114795    -8.1657958     -7.7440799      0.7537316      50218.233      36.893836      36.893836      36.893836    
    425000   0.27981903    -8.1648439     -7.7451213      0.74975145     50218.233      36.893836      36.893836      36.893836    
    426000   0.27960031    -8.1600402     -7.7406457      0.79720164     50218.233      36.893836      36.893836      36.893836    
    427000   0.27969701    -8.1635583     -7.7440188      0.77164377     50218.233      36.893836      36.893836      36.893836    
    428000   0.27955191    -8.1629551     -7.7436332      0.77155553     50218.233      36.893836      36.893836      36.893836    
    429000   0.27989095    -8.1656392     -7.7458088      0.75552077     50218.233      36.893836      36.893836      36.893836    
    430000   0.28055889    -8.1642174     -7.743385       0.7631671      50218.233      36.893836      36.893836      36.893836    
    431000   0.27897025    -8.1652782     -7.7468288      0.75502803     50218.233      36.893836      36.893836      36.893836    
    432000   0.27967022    -8.1650302     -7.7455308      0.75907243     50218.233      36.893836      36.893836      36.893836    
    433000   0.27854781    -8.1645225     -7.7467068      0.75176068     50218.233      36.893836      36.893836      36.893836    
    434000   0.27980268    -8.1653656     -7.7456675      0.7572197      50218.233      36.893836      36.893836      36.893836    
    435000   0.28176566    -8.1645276     -7.7418851      0.76146409     50218.233      36.893836      36.893836      36.893836    
    436000   0.27938289    -8.1641455     -7.7450772      0.75590331     50218.233      36.893836      36.893836      36.893836    
    437000   0.27966201    -8.165225      -7.745738       0.74755579     50218.233      36.893836      36.893836      36.893836    
    438000   0.28019576    -8.165463      -7.7451754      0.74799882     50218.233      36.893836      36.893836      36.893836    
    439000   0.2793579     -8.1651711     -7.7461402      0.74844445     50218.233      36.893836      36.893836      36.893836    
    440000   0.28072936    -8.1659564     -7.7448683      0.74998782     50218.233      36.893836      36.893836      36.893836    
    441000   0.27868122    -8.1664457     -7.7484298      0.73804895     50218.233      36.893836      36.893836      36.893836    
    442000   0.28193975    -8.1645649     -7.7416612      0.77187328     50218.233      36.893836      36.893836      36.893836    
    443000   0.28057528    -8.1643168     -7.7434599      0.76536168     50218.233      36.893836      36.893836      36.893836    
    444000   0.2780924     -8.1660897     -7.748957       0.74965587     50218.233      36.893836      36.893836      36.893836    
    445000   0.28027045    -8.1680456     -7.7476459      0.73914554     50218.233      36.893836      36.893836      36.893836    
    446000   0.28031943    -8.1668183     -7.7463451      0.74791838     50218.233      36.893836      36.893836      36.893836    
    447000   0.27955021    -8.164706      -7.7453867      0.75874471     50218.233      36.893836      36.893836      36.893836    
    448000   0.28018229    -8.1647344     -7.7444669      0.76388998     50218.233      36.893836      36.893836      36.893836    
    449000   0.27910254    -8.1680652     -7.7494174      0.72536933     50218.233      36.893836      36.893836      36.893836    
    450000   0.2810566     -8.1659228     -7.7443439      0.75223892     50218.233      36.893836      36.893836      36.893836    
    451000   0.27991793    -8.1667719     -7.746901       0.75224314     50218.233      36.893836      36.893836      36.893836    
    452000   0.28040188    -8.1656303     -7.7450335      0.74464282     50218.233      36.893836      36.893836      36.893836    
    453000   0.27945465    -8.1670371     -7.7478611      0.74132346     50218.233      36.893836      36.893836      36.893836    
    454000   0.27958691    -8.167095      -7.7477206      0.73337597     50218.233      36.893836      36.893836      36.893836    
    455000   0.27972719    -8.1636697     -7.7440849      0.76913992     50218.233      36.893836      36.893836      36.893836    
    456000   0.27995232    -8.1658199     -7.7458974      0.74389958     50218.233      36.893836      36.893836      36.893836    
    457000   0.28168822    -8.1647797     -7.7422534      0.76466323     50218.233      36.893836      36.893836      36.893836    
    458000   0.27923045    -8.1659395     -7.7470998      0.74390044     50218.233      36.893836      36.893836      36.893836    
    459000   0.27938914    -8.1651596     -7.7460818      0.74758705     50218.233      36.893836      36.893836      36.893836    
    460000   0.28031283    -8.1636258     -7.7431625      0.76981111     50218.233      36.893836      36.893836      36.893836    
    461000   0.2809487     -8.1621202     -7.7407031      0.77277277     50218.233      36.893836      36.893836      36.893836    
    462000   0.28102794    -8.1648144     -7.7432785      0.76803191     50218.233      36.893836      36.893836      36.893836    
    463000   0.28003076    -8.1656856     -7.7456454      0.74990167     50218.233      36.893836      36.893836      36.893836    
    464000   0.28048039    -8.1650995     -7.7443849      0.75943324     50218.233      36.893836      36.893836      36.893836    
    465000   0.2805736     -8.1619345     -7.7410801      0.7802278      50218.233      36.893836      36.893836      36.893836    
    466000   0.27951557    -8.1645321     -7.7452647      0.75419291     50218.233      36.893836      36.893836      36.893836    
    467000   0.27965497    -8.1625017     -7.7430252      0.78132209     50218.233      36.893836      36.893836      36.893836    
    468000   0.27994612    -8.1648413     -7.7449281      0.75200244     50218.233      36.893836      36.893836      36.893836    
    469000   0.28005696    -8.1651542     -7.7450747      0.7537048      50218.233      36.893836      36.893836      36.893836    
    470000   0.27860661    -8.1649001     -7.7469961      0.75347155     50218.233      36.893836      36.893836      36.893836    
    471000   0.28059417    -8.1630836     -7.7421984      0.77784933     50218.233      36.893836      36.893836      36.893836    
    472000   0.28018388    -8.1614108     -7.7411409      0.78156396     50218.233      36.893836      36.893836      36.893836    
    473000   0.27893968    -8.1649317     -7.7465281      0.75593501     50218.233      36.893836      36.893836      36.893836    
    474000   0.28060331    -8.1652423     -7.7443433      0.75420776     50218.233      36.893836      36.893836      36.893836    
    475000   0.28041666    -8.1628963     -7.7422773      0.77347512     50218.233      36.893836      36.893836      36.893836    
    476000   0.27851372    -8.1638845     -7.7461199      0.75964079     50218.233      36.893836      36.893836      36.893836    
    477000   0.27889502    -8.1643989     -7.7460623      0.75377794     50218.233      36.893836      36.893836      36.893836    
    478000   0.28051491    -8.1659481     -7.7451817      0.75327225     50218.233      36.893836      36.893836      36.893836    
    479000   0.28057163    -8.1631992     -7.7423477      0.76732126     50218.233      36.893836      36.893836      36.893836    
    480000   0.27923714    -8.1618843     -7.7430345      0.78084661     50218.233      36.893836      36.893836      36.893836    
    481000   0.28089706    -8.1639356     -7.742596       0.76030262     50218.233      36.893836      36.893836      36.893836    
    482000   0.27964706    -8.1649028     -7.7454382      0.75296744     50218.233      36.893836      36.893836      36.893836    
    483000   0.27825939    -8.1663607     -7.7489776      0.74044381     50218.233      36.893836      36.893836      36.893836    
    484000   0.27860014    -8.1668784     -7.7489841      0.7365314      50218.233      36.893836      36.893836      36.893836    
    485000   0.28019841    -8.1636654     -7.7433738      0.76291336     50218.233      36.893836      36.893836      36.893836    
    486000   0.27839026    -8.164043      -7.7464635      0.76001944     50218.233      36.893836      36.893836      36.893836    
    487000   0.2799449     -8.1656001     -7.7456887      0.76120219     50218.233      36.893836      36.893836      36.893836    
    488000   0.27889393    -8.1652731     -7.7469381      0.75026529     50218.233      36.893836      36.893836      36.893836    
    489000   0.2801897     -8.1670955     -7.7468169      0.74682489     50218.233      36.893836      36.893836      36.893836    
    490000   0.28033241    -8.1677385     -7.7472458      0.74279541     50218.233      36.893836      36.893836      36.893836    
    491000   0.28083085    -8.1675444     -7.7463041      0.74133109     50218.233      36.893836      36.893836      36.893836    
    492000   0.28038168    -8.1662764     -7.7457098      0.73983606     50218.233      36.893836      36.893836      36.893836    
    493000   0.28057017    -8.1636093     -7.7427601      0.77398031     50218.233      36.893836      36.893836      36.893836    
    494000   0.28000461    -8.1655697     -7.7455687      0.75188507     50218.233      36.893836      36.893836      36.893836    
    495000   0.28151684    -8.1663397     -7.7440704      0.74652932     50218.233      36.893836      36.893836      36.893836    
    496000   0.27925494    -8.1656729     -7.7467964      0.75049989     50218.233      36.893836      36.893836      36.893836    
    497000   0.281665      -8.1670199     -7.7445284      0.75034097     50218.233      36.893836      36.893836      36.893836    
    498000   0.27976556    -8.1662854     -7.7466431      0.7504309      50218.233      36.893836      36.893836      36.893836    
    499000   0.27896145    -8.1647309     -7.7462947      0.75796049     50218.233      36.893836      36.893836      36.893836    
    500000   0.2805569     -8.1661042     -7.7452749      0.74504326     50218.233      36.893836      36.893836      36.893836    
    501000   0.28018563    -8.164862      -7.7445896      0.75284013     50218.233      36.893836      36.893836      36.893836    
    502000   0.27988762    -8.1674099     -7.7475845      0.73617529     50218.233      36.893836      36.893836      36.893836    
    503000   0.28026632    -8.1643046     -7.7439111      0.76890257     50218.233      36.893836      36.893836      36.893836    
    504000   0.27900915    -8.1653609     -7.7468531      0.74726769     50218.233      36.893836      36.893836      36.893836    
    505000   0.27819308    -8.1652816     -7.7479979      0.75106855     50218.233      36.893836      36.893836      36.893836    
    506000   0.27976114    -8.1675862     -7.7479504      0.74729282     50218.233      36.893836      36.893836      36.893836    
    507000   0.2793049     -8.1645837     -7.7456323      0.75760017     50218.233      36.893836      36.893836      36.893836    
    508000   0.28004156    -8.166566      -7.7465096      0.76420713     50218.233      36.893836      36.893836      36.893836    
    509000   0.28070394    -8.1663472     -7.7452973      0.74157724     50218.233      36.893836      36.893836      36.893836    
    510000   0.28043599    -8.1637786     -7.7431306      0.76158817     50218.233      36.893836      36.893836      36.893836    
    511000   0.27951299    -8.166997      -7.7477335      0.74204836     50218.233      36.893836      36.893836      36.893836    
    512000   0.2799249     -8.1638989     -7.7440175      0.76382143     50218.233      36.893836      36.893836      36.893836    
    513000   0.27741005    -8.164902      -7.7487929      0.75521628     50218.233      36.893836      36.893836      36.893836    
    514000   0.27995759    -8.163619      -7.7436886      0.76527299     50218.233      36.893836      36.893836      36.893836    
    515000   0.27883794    -8.1633313     -7.7450804      0.76871742     50218.233      36.893836      36.893836      36.893836    
    516000   0.27935239    -8.163769      -7.7447463      0.77337108     50218.233      36.893836      36.893836      36.893836    
    517000   0.27968303    -8.1649181     -7.7453995      0.75429294     50218.233      36.893836      36.893836      36.893836    
    518000   0.28035099    -8.1631285     -7.742608       0.77556105     50218.233      36.893836      36.893836      36.893836    
    519000   0.28003914    -8.1632579     -7.7432051      0.76529729     50218.233      36.893836      36.893836      36.893836    
    520000   0.28093843    -8.162788      -7.7413863      0.77412802     50218.233      36.893836      36.893836      36.893836    
    521000   0.27876763    -8.1664067     -7.7482611      0.7466629      50218.233      36.893836      36.893836      36.893836    
    522000   0.27963857    -8.1648528     -7.7454009      0.76249256     50218.233      36.893836      36.893836      36.893836    
    523000   0.2789713     -8.1654412     -7.7469902      0.74958474     50218.233      36.893836      36.893836      36.893836    
    524000   0.2795502     -8.1652919     -7.7459726      0.75829826     50218.233      36.893836      36.893836      36.893836    
    525000   0.28012124    -8.1635532     -7.7433774      0.76699937     50218.233      36.893836      36.893836      36.893836    
    526000   0.27860151    -8.1627834     -7.744887       0.77320454     50218.233      36.893836      36.893836      36.893836    
    527000   0.28023468    -8.1659108     -7.7455648      0.74874471     50218.233      36.893836      36.893836      36.893836    
    528000   0.27890668    -8.1643789     -7.7460248      0.76100501     50218.233      36.893836      36.893836      36.893836    
    529000   0.28016091    -8.164531      -7.7442956      0.77350651     50218.233      36.893836      36.893836      36.893836    
    530000   0.28020573    -8.1636723     -7.7433697      0.76678603     50218.233      36.893836      36.893836      36.893836    
    531000   0.27931836    -8.1659736     -7.747002       0.75354693     50218.233      36.893836      36.893836      36.893836    
    532000   0.28033255    -8.1637623     -7.7432695      0.76672542     50218.233      36.893836      36.893836      36.893836    
    533000   0.28037021    -8.1643944     -7.7438451      0.76109466     50218.233      36.893836      36.893836      36.893836    
    534000   0.27915021    -8.1639973     -7.745278       0.76524188     50218.233      36.893836      36.893836      36.893836    
    535000   0.27881177    -8.1635767     -7.745365       0.77500402     50218.233      36.893836      36.893836      36.893836    
    536000   0.27983856    -8.1652675     -7.7455157      0.7553841      50218.233      36.893836      36.893836      36.893836    
    537000   0.28150396    -8.1659877     -7.7437378      0.75137668     50218.233      36.893836      36.893836      36.893836    
    538000   0.28030671    -8.1630656     -7.7426115      0.77041266     50218.233      36.893836      36.893836      36.893836    
    539000   0.28087648    -8.1654898     -7.744181       0.7506882      50218.233      36.893836      36.893836      36.893836    
    540000   0.27969568    -8.1638139     -7.7442763      0.7597945      50218.233      36.893836      36.893836      36.893836    
    541000   0.27893276    -8.1648589     -7.7464657      0.75804625     50218.233      36.893836      36.893836      36.893836    
    542000   0.27877627    -8.1679834     -7.7498249      0.73659092     50218.233      36.893836      36.893836      36.893836    
    543000   0.2790633     -8.1638915     -7.7453025      0.75878386     50218.233      36.893836      36.893836      36.893836    
    544000   0.27977398    -8.1659355     -7.7462805      0.75745224     50218.233      36.893836      36.893836      36.893836    
    545000   0.27919146    -8.166052      -7.7472708      0.74101256     50218.233      36.893836      36.893836      36.893836    
    546000   0.28004943    -8.1660246     -7.7459564      0.75455674     50218.233      36.893836      36.893836      36.893836    
    547000   0.28069312    -8.1657774     -7.7447437      0.76113804     50218.233      36.893836      36.893836      36.893836    
    548000   0.28053568    -8.1633446     -7.7425471      0.77173496     50218.233      36.893836      36.893836      36.893836    
    549000   0.27956548    -8.1665616     -7.7472193      0.74274684     50218.233      36.893836      36.893836      36.893836    
    550000   0.28011862    -8.1673168     -7.7471448      0.7438267      50218.233      36.893836      36.893836      36.893836    
    551000   0.28050786    -8.1670245     -7.7462687      0.7479157      50218.233      36.893836      36.893836      36.893836    
    552000   0.2798372     -8.1650848     -7.745335       0.75594445     50218.233      36.893836      36.893836      36.893836    
    553000   0.28075455    -8.1658348     -7.7447089      0.75757897     50218.233      36.893836      36.893836      36.893836    
    554000   0.28021527    -8.1665714     -7.7462544      0.74123828     50218.233      36.893836      36.893836      36.893836    
    555000   0.28143574    -8.1637094     -7.7415618      0.76634141     50218.233      36.893836      36.893836      36.893836    
    556000   0.2811284     -8.1631938     -7.7415072      0.76666665     50218.233      36.893836      36.893836      36.893836    
    557000   0.27937103    -8.1642067     -7.7451561      0.75908964     50218.233      36.893836      36.893836      36.893836    
    558000   0.27974271    -8.1671026     -7.7474945      0.74394723     50218.233      36.893836      36.893836      36.893836    
    559000   0.27817206    -8.1652388     -7.7479867      0.75311813     50218.233      36.893836      36.893836      36.893836    
    560000   0.27890236    -8.165766      -7.7474185      0.75907808     50218.233      36.893836      36.893836      36.893836    
    561000   0.28103495    -8.163209      -7.7416626      0.77014804     50218.233      36.893836      36.893836      36.893836    
    562000   0.28105312    -8.1642084     -7.7426347      0.76510974     50218.233      36.893836      36.893836      36.893836    
    563000   0.28066147    -8.1642005     -7.7432142      0.75642639     50218.233      36.893836      36.893836      36.893836    
    564000   0.28005449    -8.1656326     -7.7455568      0.75026812     50218.233      36.893836      36.893836      36.893836    
    565000   0.28105115    -8.1624043     -7.7408336      0.77265004     50218.233      36.893836      36.893836      36.893836    
    566000   0.28063378    -8.1654406     -7.7444959      0.7521574      50218.233      36.893836      36.893836      36.893836    
    567000   0.27976517    -8.1647375     -7.7450957      0.76454051     50218.233      36.893836      36.893836      36.893836    
    568000   0.28057592    -8.1636156     -7.7427577      0.76423334     50218.233      36.893836      36.893836      36.893836    
    569000   0.28027337    -8.1636973     -7.7432932      0.7699584      50218.233      36.893836      36.893836      36.893836    
    570000   0.28023848    -8.1645693     -7.7442176      0.76082341     50218.233      36.893836      36.893836      36.893836    
    571000   0.28071937    -8.1654572     -7.7443841      0.75282533     50218.233      36.893836      36.893836      36.893836    
    572000   0.28020633    -8.1649869     -7.7446834      0.75442631     50218.233      36.893836      36.893836      36.893836    
    573000   0.2800429     -8.1653159     -7.7452575      0.76076727     50218.233      36.893836      36.893836      36.893836    
    574000   0.27973393    -8.1644731     -7.7448782      0.75691468     50218.233      36.893836      36.893836      36.893836    
    575000   0.27970823    -8.1662073     -7.7466509      0.73764623     50218.233      36.893836      36.893836      36.893836    
    576000   0.28028768    -8.1629748     -7.7425492      0.77356563     50218.233      36.893836      36.893836      36.893836    
    577000   0.27948418    -8.1622264     -7.7430061      0.7770152      50218.233      36.893836      36.893836      36.893836    
    578000   0.28142836    -8.1633803     -7.7412438      0.77569885     50218.233      36.893836      36.893836      36.893836    
    579000   0.27987927    -8.1656255     -7.7458126      0.75290738     50218.233      36.893836      36.893836      36.893836    
    580000   0.28110313    -8.1639666     -7.7423179      0.76464979     50218.233      36.893836      36.893836      36.893836    
    581000   0.28130988    -8.1624631     -7.7405043      0.78026655     50218.233      36.893836      36.893836      36.893836    
    582000   0.28023647    -8.1644466     -7.7440979      0.76302609     50218.233      36.893836      36.893836      36.893836    
    583000   0.27937126    -8.1637708     -7.7447199      0.76245948     50218.233      36.893836      36.893836      36.893836    
    584000   0.28038931    -8.1642201     -7.7436421      0.76496609     50218.233      36.893836      36.893836      36.893836    
    585000   0.2803967     -8.1640978     -7.7435087      0.76149768     50218.233      36.893836      36.893836      36.893836    
    586000   0.27979701    -8.1658957     -7.7462062      0.75016703     50218.233      36.893836      36.893836      36.893836    
    587000   0.27938347    -8.1681596     -7.7490904      0.73184007     50218.233      36.893836      36.893836      36.893836    
    588000   0.28147516    -8.1648688     -7.7426621      0.75580312     50218.233      36.893836      36.893836      36.893836    
    589000   0.2816541     -8.1640753     -7.7416002      0.76382693     50218.233      36.893836      36.893836      36.893836    
    590000   0.28075506    -8.1652406     -7.744114       0.75077641     50218.233      36.893836      36.893836      36.893836    
    591000   0.28114296    -8.1664275     -7.7447191      0.74679195     50218.233      36.893836      36.893836      36.893836    
    592000   0.27982761    -8.1678109     -7.7480754      0.73048646     50218.233      36.893836      36.893836      36.893836    
    593000   0.28046626    -8.1663142     -7.7456208      0.75232598     50218.233      36.893836      36.893836      36.893836    
    594000   0.28113463    -8.1657402     -7.7440442      0.758594       50218.233      36.893836      36.893836      36.893836    
    595000   0.27889111    -8.1655262     -7.7471955      0.75174362     50218.233      36.893836      36.893836      36.893836    
    596000   0.28064186    -8.1674835     -7.7465267      0.73966239     50218.233      36.893836      36.893836      36.893836    
    597000   0.27993115    -8.1635993     -7.7437085      0.76893914     50218.233      36.893836      36.893836      36.893836    
    598000   0.28010615    -8.1666784     -7.7465252      0.74222592     50218.233      36.893836      36.893836      36.893836    
    599000   0.28009623    -8.1653145     -7.7451761      0.75531123     50218.233      36.893836      36.893836      36.893836    
    600000   0.27930189    -8.1652587     -7.7463118      0.74868497     50218.233      36.893836      36.893836      36.893836    
    601000   0.27999377    -8.1667702     -7.7467855      0.74294256     50218.233      36.893836      36.893836      36.893836    
    602000   0.27883032    -8.1660023     -7.7477628      0.7457313      50218.233      36.893836      36.893836      36.893836    
    603000   0.27851699    -8.1666863     -7.7489168      0.74299015     50218.233      36.893836      36.893836      36.893836    
    604000   0.28059136    -8.165277      -7.744396       0.76248125     50218.233      36.893836      36.893836      36.893836    
    605000   0.27837576    -8.1648575     -7.7472997      0.75634399     50218.233      36.893836      36.893836      36.893836    
    606000   0.28086155    -8.1653261     -7.7440398      0.7517608      50218.233      36.893836      36.893836      36.893836    
    607000   0.28090733    -8.1656116     -7.7442566      0.74888707     50218.233      36.893836      36.893836      36.893836    
    608000   0.27901777    -8.1651678     -7.7466471      0.75746879     50218.233      36.893836      36.893836      36.893836    
    609000   0.27986288    -8.1647968     -7.7450084      0.75663009     50218.233      36.893836      36.893836      36.893836    
    610000   0.28070529    -8.1657003     -7.7446483      0.74919116     50218.233      36.893836      36.893836      36.893836    
    611000   0.27906072    -8.1641821     -7.7455969      0.76094563     50218.233      36.893836      36.893836      36.893836    
    612000   0.28060131    -8.1644778     -7.7435818      0.7566329      50218.233      36.893836      36.893836      36.893836    
    613000   0.28076005    -8.1630953     -7.7419612      0.77429702     50218.233      36.893836      36.893836      36.893836    
    614000   0.2794315     -8.1647838     -7.7456426      0.75806992     50218.233      36.893836      36.893836      36.893836    
    615000   0.28015822    -8.1621945     -7.7419632      0.77654681     50218.233      36.893836      36.893836      36.893836    
    616000   0.27936453    -8.1654093     -7.7463685      0.7572471      50218.233      36.893836      36.893836      36.893836    
    617000   0.27913188    -8.1657355     -7.7470436      0.74594844     50218.233      36.893836      36.893836      36.893836    
    618000   0.28180825    -8.1627783     -7.7400719      0.78112071     50218.233      36.893836      36.893836      36.893836    
    619000   0.28110448    -8.1676079     -7.7459572      0.73962667     50218.233      36.893836      36.893836      36.893836    
    620000   0.27943497    -8.1644399     -7.7452934      0.7548546      50218.233      36.893836      36.893836      36.893836    
    621000   0.28024332    -8.1645177     -7.7441587      0.76778561     50218.233      36.893836      36.893836      36.893836    
    622000   0.28146486    -8.1644833     -7.742292       0.7596804      50218.233      36.893836      36.893836      36.893836    
    623000   0.27885891    -8.1638458     -7.7455634      0.76233181     50218.233      36.893836      36.893836      36.893836    
    624000   0.28167667    -8.1657282     -7.7432192      0.75584443     50218.233      36.893836      36.893836      36.893836    
    625000   0.27843796    -8.1647324     -7.7470814      0.75612562     50218.233      36.893836      36.893836      36.893836    
    626000   0.28057538    -8.1621949     -7.7413378      0.78146488     50218.233      36.893836      36.893836      36.893836    
    627000   0.27979372    -8.1661365     -7.7464519      0.74589911     50218.233      36.893836      36.893836      36.893836    
    628000   0.28105154    -8.1646473     -7.743076       0.75880768     50218.233      36.893836      36.893836      36.893836    
    629000   0.28214947    -8.1641147     -7.7408965      0.77129872     50218.233      36.893836      36.893836      36.893836    
    630000   0.28093678    -8.1623033     -7.7409042      0.77592311     50218.233      36.893836      36.893836      36.893836    
    631000   0.28052188    -8.1628707     -7.7420938      0.77476284     50218.233      36.893836      36.893836      36.893836    
    632000   0.28094468    -8.1637368     -7.7423257      0.76530008     50218.233      36.893836      36.893836      36.893836    
    633000   0.27911445    -8.1659112     -7.7472455      0.7430487      50218.233      36.893836      36.893836      36.893836    
    634000   0.28099214    -8.1644598     -7.7429776      0.76740594     50218.233      36.893836      36.893836      36.893836    
    635000   0.28152182    -8.1636158     -7.7413391      0.76681442     50218.233      36.893836      36.893836      36.893836    
    636000   0.2809519     -8.1662954     -7.7448735      0.75074442     50218.233      36.893836      36.893836      36.893836    
    637000   0.28044412    -8.1650367     -7.7443765      0.7571315      50218.233      36.893836      36.893836      36.893836    
    638000   0.28010417    -8.1659802     -7.74583        0.75564404     50218.233      36.893836      36.893836      36.893836    
    639000   0.27909379    -8.1655201     -7.7468853      0.75441252     50218.233      36.893836      36.893836      36.893836    
    640000   0.27833542    -8.1649204     -7.7474232      0.74968398     50218.233      36.893836      36.893836      36.893836    
    641000   0.28047601    -8.1665208     -7.7458128      0.74546772     50218.233      36.893836      36.893836      36.893836    
    642000   0.27951       -8.1639585     -7.7446995      0.76819058     50218.233      36.893836      36.893836      36.893836    
    643000   0.27958712    -8.1668768     -7.7475021      0.74634367     50218.233      36.893836      36.893836      36.893836    
    644000   0.27935237    -8.166716      -7.7476934      0.74264874     50218.233      36.893836      36.893836      36.893836    
    645000   0.28061832    -8.165952      -7.7450305      0.7431872      50218.233      36.893836      36.893836      36.893836    
    646000   0.2792505     -8.1662746     -7.7474048      0.75000119     50218.233      36.893836      36.893836      36.893836    
    647000   0.27906047    -8.1657722     -7.7471874      0.7512568      50218.233      36.893836      36.893836      36.893836    
    648000   0.27923158    -8.1673649     -7.7485235      0.73460019     50218.233      36.893836      36.893836      36.893836    
    649000   0.27958043    -8.1641805     -7.7448158      0.75926584     50218.233      36.893836      36.893836      36.893836    
    650000   0.28004955    -8.1659591     -7.7458908      0.75105205     50218.233      36.893836      36.893836      36.893836    
    651000   0.28035001    -8.1668671     -7.7463481      0.74828535     50218.233      36.893836      36.893836      36.893836    
    652000   0.279001      -8.1681211     -7.7496256      0.74178893     50218.233      36.893836      36.893836      36.893836    
    653000   0.28246149    -8.1661855     -7.7424993      0.75536618     50218.233      36.893836      36.893836      36.893836    
    654000   0.28080781    -8.1645708     -7.7433651      0.76468824     50218.233      36.893836      36.893836      36.893836    
    655000   0.27987539    -8.1638408     -7.7440337      0.76546532     50218.233      36.893836      36.893836      36.893836    
    656000   0.2810139     -8.1645236     -7.7430088      0.75924323     50218.233      36.893836      36.893836      36.893836    
    657000   0.28134406    -8.1660134     -7.7440033      0.75177747     50218.233      36.893836      36.893836      36.893836    
    658000   0.27976026    -8.166171      -7.7465366      0.74129362     50218.233      36.893836      36.893836      36.893836    
    659000   0.28175775    -8.1671874     -7.7445568      0.7412055      50218.233      36.893836      36.893836      36.893836    
    660000   0.28043774    -8.1676958     -7.7470452      0.73686875     50218.233      36.893836      36.893836      36.893836    
    661000   0.27999731    -8.1645195     -7.7445295      0.76165321     50218.233      36.893836      36.893836      36.893836    
    662000   0.27900521    -8.1650693     -7.7465675      0.75425844     50218.233      36.893836      36.893836      36.893836    
    663000   0.27920551    -8.1635795     -7.7447772      0.76325843     50218.233      36.893836      36.893836      36.893836    
    664000   0.28148686    -8.1650167     -7.7427924      0.76232145     50218.233      36.893836      36.893836      36.893836    
    665000   0.27900927    -8.1636586     -7.7451506      0.76313382     50218.233      36.893836      36.893836      36.893836    
    666000   0.27870451    -8.1660259     -7.7479751      0.75007645     50218.233      36.893836      36.893836      36.893836    
    667000   0.28018093    -8.1635946     -7.7433292      0.76245119     50218.233      36.893836      36.893836      36.893836    
    668000   0.28128886    -8.1643245     -7.7423972      0.76640147     50218.233      36.893836      36.893836      36.893836    
    669000   0.28138771    -8.1649128     -7.7428373      0.75850214     50218.233      36.893836      36.893836      36.893836    
    670000   0.28014726    -8.165259      -7.7450441      0.75474372     50218.233      36.893836      36.893836      36.893836    
    671000   0.28055232    -8.1626599     -7.7418374      0.77188543     50218.233      36.893836      36.893836      36.893836    
    672000   0.28093288    -8.1652413     -7.743848       0.75972559     50218.233      36.893836      36.893836      36.893836    
    673000   0.27859181    -8.1621739     -7.7442921      0.77908478     50218.233      36.893836      36.893836      36.893836    
    674000   0.27875883    -8.1640508     -7.7459185      0.75738012     50218.233      36.893836      36.893836      36.893836    
    675000   0.2803571     -8.1649689     -7.7444392      0.76477484     50218.233      36.893836      36.893836      36.893836    
    676000   0.28012093    -8.1661031     -7.7459277      0.74815949     50218.233      36.893836      36.893836      36.893836    
    677000   0.2797412     -8.165611      -7.7460052      0.7483245      50218.233      36.893836      36.893836      36.893836    
    678000   0.2801192     -8.1619246     -7.7417517      0.78039531     50218.233      36.893836      36.893836      36.893836    
    679000   0.27961       -8.1635521     -7.7441431      0.7725837      50218.233      36.893836      36.893836      36.893836    
    680000   0.28041007    -8.164757      -7.7441479      0.75483299     50218.233      36.893836      36.893836      36.893836    
    681000   0.2809721     -8.1645241     -7.7430719      0.76498401     50218.233      36.893836      36.893836      36.893836    
    682000   0.27961137    -8.1643092     -7.7448981      0.76501544     50218.233      36.893836      36.893836      36.893836    
    683000   0.28216043    -8.1658243     -7.7425897      0.7481121      50218.233      36.893836      36.893836      36.893836    
    684000   0.28054443    -8.1653104     -7.7444998      0.761039       50218.233      36.893836      36.893836      36.893836    
    685000   0.28067278    -8.1655598     -7.7445566      0.752292       50218.233      36.893836      36.893836      36.893836    
    686000   0.28095715    -8.1665164     -7.7450866      0.74720657     50218.233      36.893836      36.893836      36.893836    
    687000   0.27989853    -8.1649395     -7.7450977      0.76341621     50218.233      36.893836      36.893836      36.893836    
    688000   0.28047581    -8.1678062     -7.7470984      0.73292779     50218.233      36.893836      36.893836      36.893836    
    689000   0.2806634     -8.1663681     -7.745379       0.74806515     50218.233      36.893836      36.893836      36.893836    
    690000   0.27991743    -8.1662742     -7.7464041      0.73473097     50218.233      36.893836      36.893836      36.893836    
    691000   0.2807054     -8.1662432     -7.7451911      0.74797023     50218.233      36.893836      36.893836      36.893836    
    692000   0.27988662    -8.1630345     -7.7432106      0.76070297     50218.233      36.893836      36.893836      36.893836    
    693000   0.28155846    -8.1657467     -7.743415       0.74915206     50218.233      36.893836      36.893836      36.893836    
    694000   0.28077319    -8.1653124     -7.7441586      0.75230422     50218.233      36.893836      36.893836      36.893836    
    695000   0.28093715    -8.1657579     -7.7443582      0.74697941     50218.233      36.893836      36.893836      36.893836    
    696000   0.28052317    -8.1675912     -7.7468124      0.74032091     50218.233      36.893836      36.893836      36.893836    
    697000   0.28079705    -8.1645111     -7.7433215      0.75779273     50218.233      36.893836      36.893836      36.893836    
    698000   0.28053799    -8.168133      -7.7473321      0.74372851     50218.233      36.893836      36.893836      36.893836    
    699000   0.28043051    -8.1650275     -7.7443878      0.75290963     50218.233      36.893836      36.893836      36.893836    
    700000   0.27903362    -8.1647644     -7.7462199      0.76258526     50218.233      36.893836      36.893836      36.893836    
    701000   0.27925963    -8.165819      -7.7469355      0.74992781     50218.233      36.893836      36.893836      36.893836    
    702000   0.27923452    -8.1655397     -7.7466939      0.74941427     50218.233      36.893836      36.893836      36.893836    
    703000   0.2798301     -8.1659561     -7.7462169      0.74896604     50218.233      36.893836      36.893836      36.893836    
    704000   0.27964448    -8.1651055     -7.7456447      0.75553352     50218.233      36.893836      36.893836      36.893836    
    705000   0.28174781    -8.1628856     -7.7402699      0.77261131     50218.233      36.893836      36.893836      36.893836    
    706000   0.28002809    -8.1665089     -7.7464728      0.7513904      50218.233      36.893836      36.893836      36.893836    
    707000   0.27760825    -8.1660344     -7.749628       0.7457797      50218.233      36.893836      36.893836      36.893836    
    708000   0.27972602    -8.1657031     -7.7461201      0.75388066     50218.233      36.893836      36.893836      36.893836    
    709000   0.27996711    -8.1661474     -7.7462027      0.74865597     50218.233      36.893836      36.893836      36.893836    
    710000   0.27889597    -8.1651328     -7.7467948      0.75775016     50218.233      36.893836      36.893836      36.893836    
    711000   0.28111361    -8.1657357     -7.7440713      0.75840631     50218.233      36.893836      36.893836      36.893836    
    712000   0.28025234    -8.1658116     -7.745439       0.75017972     50218.233      36.893836      36.893836      36.893836    
    713000   0.27962982    -8.1651204     -7.7456816      0.75768311     50218.233      36.893836      36.893836      36.893836    
    714000   0.27893824    -8.1634441     -7.7450427      0.76785977     50218.233      36.893836      36.893836      36.893836    
    715000   0.28090707    -8.1668014     -7.7454467      0.74273278     50218.233      36.893836      36.893836      36.893836    
    716000   0.28055796    -8.1651844     -7.7443534      0.7565073      50218.233      36.893836      36.893836      36.893836    
    717000   0.27959397    -8.164328      -7.744943       0.76383467     50218.233      36.893836      36.893836      36.893836    
    718000   0.28069375    -8.1644277     -7.743393       0.76550506     50218.233      36.893836      36.893836      36.893836    
    719000   0.28106488    -8.1640256     -7.7424343      0.77372491     50218.233      36.893836      36.893836      36.893836    
    720000   0.27894392    -8.1630385     -7.7446286      0.77408915     50218.233      36.893836      36.893836      36.893836    
    721000   0.28021281    -8.1649938     -7.7446806      0.75489901     50218.233      36.893836      36.893836      36.893836    
    722000   0.27941817    -8.1621638     -7.7430425      0.77356106     50218.233      36.893836      36.893836      36.893836    
    723000   0.28060643    -8.1636555     -7.7427519      0.76647826     50218.233      36.893836      36.893836      36.893836    
    724000   0.28197139    -8.1632195     -7.7402684      0.77702038     50218.233      36.893836      36.893836      36.893836    
    725000   0.27897511    -8.1640004     -7.7455437      0.76796524     50218.233      36.893836      36.893836      36.893836    
    726000   0.2803496     -8.16357       -7.7430516      0.77137857     50218.233      36.893836      36.893836      36.893836    
    727000   0.28030795    -8.1647847     -7.7443288      0.75619895     50218.233      36.893836      36.893836      36.893836    
    728000   0.27966172    -8.1648977     -7.7454111      0.7559654      50218.233      36.893836      36.893836      36.893836    
    729000   0.27983859    -8.1641034     -7.7443515      0.76422937     50218.233      36.893836      36.893836      36.893836    
    730000   0.28060015    -8.1652525     -7.7443583      0.75522693     50218.233      36.893836      36.893836      36.893836    
    731000   0.28068514    -8.1648749     -7.7438532      0.76542951     50218.233      36.893836      36.893836      36.893836    
    732000   0.2794958     -8.1649144     -7.7456766      0.75692236     50218.233      36.893836      36.893836      36.893836    
    733000   0.27919426    -8.1639416     -7.7451562      0.76234729     50218.233      36.893836      36.893836      36.893836    
    734000   0.28072256    -8.1654959     -7.7444181      0.75881864     50218.233      36.893836      36.893836      36.893836    
    735000   0.28035389    -8.1659416     -7.7454167      0.74854334     50218.233      36.893836      36.893836      36.893836    
    736000   0.27956258    -8.1630546     -7.7437167      0.78015017     50218.233      36.893836      36.893836      36.893836    
    737000   0.28005689    -8.1676917     -7.7476124      0.74279032     50218.233      36.893836      36.893836      36.893836    
    738000   0.28064239    -8.1640493     -7.7430917      0.75658766     50218.233      36.893836      36.893836      36.893836    
    739000   0.28116369    -8.1655693     -7.7438298      0.75751182     50218.233      36.893836      36.893836      36.893836    
    740000   0.28057639    -8.1647488     -7.7438902      0.75247962     50218.233      36.893836      36.893836      36.893836    
    741000   0.2801224     -8.1654901     -7.7453125      0.75160394     50218.233      36.893836      36.893836      36.893836    
    742000   0.27968223    -8.1665299     -7.7470125      0.74444147     50218.233      36.893836      36.893836      36.893836    
    743000   0.27914341    -8.1628307     -7.7441215      0.77083897     50218.233      36.893836      36.893836      36.893836    
    744000   0.27836974    -8.1651303     -7.7475817      0.76189585     50218.233      36.893836      36.893836      36.893836    
    745000   0.27921848    -8.1665633     -7.7477415      0.74741328     50218.233      36.893836      36.893836      36.893836    
    746000   0.28119788    -8.1663897     -7.7445989      0.75285127     50218.233      36.893836      36.893836      36.893836    
    747000   0.28046269    -8.1660931     -7.7454051      0.7439013      50218.233      36.893836      36.893836      36.893836    
    748000   0.28106188    -8.1661312     -7.7445443      0.74707395     50218.233      36.893836      36.893836      36.893836    
    749000   0.27986006    -8.1675407     -7.7477566      0.73883788     50218.233      36.893836      36.893836      36.893836    
    750000   0.27965026    -8.1668724     -7.747403       0.74961347     50218.233      36.893836      36.893836      36.893836    
    751000   0.28095709    -8.1645192     -7.7430896      0.76838333     50218.233      36.893836      36.893836      36.893836    
    752000   0.27971982    -8.1673043     -7.7477306      0.75214462     50218.233      36.893836      36.893836      36.893836    
    753000   0.2809367     -8.1653876     -7.7439886      0.75279718     50218.233      36.893836      36.893836      36.893836    
    754000   0.27934867    -8.1651982     -7.7461811      0.7538041      50218.233      36.893836      36.893836      36.893836    
    755000   0.27920838    -8.1641294     -7.7453228      0.76768749     50218.233      36.893836      36.893836      36.893836    
    756000   0.28058446    -8.165488      -7.7446173      0.75127593     50218.233      36.893836      36.893836      36.893836    
    757000   0.27971408    -8.166625      -7.7470599      0.73742287     50218.233      36.893836      36.893836      36.893836    
    758000   0.27953613    -8.1656212     -7.746323       0.74855818     50218.233      36.893836      36.893836      36.893836    
    759000   0.28006305    -8.1654656     -7.745377       0.759086       50218.233      36.893836      36.893836      36.893836    
    760000   0.28071118    -8.165151      -7.7440903      0.75808164     50218.233      36.893836      36.893836      36.893836    
    761000   0.28083203    -8.1636002     -7.7423581      0.76694565     50218.233      36.893836      36.893836      36.893836    
    762000   0.27946092    -8.1660294     -7.746844       0.75067051     50218.233      36.893836      36.893836      36.893836    
    763000   0.28003919    -8.1639098     -7.743857       0.76707305     50218.233      36.893836      36.893836      36.893836    
    764000   0.28046908    -8.1632834     -7.7425858      0.76365613     50218.233      36.893836      36.893836      36.893836    
    765000   0.28038175    -8.1662635     -7.7456969      0.74303426     50218.233      36.893836      36.893836      36.893836    
    766000   0.28004161    -8.1640933     -7.7440368      0.76322852     50218.233      36.893836      36.893836      36.893836    
    767000   0.28016167    -8.1641911     -7.7439545      0.75888825     50218.233      36.893836      36.893836      36.893836    
    768000   0.28049426    -8.16284       -7.7421046      0.7785965      50218.233      36.893836      36.893836      36.893836    
    769000   0.27863492    -8.1647983     -7.7468519      0.75390885     50218.233      36.893836      36.893836      36.893836    
    770000   0.27869179    -8.1650777     -7.747046       0.75683021     50218.233      36.893836      36.893836      36.893836    
    771000   0.28063477    -8.1644719     -7.7435257      0.75763466     50218.233      36.893836      36.893836      36.893836    
    772000   0.27913289    -8.1642364     -7.745543       0.76302905     50218.233      36.893836      36.893836      36.893836    
    773000   0.27937007    -8.1648584     -7.7458093      0.75403199     50218.233      36.893836      36.893836      36.893836    
    774000   0.28184802    -8.1608862     -7.7381202      0.79367982     50218.233      36.893836      36.893836      36.893836    
    775000   0.28012082    -8.1636067     -7.7434314      0.76620047     50218.233      36.893836      36.893836      36.893836    
    776000   0.27952379    -8.1640366     -7.7447569      0.76584217     50218.233      36.893836      36.893836      36.893836    
    777000   0.280183      -8.1650038     -7.7447353      0.74739332     50218.233      36.893836      36.893836      36.893836    
    778000   0.27969507    -8.164524      -7.7449874      0.7552639      50218.233      36.893836      36.893836      36.893836    
    779000   0.27978438    -8.1652762     -7.7456056      0.7510551      50218.233      36.893836      36.893836      36.893836    
    780000   0.27891008    -8.1644941     -7.7461349      0.75791506     50218.233      36.893836      36.893836      36.893836    
    781000   0.27981814    -8.1645725     -7.7448512      0.7544453      50218.233      36.893836      36.893836      36.893836    
    782000   0.27957168    -8.1655636     -7.746212       0.75498874     50218.233      36.893836      36.893836      36.893836    
    783000   0.28050711    -8.1631452     -7.7423906      0.76741503     50218.233      36.893836      36.893836      36.893836    
    784000   0.27855814    -8.1647012     -7.7468699      0.76000571     50218.233      36.893836      36.893836      36.893836    
    785000   0.27852282    -8.1650857     -7.7473074      0.75968984     50218.233      36.893836      36.893836      36.893836    
    786000   0.28099086    -8.1662267     -7.7447464      0.75235537     50218.233      36.893836      36.893836      36.893836    
    787000   0.28045222    -8.1635759     -7.7429036      0.77753952     50218.233      36.893836      36.893836      36.893836    
    788000   0.27895421    -8.1650374     -7.746612       0.75650464     50218.233      36.893836      36.893836      36.893836    
    789000   0.28116813    -8.1639979     -7.7422517      0.76508806     50218.233      36.893836      36.893836      36.893836    
    790000   0.28027351    -8.1637567     -7.7433524      0.76381468     50218.233      36.893836      36.893836      36.893836    
    791000   0.28056327    -8.1635418     -7.7427029      0.76909267     50218.233      36.893836      36.893836      36.893836    
    792000   0.28017796    -8.1625778     -7.7423169      0.78134047     50218.233      36.893836      36.893836      36.893836    
    793000   0.27984376    -8.1646434     -7.7448837      0.76677556     50218.233      36.893836      36.893836      36.893836    
    794000   0.27889355    -8.1676962     -7.7493619      0.73223473     50218.233      36.893836      36.893836      36.893836    
    795000   0.27927009    -8.1665227     -7.7476236      0.74580385     50218.233      36.893836      36.893836      36.893836    
    796000   0.28141555    -8.1663977     -7.7442804      0.74525896     50218.233      36.893836      36.893836      36.893836    
    797000   0.28053772    -8.1665007     -7.7457001      0.745064       50218.233      36.893836      36.893836      36.893836    
    798000   0.27895681    -8.1647332     -7.746304       0.75729755     50218.233      36.893836      36.893836      36.893836    
    799000   0.28047479    -8.1660262     -7.74532        0.74549378     50218.233      36.893836      36.893836      36.893836    
    800000   0.27969778    -8.1663616     -7.7468209      0.74946883     50218.233      36.893836      36.893836      36.893836    
    801000   0.28086334    -8.1670473     -7.7457583      0.74455559     50218.233      36.893836      36.893836      36.893836    
    802000   0.28017004    -8.1641847     -7.7439357      0.76566874     50218.233      36.893836      36.893836      36.893836    
    803000   0.28099493    -8.1666825     -7.7451961      0.74106596     50218.233      36.893836      36.893836      36.893836    
    804000   0.28021029    -8.1669167     -7.7466073      0.74381716     50218.233      36.893836      36.893836      36.893836    
    805000   0.27882098    -8.1650076     -7.7467821      0.75434329     50218.233      36.893836      36.893836      36.893836    
    806000   0.28057299    -8.1671051     -7.7462516      0.74585875     50218.233      36.893836      36.893836      36.893836    
    807000   0.28077746    -8.1663664     -7.7452062      0.75169539     50218.233      36.893836      36.893836      36.893836    
    808000   0.28105601    -8.164532      -7.742954       0.76046161     50218.233      36.893836      36.893836      36.893836    
    809000   0.27976802    -8.1631059     -7.7434598      0.77006901     50218.233      36.893836      36.893836      36.893836    
    810000   0.28093918    -8.165617      -7.7442143      0.75103355     50218.233      36.893836      36.893836      36.893836    
    811000   0.28092962    -8.1682477     -7.7468593      0.73287039     50218.233      36.893836      36.893836      36.893836    
    812000   0.28083869    -8.1652878     -7.7440358      0.75946869     50218.233      36.893836      36.893836      36.893836    
    813000   0.27941722    -8.1647355     -7.7456156      0.76354596     50218.233      36.893836      36.893836      36.893836    
    814000   0.28011366    -8.166086      -7.7459215      0.75678107     50218.233      36.893836      36.893836      36.893836    
    815000   0.27986591    -8.1636731     -7.7438802      0.77021458     50218.233      36.893836      36.893836      36.893836    
    816000   0.28062017    -8.1647361     -7.7438118      0.76757603     50218.233      36.893836      36.893836      36.893836    
    817000   0.27966259    -8.1631232     -7.7436353      0.77284011     50218.233      36.893836      36.893836      36.893836    
    818000   0.27893686    -8.1638398     -7.7454404      0.76311748     50218.233      36.893836      36.893836      36.893836    
    819000   0.28148128    -8.165319      -7.7431031      0.75774216     50218.233      36.893836      36.893836      36.893836    
    820000   0.2804312     -8.1642074     -7.7435666      0.76240687     50218.233      36.893836      36.893836      36.893836    
    821000   0.28028439    -8.164923      -7.7445024      0.76001451     50218.233      36.893836      36.893836      36.893836    
    822000   0.27927946    -8.1641375     -7.7452243      0.76477004     50218.233      36.893836      36.893836      36.893836    
    823000   0.27977007    -8.1664973     -7.7468481      0.74360053     50218.233      36.893836      36.893836      36.893836    
    824000   0.28036365    -8.1653558     -7.7448163      0.75506814     50218.233      36.893836      36.893836      36.893836    
    825000   0.27942579    -8.1640167     -7.744884       0.76405155     50218.233      36.893836      36.893836      36.893836    
    826000   0.27941775    -8.1660083     -7.7468877      0.74357202     50218.233      36.893836      36.893836      36.893836    
    827000   0.28008321    -8.1641313     -7.7440125      0.77074258     50218.233      36.893836      36.893836      36.893836    
    828000   0.27944035    -8.1624303     -7.7432758      0.7798381      50218.233      36.893836      36.893836      36.893836    
    829000   0.27914925    -8.1643956     -7.7456777      0.76044749     50218.233      36.893836      36.893836      36.893836    
    830000   0.28043822    -8.1636236     -7.7429723      0.77029308     50218.233      36.893836      36.893836      36.893836    
    831000   0.28064123    -8.1617337     -7.7407778      0.78376282     50218.233      36.893836      36.893836      36.893836    
    832000   0.2799168     -8.1639349     -7.7440656      0.77256067     50218.233      36.893836      36.893836      36.893836    
    833000   0.27889203    -8.1651656     -7.7468335      0.76941347     50218.233      36.893836      36.893836      36.893836    
    834000   0.27945752    -8.1654971     -7.7463168      0.75715885     50218.233      36.893836      36.893836      36.893836    
    835000   0.2798886     -8.1658448     -7.7460178      0.74984043     50218.233      36.893836      36.893836      36.893836    
    836000   0.28057493    -8.1644599     -7.7436035      0.76515923     50218.233      36.893836      36.893836      36.893836    
    837000   0.28154309    -8.1643581     -7.7420495      0.76458143     50218.233      36.893836      36.893836      36.893836    
    838000   0.28092916    -8.1661794     -7.7447916      0.75151804     50218.233      36.893836      36.893836      36.893836    
    839000   0.27822894    -8.1652438     -7.7479063      0.75749279     50218.233      36.893836      36.893836      36.893836    
    840000   0.28050163    -8.1673616     -7.7466151      0.73573478     50218.233      36.893836      36.893836      36.893836    
    841000   0.28057773    -8.1659935     -7.7451329      0.74268906     50218.233      36.893836      36.893836      36.893836    
    842000   0.28051281    -8.1626216     -7.7418584      0.78107611     50218.233      36.893836      36.893836      36.893836    
    843000   0.27933499    -8.1660004     -7.7470039      0.7534027      50218.233      36.893836      36.893836      36.893836    
    844000   0.28143317    -8.1670517     -7.7449079      0.7477835      50218.233      36.893836      36.893836      36.893836    
    845000   0.28049317    -8.1657069     -7.7449731      0.76307449     50218.233      36.893836      36.893836      36.893836    
    846000   0.28078584    -8.1652772     -7.7441044      0.76157433     50218.233      36.893836      36.893836      36.893836    
    847000   0.27733166    -8.1653873     -7.7493958      0.75337442     50218.233      36.893836      36.893836      36.893836    
    848000   0.28000436    -8.166211      -7.7462105      0.75054411     50218.233      36.893836      36.893836      36.893836    
    849000   0.28203335    -8.1656377     -7.7425937      0.75571845     50218.233      36.893836      36.893836      36.893836    
    850000   0.28031771    -8.1678929     -7.7474223      0.74009547     50218.233      36.893836      36.893836      36.893836    
    851000   0.27803711    -8.1645514     -7.7475017      0.75817483     50218.233      36.893836      36.893836      36.893836    
    852000   0.27968799    -8.1642139     -7.7446879      0.76385916     50218.233      36.893836      36.893836      36.893836    
    853000   0.27920984    -8.1662907     -7.7474819      0.74381847     50218.233      36.893836      36.893836      36.893836    
    854000   0.28034976    -8.1654654     -7.7449467      0.75752489     50218.233      36.893836      36.893836      36.893836    
    855000   0.28003723    -8.1666265     -7.7465766      0.74987357     50218.233      36.893836      36.893836      36.893836    
    856000   0.27808779    -8.1639143     -7.7467885      0.7704946      50218.233      36.893836      36.893836      36.893836    
    857000   0.28023413    -8.1664401     -7.7460949      0.75281337     50218.233      36.893836      36.893836      36.893836    
    858000   0.27919802    -8.1660856     -7.7472945      0.75594861     50218.233      36.893836      36.893836      36.893836    
    859000   0.27734337    -8.1660611     -7.750052       0.74600006     50218.233      36.893836      36.893836      36.893836    
    860000   0.27962345    -8.1673093     -7.74788        0.73553591     50218.233      36.893836      36.893836      36.893836    
    861000   0.2809245     -8.165514      -7.7441333      0.7519399      50218.233      36.893836      36.893836      36.893836    
    862000   0.27815388    -8.165717      -7.7484921      0.74997387     50218.233      36.893836      36.893836      36.893836    
    863000   0.28004625    -8.1654883     -7.7454249      0.75564712     50218.233      36.893836      36.893836      36.893836    
    864000   0.28089185    -8.1648886     -7.7435568      0.7657382      50218.233      36.893836      36.893836      36.893836    
    865000   0.2801598     -8.1645404     -7.7443067      0.76341433     50218.233      36.893836      36.893836      36.893836    
    866000   0.27994344    -8.1661924     -7.7462832      0.74597615     50218.233      36.893836      36.893836      36.893836    
    867000   0.27831964    -8.1663707     -7.7488972      0.73660432     50218.233      36.893836      36.893836      36.893836    
    868000   0.27969558    -8.1651077     -7.7455703      0.76128616     50218.233      36.893836      36.893836      36.893836    
    869000   0.27951615    -8.1655971     -7.7463288      0.75823031     50218.233      36.893836      36.893836      36.893836    
    870000   0.28100625    -8.1634101     -7.7419068      0.76795035     50218.233      36.893836      36.893836      36.893836    
    871000   0.2807301     -8.1641137     -7.7430245      0.76755616     50218.233      36.893836      36.893836      36.893836    
    872000   0.27937532    -8.1618161     -7.7427591      0.77836604     50218.233      36.893836      36.893836      36.893836    
    873000   0.27900967    -8.1637428     -7.7452342      0.75754049     50218.233      36.893836      36.893836      36.893836    
    874000   0.28016231    -8.1618813     -7.7416438      0.78090793     50218.233      36.893836      36.893836      36.893836    
    875000   0.28044663    -8.1629332     -7.7422692      0.77844212     50218.233      36.893836      36.893836      36.893836    
    876000   0.27936998    -8.1625513     -7.7435023      0.77356712     50218.233      36.893836      36.893836      36.893836    
    877000   0.27895129    -8.1643156     -7.7458946      0.76411741     50218.233      36.893836      36.893836      36.893836    
    878000   0.2783563     -8.1639096     -7.7463811      0.75887549     50218.233      36.893836      36.893836      36.893836    
    879000   0.28052825    -8.1659682     -7.7451818      0.74444867     50218.233      36.893836      36.893836      36.893836    
    880000   0.28164037    -8.1646728     -7.7422183      0.76008169     50218.233      36.893836      36.893836      36.893836    
    881000   0.27905905    -8.1610468     -7.7424642      0.78542621     50218.233      36.893836      36.893836      36.893836    
    882000   0.27972868    -8.1647673     -7.7451802      0.75945951     50218.233      36.893836      36.893836      36.893836    
    883000   0.28043094    -8.1628966     -7.7422562      0.78127149     50218.233      36.893836      36.893836      36.893836    
    884000   0.28189844    -8.1648338     -7.7419921      0.76394694     50218.233      36.893836      36.893836      36.893836    
    885000   0.28170385    -8.1628331     -7.7402834      0.77524474     50218.233      36.893836      36.893836      36.893836    
    886000   0.28033346    -8.1633017     -7.7428075      0.7721677      50218.233      36.893836      36.893836      36.893836    
    887000   0.28078193    -8.16261       -7.7414431      0.77580354     50218.233      36.893836      36.893836      36.893836    
    888000   0.28017848    -8.1654445     -7.7451827      0.75589382     50218.233      36.893836      36.893836      36.893836    
    889000   0.2810008     -8.1659855     -7.7444903      0.74900301     50218.233      36.893836      36.893836      36.893836    
    890000   0.27896426    -8.1659822     -7.7475418      0.74993733     50218.233      36.893836      36.893836      36.893836    
    891000   0.28057018    -8.1679007     -7.7470514      0.73721746     50218.233      36.893836      36.893836      36.893836    
    892000   0.27866674    -8.1626383     -7.7446442      0.77255218     50218.233      36.893836      36.893836      36.893836    
    893000   0.28087317    -8.1644196     -7.7431159      0.76902827     50218.233      36.893836      36.893836      36.893836    
    894000   0.28024273    -8.1656116     -7.7452535      0.75058307     50218.233      36.893836      36.893836      36.893836    
    895000   0.2799638     -8.1665859     -7.7466462      0.75184573     50218.233      36.893836      36.893836      36.893836    
    896000   0.27879383    -8.1642705     -7.7460857      0.76493637     50218.233      36.893836      36.893836      36.893836    
    897000   0.28081831    -8.1644999     -7.7432785      0.75872705     50218.233      36.893836      36.893836      36.893836    
    898000   0.27984439    -8.1671302     -7.7473696      0.74031171     50218.233      36.893836      36.893836      36.893836    
    899000   0.27798908    -8.1656623     -7.7486846      0.74878775     50218.233      36.893836      36.893836      36.893836    
    900000   0.27962994    -8.1647591     -7.7453202      0.7584554      50218.233      36.893836      36.893836      36.893836    
    901000   0.27942604    -8.1674877     -7.7483546      0.73999231     50218.233      36.893836      36.893836      36.893836    
    902000   0.27986912    -8.1663199     -7.7465222      0.74430363     50218.233      36.893836      36.893836      36.893836    
    903000   0.27969646    -8.165909      -7.7463703      0.75833981     50218.233      36.893836      36.893836      36.893836    
    904000   0.28103281    -8.1652221     -7.7436788      0.75435652     50218.233      36.893836      36.893836      36.893836    
    905000   0.27871865    -8.164582      -7.74651        0.76131868     50218.233      36.893836      36.893836      36.893836    
    906000   0.28027708    -8.1654971     -7.7450875      0.75142517     50218.233      36.893836      36.893836      36.893836    
    907000   0.2810156     -8.166821      -7.7453036      0.75143673     50218.233      36.893836      36.893836      36.893836    
    908000   0.28018243    -8.1657299     -7.7454622      0.74520279     50218.233      36.893836      36.893836      36.893836    
    909000   0.27983339    -8.164836      -7.7450918      0.76676786     50218.233      36.893836      36.893836      36.893836    
    910000   0.27855762    -8.1655304     -7.7476999      0.75427029     50218.233      36.893836      36.893836      36.893836    
    911000   0.28064345    -8.1654813     -7.7445221      0.75690148     50218.233      36.893836      36.893836      36.893836    
    912000   0.27858963    -8.1659521     -7.7480736      0.74850697     50218.233      36.893836      36.893836      36.893836    
    913000   0.28007973    -8.1665063     -7.7463926      0.73780753     50218.233      36.893836      36.893836      36.893836    
    914000   0.28037853    -8.1637843     -7.7432225      0.76575142     50218.233      36.893836      36.893836      36.893836    
    915000   0.279722      -8.1629477     -7.7433707      0.77555517     50218.233      36.893836      36.893836      36.893836    
    916000   0.27950285    -8.1650359     -7.7457876      0.75631694     50218.233      36.893836      36.893836      36.893836    
    917000   0.27913341    -8.1629019     -7.7442078      0.77205581     50218.233      36.893836      36.893836      36.893836    
    918000   0.27963202    -8.1629098     -7.7434678      0.77935935     50218.233      36.893836      36.893836      36.893836    
    919000   0.28045032    -8.1630618     -7.7423923      0.7712622      50218.233      36.893836      36.893836      36.893836    
    920000   0.280261      -8.1650909     -7.7447054      0.75006306     50218.233      36.893836      36.893836      36.893836    
    921000   0.27884586    -8.1648786     -7.7466158      0.75977269     50218.233      36.893836      36.893836      36.893836    
    922000   0.27865809    -8.1631161     -7.7451349      0.77097114     50218.233      36.893836      36.893836      36.893836    
    923000   0.28012102    -8.1667255     -7.7465499      0.74321831     50218.233      36.893836      36.893836      36.893836    
    924000   0.27908001    -8.1646752     -7.7460611      0.75647297     50218.233      36.893836      36.893836      36.893836    
    925000   0.28066349    -8.162707      -7.7417177      0.77789788     50218.233      36.893836      36.893836      36.893836    
    926000   0.28149175    -8.1641088     -7.7418772      0.76360969     50218.233      36.893836      36.893836      36.893836    
    927000   0.28115626    -8.1665979     -7.7448695      0.74018036     50218.233      36.893836      36.893836      36.893836    
    928000   0.28109313    -8.1627164     -7.7410827      0.78215706     50218.233      36.893836      36.893836      36.893836    
    929000   0.28019416    -8.1647633     -7.744478       0.7622867      50218.233      36.893836      36.893836      36.893836    
    930000   0.28037098    -8.1664352     -7.7458847      0.73960446     50218.233      36.893836      36.893836      36.893836    
    931000   0.2804447     -8.1648348     -7.7441738      0.75948965     50218.233      36.893836      36.893836      36.893836    
    932000   0.28001334    -8.1632414     -7.7432274      0.76855842     50218.233      36.893836      36.893836      36.893836    
    933000   0.2810447     -8.1656951     -7.744134       0.7604861      50218.233      36.893836      36.893836      36.893836    
    934000   0.28053557    -8.1629316     -7.7421342      0.77225978     50218.233      36.893836      36.893836      36.893836    
    935000   0.2795796     -8.1654833     -7.7461198      0.75199267     50218.233      36.893836      36.893836      36.893836    
    936000   0.27888983    -8.1662634     -7.7479346      0.73907031     50218.233      36.893836      36.893836      36.893836    
    937000   0.28037377    -8.1640569     -7.7435022      0.7622276      50218.233      36.893836      36.893836      36.893836    
    938000   0.27896583    -8.1645219     -7.7460791      0.76082384     50218.233      36.893836      36.893836      36.893836    
    939000   0.27860197    -8.163301      -7.745404       0.76509355     50218.233      36.893836      36.893836      36.893836    
    940000   0.27978348    -8.1648474     -7.7451781      0.76068364     50218.233      36.893836      36.893836      36.893836    
    941000   0.28170534    -8.1653623     -7.7428103      0.76084379     50218.233      36.893836      36.893836      36.893836    
    942000   0.28011527    -8.1661572     -7.7459903      0.75777535     50218.233      36.893836      36.893836      36.893836    
    943000   0.27965619    -8.1650266     -7.7455483      0.75731257     50218.233      36.893836      36.893836      36.893836    
    944000   0.28005288    -8.1649462     -7.7448728      0.76514398     50218.233      36.893836      36.893836      36.893836    
    945000   0.28051462    -8.1663356     -7.7455697      0.74199576     50218.233      36.893836      36.893836      36.893836    
    946000   0.2807845     -8.1661797     -7.7450089      0.75243899     50218.233      36.893836      36.893836      36.893836    
    947000   0.28036906    -8.1652231     -7.7446755      0.7567226      50218.233      36.893836      36.893836      36.893836    
    948000   0.28125718    -8.1618216     -7.7399418      0.78030284     50218.233      36.893836      36.893836      36.893836    
    949000   0.27987452    -8.163315      -7.7435092      0.76549192     50218.233      36.893836      36.893836      36.893836    
    950000   0.2814962     -8.168274      -7.7460357      0.72863264     50218.233      36.893836      36.893836      36.893836    
    951000   0.27980839    -8.1672857     -7.7475791      0.73943432     50218.233      36.893836      36.893836      36.893836    
    952000   0.2801425     -8.1656887     -7.7454809      0.75069031     50218.233      36.893836      36.893836      36.893836    
    953000   0.28062167    -8.1676048     -7.7466783      0.73138981     50218.233      36.893836      36.893836      36.893836    
    954000   0.28046649    -8.1658523     -7.7451585      0.74205073     50218.233      36.893836      36.893836      36.893836    
    955000   0.27965057    -8.1671165     -7.7476467      0.73245323     50218.233      36.893836      36.893836      36.893836    
    956000   0.27967892    -8.1647054     -7.745193       0.75988178     50218.233      36.893836      36.893836      36.893836    
    957000   0.27949778    -8.1655266     -7.7462859      0.75996038     50218.233      36.893836      36.893836      36.893836    
    958000   0.28176291    -8.1651882     -7.7425499      0.75985723     50218.233      36.893836      36.893836      36.893836    
    959000   0.27937087    -8.1677802     -7.7487298      0.73200545     50218.233      36.893836      36.893836      36.893836    
    960000   0.27956997    -8.1652064     -7.7458574      0.76091077     50218.233      36.893836      36.893836      36.893836    
    961000   0.28017644    -8.1658384     -7.7455797      0.75225904     50218.233      36.893836      36.893836      36.893836    
    962000   0.27964297    -8.1640053     -7.7445469      0.75990729     50218.233      36.893836      36.893836      36.893836    
    963000   0.28109125    -8.1665652     -7.7449343      0.75204887     50218.233      36.893836      36.893836      36.893836    
    964000   0.27939124    -8.1643486     -7.7452677      0.76737941     50218.233      36.893836      36.893836      36.893836    
    965000   0.27941449    -8.1639974     -7.7448817      0.7605891      50218.233      36.893836      36.893836      36.893836    
    966000   0.27782653    -8.1642884     -7.7475545      0.76439125     50218.233      36.893836      36.893836      36.893836    
    967000   0.28002085    -8.164155      -7.7441297      0.76087324     50218.233      36.893836      36.893836      36.893836    
    968000   0.28043215    -8.1634482     -7.742806       0.77098487     50218.233      36.893836      36.893836      36.893836    
    969000   0.27888678    -8.164159      -7.7458348      0.75555622     50218.233      36.893836      36.893836      36.893836    
    970000   0.27964921    -8.1643437     -7.7448758      0.76786068     50218.233      36.893836      36.893836      36.893836    
    971000   0.28060575    -8.1619132     -7.7410106      0.77916765     50218.233      36.893836      36.893836      36.893836    
    972000   0.27965437    -8.1625106     -7.743035       0.77525208     50218.233      36.893836      36.893836      36.893836    
    973000   0.27942578    -8.1668377     -7.747705       0.74345706     50218.233      36.893836      36.893836      36.893836    
    974000   0.28116989    -8.1635367     -7.7417878      0.77269736     50218.233      36.893836      36.893836      36.893836    
    975000   0.27929374    -8.1643703     -7.7454356      0.76379125     50218.233      36.893836      36.893836      36.893836    
    976000   0.28035794    -8.1622836     -7.7417527      0.77289416     50218.233      36.893836      36.893836      36.893836    
    977000   0.28023403    -8.1639385     -7.7435934      0.76037271     50218.233      36.893836      36.893836      36.893836    
    978000   0.27997909    -8.165038      -7.7450754      0.75307873     50218.233      36.893836      36.893836      36.893836    
    979000   0.28039643    -8.1648607     -7.744272       0.7524474      50218.233      36.893836      36.893836      36.893836    
    980000   0.28076986    -8.1650394     -7.7438906      0.74881299     50218.233      36.893836      36.893836      36.893836    
    981000   0.27846615    -8.1661597     -7.7484664      0.74210966     50218.233      36.893836      36.893836      36.893836    
    982000   0.27965429    -8.1626423     -7.7431669      0.77774746     50218.233      36.893836      36.893836      36.893836    
    983000   0.27950762    -8.1647394     -7.7454839      0.75808236     50218.233      36.893836      36.893836      36.893836    
    984000   0.28121267    -8.1652841     -7.7434711      0.75987196     50218.233      36.893836      36.893836      36.893836    
    985000   0.28020058    -8.1646012     -7.7443063      0.7593265      50218.233      36.893836      36.893836      36.893836    
    986000   0.28092768    -8.1662805     -7.744895       0.74997097     50218.233      36.893836      36.893836      36.893836    
    987000   0.28010004    -8.1667635     -7.7466195      0.75391674     50218.233      36.893836      36.893836      36.893836    
    988000   0.2794078     -8.1664315     -7.7473258      0.7328215      50218.233      36.893836      36.893836      36.893836    
    989000   0.28088749    -8.1662298     -7.7449046      0.75323662     50218.233      36.893836      36.893836      36.893836    
    990000   0.2813397     -8.1636534     -7.7416498      0.76500375     50218.233      36.893836      36.893836      36.893836    
    991000   0.2794834     -8.1656903     -7.7464711      0.75101556     50218.233      36.893836      36.893836      36.893836    
    992000   0.27872451    -8.1659194     -7.7478386      0.75356544     50218.233      36.893836      36.893836      36.893836    
    993000   0.28016435    -8.1651996     -7.744959       0.7541091      50218.233      36.893836      36.893836      36.893836    
    994000   0.27799328    -8.1658348     -7.7488508      0.74337247     50218.233      36.893836      36.893836      36.893836    
    995000   0.27916202    -8.1654217     -7.7466846      0.75578501     50218.233      36.893836      36.893836      36.893836    
    996000   0.27931918    -8.1638131     -7.7448403      0.76845838     50218.233      36.893836      36.893836      36.893836    
    997000   0.28100919    -8.1653257     -7.7438179      0.75347906     50218.233      36.893836      36.893836      36.893836    
    998000   0.28002258    -8.1651251     -7.7450972      0.75024414     50218.233      36.893836      36.893836      36.893836    
    999000   0.28005033    -8.1651739     -7.7451043      0.76181651     50218.233      36.893836      36.893836      36.893836    
   1000000   0.27853224    -8.1647396     -7.7469472      0.76294992     50218.233      36.893836      36.893836      36.893836    
Loop time of 1547.33 on 4 procs for 1000000 steps with 70304 atoms

Performance: 558380.587 tau/day, 646.274 timesteps/s, 45.436 Matom-step/s
95.4% CPU use with 4 MPI tasks x 1 OpenMP threads

MPI task timing breakdown:
Section |  min time  |  avg time  |  max time  |%varavg| %total
---------------------------------------------------------------
Pair    | 502.38     | 550.08     | 585.83     | 130.1 | 35.55
Neigh   | 5.0159     | 5.1085     | 5.2117     |   3.1 |  0.33
Comm    | 214.91     | 216.92     | 218.83     |  11.3 | 14.02
Output  | 0.19936    | 0.20575    | 0.21676    |   1.5 |  0.01
Modify  | 654.26     | 691.46     | 738.19     | 116.2 | 44.69
Other   |            | 83.56      |            |       |  5.40

Nlocal:          17576 ave       17637 max       17545 min
Histogram: 1 1 1 0 0 0 0 0 0 1
Nghost:          16802 ave       16852 max       16777 min
Histogram: 2 0 1 0 0 0 0 0 0 1
Neighs:              0 ave           0 max           0 min
Histogram: 4 0 0 0 0 0 0 0 0 0

Total # of neighbors = 0
Ave neighs/atom = 0
Neighbor list builds = 157902
Dangerous builds = 0
clear
OMP_NUM_THREADS environment is not set. Defaulting to 1 thread. (src/comm.cpp:98)
  using 1 OpenMP thread(s) per MPI task
package gpu 0
jump dms260.lmp

variable T equal 260
# T = 1000* (temp in LJ unit)
variable f equal 1000
log log.${T}
log log.260
