variable TLJ equal (${T}/1000)
variable TLJ equal (320/1000)
variable NCyle equal 10
variable iStep equal (${f})
variable iStep equal (1000)
variable dumpStep equal (${f}*100)
variable dumpStep equal (1000*100)
variable runStep equal (${f}*100*${NCyle})
variable runStep equal (1000*100*${NCyle})
variable runStep equal (1000*100*10)

units       lj
atom_style  atomic
dimension 3
boundary     p p p
pair_style  lj/cut 2.5
read_data  ../data/T${T}.dat
read_data  ../data/T320.dat
Reading data file ...
  orthogonal box = (0.97250269 0.97250269 0.97250269) to (37.866338 37.866338 37.866338)
  1 by 2 by 2 MPI processor grid
  reading atoms ...
  70304 atoms
  reading velocities ...
  70304 velocities
  read_data CPU = 0.189 seconds
change_box all triclinic
Changing box ...
  triclinic box = (0.97250269 0.97250269 0.97250269) to (37.866338 37.866338 37.866338) with tilt (0 0 0)
mass 1 1
mass 2 1
pair_modify shift yes
pair_coeff  1 1 1 1
pair_coeff  1 2 1.5 0.8
pair_coeff  2 2 0.5 0.88


timestep 0.01
thermo ${iStep}
thermo 1000
reset_timestep 0
thermo_style custom step temp pe etotal press vol lx ly lz
fix             1 all nvt temp ${TLJ}  ${TLJ}  0.1
fix             1 all nvt temp 0.32  ${TLJ}  0.1
fix             1 all nvt temp 0.32  0.32  0.1
thermo_modify flush yes

fix dsf all deform 1 xy  wiggle 0.5  ${f}   units box
fix dsf all deform 1 xy  wiggle 0.5  1000   units box
fix ps1 all ave/time 1 1 ${iStep} c_thermo_press[1] c_thermo_press[2]  c_thermo_press[3] c_thermo_press[4]  c_thermo_press[5] c_thermo_press[6]  file  stress.${T}
fix ps1 all ave/time 1 1 1000 c_thermo_press[1] c_thermo_press[2]  c_thermo_press[3] c_thermo_press[4]  c_thermo_press[5] c_thermo_press[6]  file  stress.${T}
fix ps1 all ave/time 1 1 1000 c_thermo_press[1] c_thermo_press[2]  c_thermo_press[3] c_thermo_press[4]  c_thermo_press[5] c_thermo_press[6]  file  stress.320
dump            1 all custom ${dumpStep} dump.${T} id type x y z
dump            1 all custom 100000 dump.${T} id type x y z
dump            1 all custom 100000 dump.320 id type x y z
dump_modify 1 sort id
fix nodrift all momentum 1  linear 1 1 1
fix com_seed all recenter INIT INIT INIT shift all
run ${runStep}
run 1000000
Generated 0 of 1 mixed pair_coeff terms from geometric mixing rule
Per MPI rank memory allocation (min/avg/max) = 8.61 | 8.613 | 8.617 Mbytes
   Step          Temp          PotEng         TotEng         Press          Volume           Lx             Ly             Lz      
         0   0.32020808    -8.1136423     -7.633337       1.1960806      50218.233      36.893836      36.893836      36.893836    
      1000   0.3206396     -8.1059007     -7.6249481      1.2553318      50218.233      36.893836      36.893836      36.893836    
      2000   0.31873832    -8.1036755     -7.6255748      1.2686825      50218.233      36.893836      36.893836      36.893836    
      3000   0.32110817    -8.1077062     -7.6260508      1.2427841      50218.233      36.893836      36.893836      36.893836    
      4000   0.32088261    -8.1067565     -7.6254395      1.2435359      50218.233      36.893836      36.893836      36.893836    
      5000   0.31987686    -8.1077429     -7.6279344      1.2325535      50218.233      36.893836      36.893836      36.893836    
      6000   0.31936317    -8.1100513     -7.6310133      1.2283341      50218.233      36.893836      36.893836      36.893836    
      7000   0.31923293    -8.1079649     -7.6291223      1.2316272      50218.233      36.893836      36.893836      36.893836    
      8000   0.32011514    -8.1076123     -7.6274464      1.2395781      50218.233      36.893836      36.893836      36.893836    
      9000   0.3197061     -8.1072913     -7.6277389      1.2466331      50218.233      36.893836      36.893836      36.893836    
     10000   0.32166454    -8.1074824     -7.6249924      1.2421332      50218.233      36.893836      36.893836      36.893836    
     11000   0.31946439    -8.1087433     -7.6295536      1.2319274      50218.233      36.893836      36.893836      36.893836    
     12000   0.32025148    -8.1087684     -7.628398       1.229659       50218.233      36.893836      36.893836      36.893836    
     13000   0.32037825    -8.1083628     -7.6278022      1.2354598      50218.233      36.893836      36.893836      36.893836    
     14000   0.32113881    -8.1072387     -7.6255374      1.2441905      50218.233      36.893836      36.893836      36.893836    
     15000   0.31891523    -8.10666       -7.628294       1.2556292      50218.233      36.893836      36.893836      36.893836    
     16000   0.31919665    -8.108781      -7.6299928      1.230603       50218.233      36.893836      36.893836      36.893836    
     17000   0.32137695    -8.1057726     -7.623714       1.257855       50218.233      36.893836      36.893836      36.893836    
     18000   0.31874764    -8.1056256     -7.627511       1.2502025      50218.233      36.893836      36.893836      36.893836    
     19000   0.31953697    -8.108353      -7.6290544      1.2320454      50218.233      36.893836      36.893836      36.893836    
     20000   0.3203923     -8.1060527     -7.6254711      1.252325       50218.233      36.893836      36.893836      36.893836    
     21000   0.31956834    -8.107331      -7.6279853      1.2446553      50218.233      36.893836      36.893836      36.893836    
     22000   0.32018966    -8.1061117     -7.6258341      1.2517982      50218.233      36.893836      36.893836      36.893836    
     23000   0.32089764    -8.1074101     -7.6260705      1.2455863      50218.233      36.893836      36.893836      36.893836    
     24000   0.31950767    -8.1075712     -7.6283165      1.2383127      50218.233      36.893836      36.893836      36.893836    
     25000   0.32082349    -8.1046726     -7.6234442      1.2676502      50218.233      36.893836      36.893836      36.893836    
     26000   0.31731775    -8.1065978     -7.630628       1.2466033      50218.233      36.893836      36.893836      36.893836    
     27000   0.32220441    -8.1056594     -7.6223597      1.2688437      50218.233      36.893836      36.893836      36.893836    
     28000   0.3193535     -8.1051947     -7.6261713      1.2572549      50218.233      36.893836      36.893836      36.893836    
     29000   0.32028258    -8.1041791     -7.623762       1.2711065      50218.233      36.893836      36.893836      36.893836    
     30000   0.31987635    -8.104792      -7.6249843      1.262666       50218.233      36.893836      36.893836      36.893836    
     31000   0.31848248    -8.1031209     -7.625404       1.2787363      50218.233      36.893836      36.893836      36.893836    
     32000   0.32048089    -8.1054224     -7.6247079      1.2571052      50218.233      36.893836      36.893836      36.893836    
     33000   0.31843657    -8.1043069     -7.6266588      1.2608389      50218.233      36.893836      36.893836      36.893836    
     34000   0.32147872    -8.1065776     -7.6243664      1.2465478      50218.233      36.893836      36.893836      36.893836    
     35000   0.3216707     -8.1063784     -7.6238792      1.253369       50218.233      36.893836      36.893836      36.893836    
     36000   0.32005059    -8.1055938     -7.6255248      1.2537281      50218.233      36.893836      36.893836      36.893836    
     37000   0.31980886    -8.1058634     -7.626157       1.2574328      50218.233      36.893836      36.893836      36.893836    
     38000   0.32099345    -8.104188      -7.6227047      1.2633502      50218.233      36.893836      36.893836      36.893836    
     39000   0.32156967    -8.1078899     -7.6255422      1.2397059      50218.233      36.893836      36.893836      36.893836    
     40000   0.32027443    -8.1039964     -7.6235916      1.2790687      50218.233      36.893836      36.893836      36.893836    
     41000   0.3192951     -8.1054553     -7.6265194      1.2685401      50218.233      36.893836      36.893836      36.893836    
     42000   0.31881273    -8.1061223     -7.62791        1.2518221      50218.233      36.893836      36.893836      36.893836    
     43000   0.32005343    -8.1091476     -7.6290743      1.2287993      50218.233      36.893836      36.893836      36.893836    
     44000   0.32074001    -8.1065676     -7.6254644      1.2532707      50218.233      36.893836      36.893836      36.893836    
     45000   0.32089059    -8.1058085     -7.6244794      1.2540979      50218.233      36.893836      36.893836      36.893836    
     46000   0.32061782    -8.1085194     -7.6275995      1.2357087      50218.233      36.893836      36.893836      36.893836    
     47000   0.31930417    -8.1061576     -7.6272082      1.2381189      50218.233      36.893836      36.893836      36.893836    
     48000   0.32131212    -8.1063713     -7.62441        1.2534403      50218.233      36.893836      36.893836      36.893836    
     49000   0.32106522    -8.1091205     -7.6275296      1.2362264      50218.233      36.893836      36.893836      36.893836    
     50000   0.31966423    -8.1058801     -7.6263906      1.264329       50218.233      36.893836      36.893836      36.893836    
     51000   0.32143501    -8.1073694     -7.6252237      1.2455814      50218.233      36.893836      36.893836      36.893836    
     52000   0.3199676     -8.1088887     -7.6289442      1.2283217      50218.233      36.893836      36.893836      36.893836    
     53000   0.3177535     -8.1059483     -7.6293248      1.2450435      50218.233      36.893836      36.893836      36.893836    
     54000   0.32111412    -8.105824      -7.6241597      1.2573596      50218.233      36.893836      36.893836      36.893836    
     55000   0.32076009    -8.1056289     -7.6244956      1.2564712      50218.233      36.893836      36.893836      36.893836    
     56000   0.31901871    -8.1071074     -7.6285861      1.2523402      50218.233      36.893836      36.893836      36.893836    
     57000   0.31895242    -8.1087757     -7.6303539      1.2270939      50218.233      36.893836      36.893836      36.893836    
     58000   0.32005131    -8.1035646     -7.6234944      1.2700519      50218.233      36.893836      36.893836      36.893836    
     59000   0.31949631    -8.1081866     -7.628949       1.2383854      50218.233      36.893836      36.893836      36.893836    
     60000   0.31750236    -8.1053854     -7.6291386      1.2581253      50218.233      36.893836      36.893836      36.893836    
     61000   0.32142313    -8.1060434     -7.6239155      1.2543878      50218.233      36.893836      36.893836      36.893836    
     62000   0.32134773    -8.1057906     -7.6237759      1.2655401      50218.233      36.893836      36.893836      36.893836    
     63000   0.31985328    -8.1061239     -7.6263508      1.2476201      50218.233      36.893836      36.893836      36.893836    
     64000   0.31985557    -8.1046645     -7.624888       1.2647044      50218.233      36.893836      36.893836      36.893836    
     65000   0.31844247    -8.1050724     -7.6274155      1.2567393      50218.233      36.893836      36.893836      36.893836    
     66000   0.31907489    -8.1039182     -7.6253127      1.2644676      50218.233      36.893836      36.893836      36.893836    
     67000   0.31883762    -8.1075429     -7.6292933      1.2372789      50218.233      36.893836      36.893836      36.893836    
     68000   0.32022173    -8.1075863     -7.6272605      1.2448419      50218.233      36.893836      36.893836      36.893836    
     69000   0.32214498    -8.1064353     -7.6232247      1.2547575      50218.233      36.893836      36.893836      36.893836    
     70000   0.31991117    -8.1074913     -7.6276314      1.2454869      50218.233      36.893836      36.893836      36.893836    
     71000   0.32122567    -8.1037902     -7.6219585      1.2660109      50218.233      36.893836      36.893836      36.893836    
     72000   0.31987331    -8.1088238     -7.6290206      1.2356784      50218.233      36.893836      36.893836      36.893836    
     73000   0.31951072    -8.105721      -7.6264617      1.2492252      50218.233      36.893836      36.893836      36.893836    
     74000   0.31999887    -8.1069203     -7.6269288      1.2454448      50218.233      36.893836      36.893836      36.893836    
     75000   0.32119222    -8.1049467     -7.6231652      1.2619843      50218.233      36.893836      36.893836      36.893836    
     76000   0.31726119    -8.1043109     -7.6284259      1.2655865      50218.233      36.893836      36.893836      36.893836    
     77000   0.32114663    -8.1068744     -7.6251613      1.2499225      50218.233      36.893836      36.893836      36.893836    
     78000   0.3210398     -8.1058438     -7.624291       1.2621279      50218.233      36.893836      36.893836      36.893836    
     79000   0.32083755    -8.1051959     -7.6239465      1.2697706      50218.233      36.893836      36.893836      36.893836    
     80000   0.32054578    -8.1076168     -7.626805       1.2362859      50218.233      36.893836      36.893836      36.893836    
     81000   0.32012228    -8.1051618     -7.6249852      1.25967        50218.233      36.893836      36.893836      36.893836    
     82000   0.32102016    -8.1078719     -7.6263486      1.2479491      50218.233      36.893836      36.893836      36.893836    
     83000   0.32009821    -8.108667      -7.6285265      1.2304622      50218.233      36.893836      36.893836      36.893836    
     84000   0.3206237     -8.1056005     -7.6246718      1.2594524      50218.233      36.893836      36.893836      36.893836    
     85000   0.32068374    -8.1076552     -7.6266364      1.2371204      50218.233      36.893836      36.893836      36.893836    
     86000   0.31864886    -8.106071      -7.6281045      1.2412782      50218.233      36.893836      36.893836      36.893836    
     87000   0.3194039     -8.107174      -7.628075       1.243047       50218.233      36.893836      36.893836      36.893836    
     88000   0.31935565    -8.1081938     -7.6291671      1.2414198      50218.233      36.893836      36.893836      36.893836    
     89000   0.31963886    -8.1062582     -7.6268067      1.2509348      50218.233      36.893836      36.893836      36.893836    
     90000   0.32090782    -8.1083383     -7.6269834      1.2421035      50218.233      36.893836      36.893836      36.893836    
     91000   0.31973769    -8.1055681     -7.6259684      1.2531577      50218.233      36.893836      36.893836      36.893836    
     92000   0.32025572    -8.1041572     -7.6237804      1.2659775      50218.233      36.893836      36.893836      36.893836    
     93000   0.32009775    -8.1088238     -7.628684       1.2298381      50218.233      36.893836      36.893836      36.893836    
     94000   0.31973322    -8.1089781     -7.6293851      1.2298664      50218.233      36.893836      36.893836      36.893836    
     95000   0.32107703    -8.1048131     -7.6232044      1.2588261      50218.233      36.893836      36.893836      36.893836    
     96000   0.31790904    -8.1081123     -7.6312555      1.2407746      50218.233      36.893836      36.893836      36.893836    
     97000   0.31999276    -8.1063257     -7.6263434      1.2462805      50218.233      36.893836      36.893836      36.893836    
     98000   0.32056114    -8.1079133     -7.6270784      1.2420103      50218.233      36.893836      36.893836      36.893836    
     99000   0.31837116    -8.1078421     -7.6302922      1.242758       50218.233      36.893836      36.893836      36.893836    
    100000   0.31972241    -8.1104069     -7.6308301      1.213417       50218.233      36.893836      36.893836      36.893836    
    101000   0.32167417    -8.1097242     -7.6272199      1.2303952      50218.233      36.893836      36.893836      36.893836    
    102000   0.31958059    -8.1044392     -7.6250752      1.2619891      50218.233      36.893836      36.893836      36.893836    
    103000   0.31933875    -8.1076951     -7.6286938      1.2370418      50218.233      36.893836      36.893836      36.893836    
    104000   0.31814596    -8.1077612     -7.630549       1.2353505      50218.233      36.893836      36.893836      36.893836    
    105000   0.3192807     -8.107103      -7.6281887      1.2466905      50218.233      36.893836      36.893836      36.893836    
    106000   0.32143055    -8.1085163     -7.6263774      1.2271831      50218.233      36.893836      36.893836      36.893836    
    107000   0.31978642    -8.1072923     -7.6276195      1.2527052      50218.233      36.893836      36.893836      36.893836    
    108000   0.32050138    -8.106716      -7.6259708      1.2565917      50218.233      36.893836      36.893836      36.893836    
    109000   0.31993739    -8.1069043     -7.6270051      1.2447757      50218.233      36.893836      36.893836      36.893836    
    110000   0.31925682    -8.1056752     -7.6267968      1.2549878      50218.233      36.893836      36.893836      36.893836    
    111000   0.31928388    -8.1070701     -7.6281511      1.2451329      50218.233      36.893836      36.893836      36.893836    
    112000   0.31915181    -8.105323      -7.6266021      1.2540751      50218.233      36.893836      36.893836      36.893836    
    113000   0.31932954    -8.1061788     -7.6271913      1.2493227      50218.233      36.893836      36.893836      36.893836    
    114000   0.32004732    -8.1073242     -7.62726        1.2436203      50218.233      36.893836      36.893836      36.893836    
    115000   0.31834486    -8.1068475     -7.629337       1.2485587      50218.233      36.893836      36.893836      36.893836    
    116000   0.32004966    -8.1081901     -7.6281224      1.2341562      50218.233      36.893836      36.893836      36.893836    
    117000   0.31946983    -8.106789      -7.6275911      1.2537644      50218.233      36.893836      36.893836      36.893836    
    118000   0.31988168    -8.1040242     -7.6242085      1.2610645      50218.233      36.893836      36.893836      36.893836    
    119000   0.32120103    -8.1024309     -7.6206362      1.2802765      50218.233      36.893836      36.893836      36.893836    
    120000   0.31927471    -8.1053288     -7.6264236      1.2519713      50218.233      36.893836      36.893836      36.893836    
    121000   0.31888613    -8.1059453     -7.627623       1.2528921      50218.233      36.893836      36.893836      36.893836    
    122000   0.32121459    -8.1043754     -7.6225603      1.269441       50218.233      36.893836      36.893836      36.893836    
    123000   0.32114041    -8.1047433     -7.6230395      1.2747025      50218.233      36.893836      36.893836      36.893836    
    124000   0.31871456    -8.1057159     -7.6276509      1.2589726      50218.233      36.893836      36.893836      36.893836    
    125000   0.32052422    -8.1049481     -7.6241686      1.2593861      50218.233      36.893836      36.893836      36.893836    
    126000   0.31971988    -8.1061094     -7.6265364      1.2622573      50218.233      36.893836      36.893836      36.893836    
    127000   0.32020644    -8.1041813     -7.6238784      1.2663215      50218.233      36.893836      36.893836      36.893836    
    128000   0.32016855    -8.1093862     -7.6291402      1.2198374      50218.233      36.893836      36.893836      36.893836    
    129000   0.31682861    -8.1061254     -7.6308893      1.2415913      50218.233      36.893836      36.893836      36.893836    
    130000   0.32153859    -8.1075427     -7.6252417      1.2388817      50218.233      36.893836      36.893836      36.893836    
    131000   0.32091775    -8.1061044     -7.6247346      1.2553001      50218.233      36.893836      36.893836      36.893836    
    132000   0.32067618    -8.1048915     -7.6238841      1.2625449      50218.233      36.893836      36.893836      36.893836    
    133000   0.31855687    -8.1072171     -7.6293886      1.238668       50218.233      36.893836      36.893836      36.893836    
    134000   0.32028387    -8.1046015     -7.6241825      1.264192       50218.233      36.893836      36.893836      36.893836    
    135000   0.3203874     -8.1049816     -7.6244073      1.2577175      50218.233      36.893836      36.893836      36.893836    
    136000   0.32164636    -8.1077839     -7.6253212      1.2481242      50218.233      36.893836      36.893836      36.893836    
    137000   0.31828782    -8.1066663     -7.6292414      1.2466259      50218.233      36.893836      36.893836      36.893836    
    138000   0.32027908    -8.1066091     -7.6261973      1.2515054      50218.233      36.893836      36.893836      36.893836    
    139000   0.31930309    -8.1056211     -7.6266732      1.2535337      50218.233      36.893836      36.893836      36.893836    
    140000   0.31875593    -8.1066122     -7.6284851      1.2444687      50218.233      36.893836      36.893836      36.893836    
    141000   0.31896426    -8.1080081     -7.6295685      1.2495132      50218.233      36.893836      36.893836      36.893836    
    142000   0.31987287    -8.1057092     -7.6259067      1.2571169      50218.233      36.893836      36.893836      36.893836    
    143000   0.32205793    -8.1062136     -7.6231336      1.2495935      50218.233      36.893836      36.893836      36.893836    
    144000   0.32084278    -8.1070946     -7.6258372      1.2530581      50218.233      36.893836      36.893836      36.893836    
    145000   0.32036736    -8.1062752     -7.625731       1.2507453      50218.233      36.893836      36.893836      36.893836    
    146000   0.31921906    -8.107461      -7.6286392      1.2465078      50218.233      36.893836      36.893836      36.893836    
    147000   0.32053154    -8.1086717     -7.6278812      1.229822       50218.233      36.893836      36.893836      36.893836    
    148000   0.3205464     -8.1076832     -7.6268704      1.2417247      50218.233      36.893836      36.893836      36.893836    
    149000   0.32010606    -8.104559      -7.6244067      1.2647853      50218.233      36.893836      36.893836      36.893836    
    150000   0.31813206    -8.108544      -7.6313527      1.2331221      50218.233      36.893836      36.893836      36.893836    
    151000   0.31994167    -8.1068461     -7.6269404      1.2454278      50218.233      36.893836      36.893836      36.893836    
    152000   0.31894752    -8.1080475     -7.629633       1.2398138      50218.233      36.893836      36.893836      36.893836    
    153000   0.31982598    -8.1091165     -7.6293843      1.2381886      50218.233      36.893836      36.893836      36.893836    
    154000   0.31923339    -8.1068309     -7.6279877      1.2431748      50218.233      36.893836      36.893836      36.893836    
    155000   0.32179974    -8.1089641     -7.6262714      1.2334782      50218.233      36.893836      36.893836      36.893836    
    156000   0.3199933     -8.1076405     -7.6276574      1.2346777      50218.233      36.893836      36.893836      36.893836    
    157000   0.32132572    -8.108251      -7.6262693      1.237815       50218.233      36.893836      36.893836      36.893836    
    158000   0.32222831    -8.1072064     -7.6238708      1.2440169      50218.233      36.893836      36.893836      36.893836    
    159000   0.32047384    -8.1077494     -7.6270454      1.2393016      50218.233      36.893836      36.893836      36.893836    
    160000   0.32016155    -8.1070544     -7.6268189      1.249196       50218.233      36.893836      36.893836      36.893836    
    161000   0.31913669    -8.1079634     -7.6292651      1.2424023      50218.233      36.893836      36.893836      36.893836    
    162000   0.3206122     -8.1085538     -7.6276424      1.228071       50218.233      36.893836      36.893836      36.893836    
    163000   0.31947566    -8.1079261     -7.6287194      1.2390007      50218.233      36.893836      36.893836      36.893836    
    164000   0.3183915     -8.105504      -7.6279235      1.2516904      50218.233      36.893836      36.893836      36.893836    
    165000   0.32023472    -8.1053024     -7.6249571      1.2525499      50218.233      36.893836      36.893836      36.893836    
    166000   0.32128981    -8.1051264     -7.6231986      1.2551545      50218.233      36.893836      36.893836      36.893836    
    167000   0.31996794    -8.1085051     -7.62856        1.2289218      50218.233      36.893836      36.893836      36.893836    
    168000   0.31826358    -8.1046754     -7.6272868      1.2566024      50218.233      36.893836      36.893836      36.893836    
    169000   0.31986654    -8.1050769     -7.6252839      1.2578989      50218.233      36.893836      36.893836      36.893836    
    170000   0.32368093    -8.1059182     -7.6204037      1.2564981      50218.233      36.893836      36.893836      36.893836    
    171000   0.32092523    -8.1069435     -7.6255625      1.2507373      50218.233      36.893836      36.893836      36.893836    
    172000   0.31948101    -8.1048616     -7.6256469      1.2583345      50218.233      36.893836      36.893836      36.893836    
    173000   0.31883171    -8.103225      -7.6249843      1.2744979      50218.233      36.893836      36.893836      36.893836    
    174000   0.31870777    -8.1082066     -7.6301518      1.2434796      50218.233      36.893836      36.893836      36.893836    
    175000   0.31878516    -8.105684      -7.627513       1.2558112      50218.233      36.893836      36.893836      36.893836    
    176000   0.31988056    -8.1068305     -7.6270165      1.244522       50218.233      36.893836      36.893836      36.893836    
    177000   0.31879486    -8.1054943     -7.6273088      1.2552673      50218.233      36.893836      36.893836      36.893836    
    178000   0.3195223     -8.1078158     -7.6285392      1.2349917      50218.233      36.893836      36.893836      36.893836    
    179000   0.32215128    -8.1020501     -7.6188301      1.2840249      50218.233      36.893836      36.893836      36.893836    
    180000   0.32001917    -8.1062299     -7.6262079      1.2533701      50218.233      36.893836      36.893836      36.893836    
    181000   0.31885216    -8.1074979     -7.6292265      1.2475341      50218.233      36.893836      36.893836      36.893836    
    182000   0.319719      -8.1051017     -7.62553        1.2580506      50218.233      36.893836      36.893836      36.893836    
    183000   0.32103644    -8.1053349     -7.6237871      1.2669504      50218.233      36.893836      36.893836      36.893836    
    184000   0.32023678    -8.1075961     -7.6272478      1.2496335      50218.233      36.893836      36.893836      36.893836    
    185000   0.32043386    -8.107407      -7.626763       1.2514545      50218.233      36.893836      36.893836      36.893836    
    186000   0.31968281    -8.107564      -7.6280466      1.239006       50218.233      36.893836      36.893836      36.893836    
    187000   0.32120269    -8.1057585     -7.6239613      1.2563235      50218.233      36.893836      36.893836      36.893836    
    188000   0.32056686    -8.1061085     -7.625265       1.2511625      50218.233      36.893836      36.893836      36.893836    
    189000   0.31962839    -8.1080573     -7.6286215      1.2366042      50218.233      36.893836      36.893836      36.893836    
    190000   0.31962719    -8.1065407     -7.6271067      1.2475362      50218.233      36.893836      36.893836      36.893836    
    191000   0.31985612    -8.1066643     -7.6268869      1.2442034      50218.233      36.893836      36.893836      36.893836    
    192000   0.32020724    -8.1079981     -7.6276941      1.2463424      50218.233      36.893836      36.893836      36.893836    
    193000   0.3191823     -8.107939      -7.6291724      1.2385698      50218.233      36.893836      36.893836      36.893836    
    194000   0.32043369    -8.108436      -7.6277923      1.2374155      50218.233      36.893836      36.893836      36.893836    
    195000   0.3204955     -8.1083612     -7.6276248      1.2324715      50218.233      36.893836      36.893836      36.893836    
    196000   0.31952791    -8.1078531     -7.628568       1.2489247      50218.233      36.893836      36.893836      36.893836    
    197000   0.31880945    -8.105324      -7.6271167      1.2560776      50218.233      36.893836      36.893836      36.893836    
    198000   0.31870312    -8.1078018     -7.6297539      1.2378082      50218.233      36.893836      36.893836      36.893836    
    199000   0.31970332    -8.1081038     -7.6285556      1.2322096      50218.233      36.893836      36.893836      36.893836    
    200000   0.32015178    -8.1063379     -7.6261171      1.2509343      50218.233      36.893836      36.893836      36.893836    
    201000   0.31875538    -8.1106238     -7.6324975      1.1990678      50218.233      36.893836      36.893836      36.893836    
    202000   0.31982959    -8.1043292     -7.6245916      1.2650939      50218.233      36.893836      36.893836      36.893836    
    203000   0.3204434     -8.1056367     -7.6249785      1.2583207      50218.233      36.893836      36.893836      36.893836    
    204000   0.3199659     -8.1090873     -7.6291453      1.2267195      50218.233      36.893836      36.893836      36.893836    
    205000   0.318475      -8.107565      -7.6298592      1.2339023      50218.233      36.893836      36.893836      36.893836    
    206000   0.32018568    -8.1080603     -7.6277886      1.237961       50218.233      36.893836      36.893836      36.893836    
    207000   0.31925508    -8.1075107     -7.6286349      1.2424749      50218.233      36.893836      36.893836      36.893836    
    208000   0.32005118    -8.1057209     -7.625651       1.2525607      50218.233      36.893836      36.893836      36.893836    
    209000   0.32054052    -8.1072631     -7.6264592      1.2524798      50218.233      36.893836      36.893836      36.893836    
    210000   0.31938822    -8.1087082     -7.6296327      1.2282935      50218.233      36.893836      36.893836      36.893836    
    211000   0.32222685    -8.1089461     -7.6256127      1.2311596      50218.233      36.893836      36.893836      36.893836    
    212000   0.32120577    -8.1060756     -7.6242738      1.2553789      50218.233      36.893836      36.893836      36.893836    
    213000   0.32002055    -8.1065857     -7.6265617      1.2538654      50218.233      36.893836      36.893836      36.893836    
    214000   0.32044017    -8.1097536     -7.6291002      1.2316886      50218.233      36.893836      36.893836      36.893836    
    215000   0.3190216     -8.1087319     -7.6302063      1.2367286      50218.233      36.893836      36.893836      36.893836    
    216000   0.31990659    -8.1050606     -7.6252076      1.266724       50218.233      36.893836      36.893836      36.893836    
    217000   0.31903242    -8.1084609     -7.6299191      1.2352826      50218.233      36.893836      36.893836      36.893836    
    218000   0.32002998    -8.1058538     -7.6258156      1.2566265      50218.233      36.893836      36.893836      36.893836    
    219000   0.3226961     -8.1066809     -7.6226436      1.2494219      50218.233      36.893836      36.893836      36.893836    
    220000   0.32003707    -8.1077506     -7.6277018      1.2398997      50218.233      36.893836      36.893836      36.893836    
    221000   0.31972399    -8.10597       -7.6263908      1.2575187      50218.233      36.893836      36.893836      36.893836    
    222000   0.31931774    -8.1045754     -7.6256056      1.2553915      50218.233      36.893836      36.893836      36.893836    
    223000   0.31935971    -8.1060876     -7.6270549      1.2559077      50218.233      36.893836      36.893836      36.893836    
    224000   0.31977903    -8.1060879     -7.6264262      1.2496162      50218.233      36.893836      36.893836      36.893836    
    225000   0.31823647    -8.1062246     -7.6288767      1.2501714      50218.233      36.893836      36.893836      36.893836    
    226000   0.31714353    -8.1063467     -7.6306382      1.2480215      50218.233      36.893836      36.893836      36.893836    
    227000   0.32107885    -8.1067279     -7.6251164      1.2476488      50218.233      36.893836      36.893836      36.893836    
    228000   0.31994908    -8.1072897     -7.6273729      1.2348983      50218.233      36.893836      36.893836      36.893836    
    229000   0.32016305    -8.1031473     -7.6229095      1.2763573      50218.233      36.893836      36.893836      36.893836    
    230000   0.31828712    -8.1060463     -7.6286224      1.2510878      50218.233      36.893836      36.893836      36.893836    
    231000   0.32125705    -8.107272      -7.6253933      1.248613       50218.233      36.893836      36.893836      36.893836    
    232000   0.32124021    -8.1051842     -7.6233307      1.2664371      50218.233      36.893836      36.893836      36.893836    
    233000   0.31867275    -8.1061381     -7.6281358      1.2469775      50218.233      36.893836      36.893836      36.893836    
    234000   0.31891606    -8.1075827     -7.6292155      1.2391873      50218.233      36.893836      36.893836      36.893836    
    235000   0.31977854    -8.1063885     -7.6267275      1.2508402      50218.233      36.893836      36.893836      36.893836    
    236000   0.31997223    -8.1059535     -7.626002       1.2568546      50218.233      36.893836      36.893836      36.893836    
    237000   0.31894101    -8.1114923     -7.6330876      1.2125852      50218.233      36.893836      36.893836      36.893836    
    238000   0.3196815     -8.1082819     -7.6287665      1.2389376      50218.233      36.893836      36.893836      36.893836    
    239000   0.32078431    -8.108399      -7.6272294      1.2307395      50218.233      36.893836      36.893836      36.893836    
    240000   0.31882823    -8.1051769     -7.6269413      1.2611725      50218.233      36.893836      36.893836      36.893836    
    241000   0.32018112    -8.1065943     -7.6263295      1.2426698      50218.233      36.893836      36.893836      36.893836    
    242000   0.31995592    -8.1115214     -7.6315944      1.2175149      50218.233      36.893836      36.893836      36.893836    
    243000   0.32099463    -8.108265      -7.6267799      1.2362555      50218.233      36.893836      36.893836      36.893836    
    244000   0.32079216    -8.1094937     -7.6283123      1.2298637      50218.233      36.893836      36.893836      36.893836    
    245000   0.31835729    -8.1093826     -7.6318535      1.2293685      50218.233      36.893836      36.893836      36.893836    
    246000   0.32061642    -8.1061124     -7.6251946      1.2537427      50218.233      36.893836      36.893836      36.893836    
    247000   0.32016041    -8.1083569     -7.6281231      1.2293741      50218.233      36.893836      36.893836      36.893836    
    248000   0.32032826    -8.1094455     -7.62896        1.2232284      50218.233      36.893836      36.893836      36.893836    
    249000   0.32066998    -8.1085938     -7.6275957      1.2308628      50218.233      36.893836      36.893836      36.893836    
    250000   0.3214947     -8.1065799     -7.6243447      1.2544927      50218.233      36.893836      36.893836      36.893836    
    251000   0.32035143    -8.1061389     -7.6256186      1.2526149      50218.233      36.893836      36.893836      36.893836    
    252000   0.32010593    -8.1085247     -7.6283726      1.239738       50218.233      36.893836      36.893836      36.893836    
    253000   0.31980662    -8.1071158     -7.6274127      1.2461105      50218.233      36.893836      36.893836      36.893836    
    254000   0.32155886    -8.1065266     -7.6241952      1.2490693      50218.233      36.893836      36.893836      36.893836    
    255000   0.32008324    -8.1036861     -7.6235681      1.2781103      50218.233      36.893836      36.893836      36.893836    
    256000   0.3190045     -8.1048689     -7.626369       1.2564312      50218.233      36.893836      36.893836      36.893836    
    257000   0.31970834    -8.1085287     -7.628973       1.2290497      50218.233      36.893836      36.893836      36.893836    
    258000   0.31877646    -8.1060336     -7.6278757      1.2493723      50218.233      36.893836      36.893836      36.893836    
    259000   0.32016121    -8.1037771     -7.6235422      1.2700112      50218.233      36.893836      36.893836      36.893836    
    260000   0.32016935    -8.1077542     -7.627507       1.2367789      50218.233      36.893836      36.893836      36.893836    
    261000   0.31847328    -8.1074736     -7.6297705      1.2400391      50218.233      36.893836      36.893836      36.893836    
    262000   0.32105983    -8.1087948     -7.6272119      1.2334285      50218.233      36.893836      36.893836      36.893836    
    263000   0.32099138    -8.1068365     -7.6253563      1.2442011      50218.233      36.893836      36.893836      36.893836    
    264000   0.31984396    -8.1074575     -7.6276984      1.2441962      50218.233      36.893836      36.893836      36.893836    
    265000   0.3191312     -8.1073611     -7.6286711      1.2455214      50218.233      36.893836      36.893836      36.893836    
    266000   0.32043514    -8.1043944     -7.6237486      1.2757696      50218.233      36.893836      36.893836      36.893836    
    267000   0.31924641    -8.1060539     -7.6271911      1.240324       50218.233      36.893836      36.893836      36.893836    
    268000   0.31987784    -8.1084599     -7.62865        1.2386611      50218.233      36.893836      36.893836      36.893836    
    269000   0.32158535    -8.1035141     -7.6211429      1.2731154      50218.233      36.893836      36.893836      36.893836    
    270000   0.32203398    -8.1060253     -7.6229812      1.2633285      50218.233      36.893836      36.893836      36.893836    
    271000   0.32155057    -8.1051439     -7.622825       1.263971       50218.233      36.893836      36.893836      36.893836    
    272000   0.32061133    -8.1083242     -7.627414       1.2278868      50218.233      36.893836      36.893836      36.893836    
    273000   0.32074398    -8.1092331     -7.6281239      1.2267573      50218.233      36.893836      36.893836      36.893836    
    274000   0.31879476    -8.1055383     -7.627353       1.2548407      50218.233      36.893836      36.893836      36.893836    
    275000   0.32008724    -8.1028961     -7.6227721      1.2758658      50218.233      36.893836      36.893836      36.893836    
    276000   0.31999882    -8.1066925     -7.6267011      1.2433507      50218.233      36.893836      36.893836      36.893836    
    277000   0.32066846    -8.1054571     -7.6244612      1.2634593      50218.233      36.893836      36.893836      36.893836    
    278000   0.31985973    -8.1053345     -7.6255518      1.2638754      50218.233      36.893836      36.893836      36.893836    
    279000   0.32048213    -8.1055743     -7.6248579      1.2546188      50218.233      36.893836      36.893836      36.893836    
    280000   0.31918416    -8.1071995     -7.6284301      1.2352937      50218.233      36.893836      36.893836      36.893836    
    281000   0.32085669    -8.104549      -7.6232708      1.2651968      50218.233      36.893836      36.893836      36.893836    
    282000   0.31919977    -8.1067557     -7.6279629      1.2578809      50218.233      36.893836      36.893836      36.893836    
    283000   0.3212542     -8.105528      -7.6236536      1.2571902      50218.233      36.893836      36.893836      36.893836    
    284000   0.31994929    -8.1053481     -7.625431       1.255256       50218.233      36.893836      36.893836      36.893836    
    285000   0.31898142    -8.1095795     -7.6311142      1.2230618      50218.233      36.893836      36.893836      36.893836    
    286000   0.3193125     -8.1072738     -7.6283119      1.2425258      50218.233      36.893836      36.893836      36.893836    
    287000   0.32049439    -8.1070112     -7.6262764      1.2416645      50218.233      36.893836      36.893836      36.893836    
    288000   0.31980366    -8.1087669     -7.6290682      1.2334806      50218.233      36.893836      36.893836      36.893836    
    289000   0.32065683    -8.1058376     -7.6248592      1.257179       50218.233      36.893836      36.893836      36.893836    
    290000   0.31963062    -8.1095351     -7.630096       1.225776       50218.233      36.893836      36.893836      36.893836    
    291000   0.32004464    -8.1076652     -7.6276051      1.2359377      50218.233      36.893836      36.893836      36.893836    
    292000   0.32038912    -8.1077568     -7.6271799      1.2409913      50218.233      36.893836      36.893836      36.893836    
    293000   0.32044146    -8.107499      -7.6268436      1.2339975      50218.233      36.893836      36.893836      36.893836    
    294000   0.31857953    -8.1072906     -7.6294281      1.2419063      50218.233      36.893836      36.893836      36.893836    
    295000   0.32052227    -8.1075506     -7.626774       1.2456243      50218.233      36.893836      36.893836      36.893836    
    296000   0.31983165    -8.1097587     -7.6300181      1.2279294      50218.233      36.893836      36.893836      36.893836    
    297000   0.32088574    -8.1080238     -7.6267021      1.2442641      50218.233      36.893836      36.893836      36.893836    
    298000   0.31890209    -8.1068516     -7.6285052      1.2519463      50218.233      36.893836      36.893836      36.893836    
    299000   0.31939344    -8.108282      -7.6291987      1.2395808      50218.233      36.893836      36.893836      36.893836    
    300000   0.3202851     -8.108777      -7.6283561      1.2277532      50218.233      36.893836      36.893836      36.893836    
    301000   0.31975362    -8.105878      -7.6262543      1.2565967      50218.233      36.893836      36.893836      36.893836    
    302000   0.32048136    -8.1078279     -7.6271127      1.2366185      50218.233      36.893836      36.893836      36.893836    
    303000   0.31976822    -8.1082858     -7.6286403      1.2350116      50218.233      36.893836      36.893836      36.893836    
    304000   0.31874566    -8.1070966     -7.628985       1.2478887      50218.233      36.893836      36.893836      36.893836    
    305000   0.3213004     -8.1062078     -7.624264       1.2452797      50218.233      36.893836      36.893836      36.893836    
    306000   0.32034141    -8.1067733     -7.626268       1.2404904      50218.233      36.893836      36.893836      36.893836    
    307000   0.32108823    -8.1097282     -7.6281027      1.2267664      50218.233      36.893836      36.893836      36.893836    
    308000   0.31864959    -8.1060849     -7.6281173      1.2604205      50218.233      36.893836      36.893836      36.893836    
    309000   0.32039147    -8.1067961     -7.6262157      1.241418       50218.233      36.893836      36.893836      36.893836    
    310000   0.32024477    -8.1076432     -7.6272829      1.2386707      50218.233      36.893836      36.893836      36.893836    
    311000   0.31919917    -8.1080476     -7.6292556      1.2318614      50218.233      36.893836      36.893836      36.893836    
    312000   0.31995787    -8.1055181     -7.6255882      1.2545778      50218.233      36.893836      36.893836      36.893836    
    313000   0.3202234     -8.1063416     -7.6260134      1.2420777      50218.233      36.893836      36.893836      36.893836    
    314000   0.31874317    -8.1067001     -7.6285922      1.24298        50218.233      36.893836      36.893836      36.893836    
    315000   0.31900773    -8.1080631     -7.6295583      1.2401201      50218.233      36.893836      36.893836      36.893836    
    316000   0.32116905    -8.1080384     -7.6262917      1.2494936      50218.233      36.893836      36.893836      36.893836    
    317000   0.32115691    -8.1089021     -7.6271736      1.2276934      50218.233      36.893836      36.893836      36.893836    
    318000   0.32003217    -8.1060853     -7.6260439      1.2538487      50218.233      36.893836      36.893836      36.893836    
    319000   0.32074479    -8.1070571     -7.6259468      1.2375826      50218.233      36.893836      36.893836      36.893836    
    320000   0.32060799    -8.107008      -7.6261029      1.2449733      50218.233      36.893836      36.893836      36.893836    
    321000   0.32007596    -8.1071646     -7.6270575      1.2458715      50218.233      36.893836      36.893836      36.893836    
    322000   0.32086416    -8.1042831     -7.6229937      1.2691258      50218.233      36.893836      36.893836      36.893836    
    323000   0.32016263    -8.1069153     -7.6266782      1.2497652      50218.233      36.893836      36.893836      36.893836    
    324000   0.32167579    -8.1072989     -7.6247921      1.2467788      50218.233      36.893836      36.893836      36.893836    
    325000   0.31936908    -8.1044998     -7.625453       1.2574914      50218.233      36.893836      36.893836      36.893836    
    326000   0.31769991    -8.1059485     -7.6294054      1.2515833      50218.233      36.893836      36.893836      36.893836    
    327000   0.31859881    -8.1092449     -7.6313535      1.2270316      50218.233      36.893836      36.893836      36.893836    
    328000   0.3210411     -8.1077857     -7.6262309      1.236797       50218.233      36.893836      36.893836      36.893836    
    329000   0.3178023     -8.1071077     -7.6304111      1.2399302      50218.233      36.893836      36.893836      36.893836    
    330000   0.31831328    -8.1065653     -7.6291022      1.2448068      50218.233      36.893836      36.893836      36.893836    
    331000   0.31885295    -8.1046758     -7.6264032      1.2609187      50218.233      36.893836      36.893836      36.893836    
    332000   0.31860766    -8.1064693     -7.6285646      1.2477986      50218.233      36.893836      36.893836      36.893836    
    333000   0.32033329    -8.1065864     -7.6260933      1.2524711      50218.233      36.893836      36.893836      36.893836    
    334000   0.32097004    -8.1059215     -7.6244733      1.2606742      50218.233      36.893836      36.893836      36.893836    
    335000   0.31899682    -8.1078716     -7.6293832      1.23443        50218.233      36.893836      36.893836      36.893836    
    336000   0.31964946    -8.1070243     -7.6275569      1.2417493      50218.233      36.893836      36.893836      36.893836    
    337000   0.31980403    -8.1060773     -7.6263781      1.2482526      50218.233      36.893836      36.893836      36.893836    
    338000   0.32049528    -8.1082743     -7.6275383      1.2363375      50218.233      36.893836      36.893836      36.893836    
    339000   0.3182553     -8.1061161     -7.62874        1.2468766      50218.233      36.893836      36.893836      36.893836    
    340000   0.3183988     -8.1065502     -7.6289588      1.2414843      50218.233      36.893836      36.893836      36.893836    
    341000   0.32027208    -8.1071845     -7.6267832      1.2461285      50218.233      36.893836      36.893836      36.893836    
    342000   0.31915839    -8.1077959     -7.6290652      1.231572       50218.233      36.893836      36.893836      36.893836    
    343000   0.3211223     -8.1067395     -7.6250629      1.2439539      50218.233      36.893836      36.893836      36.893836    
    344000   0.31929418    -8.1060419     -7.6271075      1.2521491      50218.233      36.893836      36.893836      36.893836    
    345000   0.31937972    -8.1076872     -7.6286244      1.2414409      50218.233      36.893836      36.893836      36.893836    
    346000   0.3183237     -8.1059674     -7.6284887      1.2530701      50218.233      36.893836      36.893836      36.893836    
    347000   0.32021963    -8.1084276     -7.628105       1.2392548      50218.233      36.893836      36.893836      36.893836    
    348000   0.32008191    -8.1070904     -7.6269743      1.2384764      50218.233      36.893836      36.893836      36.893836    
    349000   0.31735346    -8.1060747     -7.6300513      1.2469281      50218.233      36.893836      36.893836      36.893836    
    350000   0.31878103    -8.10721       -7.6290452      1.2419638      50218.233      36.893836      36.893836      36.893836    
    351000   0.32145627    -8.1104562     -7.6282786      1.2241427      50218.233      36.893836      36.893836      36.893836    
    352000   0.31983813    -8.1051789     -7.6254285      1.2563022      50218.233      36.893836      36.893836      36.893836    
    353000   0.31811758    -8.1063791     -7.6292095      1.2494789      50218.233      36.893836      36.893836      36.893836    
    354000   0.31970335    -8.1058202     -7.626272       1.2530873      50218.233      36.893836      36.893836      36.893836    
    355000   0.31846999    -8.1039809     -7.6262827      1.2636359      50218.233      36.893836      36.893836      36.893836    
    356000   0.32121746    -8.1051067     -7.6232874      1.2620457      50218.233      36.893836      36.893836      36.893836    
    357000   0.32088453    -8.1086534     -7.6273334      1.2368405      50218.233      36.893836      36.893836      36.893836    
    358000   0.31869401    -8.1075118     -7.6294775      1.2338701      50218.233      36.893836      36.893836      36.893836    
    359000   0.31922236    -8.109531      -7.6307043      1.2266392      50218.233      36.893836      36.893836      36.893836    
    360000   0.31913206    -8.1043081     -7.6256168      1.2658464      50218.233      36.893836      36.893836      36.893836    
    361000   0.31828037    -8.1071109     -7.6296971      1.2406433      50218.233      36.893836      36.893836      36.893836    
    362000   0.32034871    -8.1040152     -7.623499       1.2622849      50218.233      36.893836      36.893836      36.893836    
    363000   0.32009179    -8.1068545     -7.6267237      1.2479214      50218.233      36.893836      36.893836      36.893836    
    364000   0.32081795    -8.1071998     -7.6259797      1.248527       50218.233      36.893836      36.893836      36.893836    
    365000   0.31920646    -8.1073684     -7.6285655      1.2465694      50218.233      36.893836      36.893836      36.893836    
    366000   0.31900578    -8.1065459     -7.628044       1.2412388      50218.233      36.893836      36.893836      36.893836    
    367000   0.31880157    -8.1077128     -7.6295172      1.2351854      50218.233      36.893836      36.893836      36.893836    
    368000   0.32130389    -8.1056122     -7.6236632      1.2618099      50218.233      36.893836      36.893836      36.893836    
    369000   0.31999262    -8.1081349     -7.6281528      1.2371708      50218.233      36.893836      36.893836      36.893836    
    370000   0.32166259    -8.1058896     -7.6234026      1.2547343      50218.233      36.893836      36.893836      36.893836    
    371000   0.32029178    -8.1078209     -7.62739        1.2387524      50218.233      36.893836      36.893836      36.893836    
    372000   0.31962063    -8.1032022     -7.6237781      1.2793841      50218.233      36.893836      36.893836      36.893836    
    373000   0.32125945    -8.1047926     -7.6229102      1.2627475      50218.233      36.893836      36.893836      36.893836    
    374000   0.31896001    -8.1066876     -7.6282544      1.2460152      50218.233      36.893836      36.893836      36.893836    
    375000   0.31919265    -8.1027703     -7.6239882      1.2700011      50218.233      36.893836      36.893836      36.893836    
    376000   0.31969902    -8.1064444     -7.6269027      1.2564101      50218.233      36.893836      36.893836      36.893836    
    377000   0.32146149    -8.1044718     -7.6222864      1.2634147      50218.233      36.893836      36.893836      36.893836    
    378000   0.32208775    -8.1059039     -7.6227792      1.2594135      50218.233      36.893836      36.893836      36.893836    
    379000   0.31992875    -8.1056515     -7.6257652      1.260575       50218.233      36.893836      36.893836      36.893836    
    380000   0.32121957    -8.1057746     -7.6239521      1.2617105      50218.233      36.893836      36.893836      36.893836    
    381000   0.31917131    -8.1071108     -7.6283606      1.2370372      50218.233      36.893836      36.893836      36.893836    
    382000   0.31908913    -8.1060799     -7.627453       1.247464       50218.233      36.893836      36.893836      36.893836    
    383000   0.31833955    -8.1058699     -7.6283674      1.2532005      50218.233      36.893836      36.893836      36.893836    
    384000   0.32185648    -8.1077691     -7.6249913      1.242702       50218.233      36.893836      36.893836      36.893836    
    385000   0.31987803    -8.106069      -7.6262587      1.2546249      50218.233      36.893836      36.893836      36.893836    
    386000   0.3186194     -8.1041941     -7.6262718      1.2693352      50218.233      36.893836      36.893836      36.893836    
    387000   0.32229399    -8.1071096     -7.6236755      1.2364273      50218.233      36.893836      36.893836      36.893836    
    388000   0.31804214    -8.1065143     -7.6294579      1.2425021      50218.233      36.893836      36.893836      36.893836    
    389000   0.32185103    -8.1067565     -7.6239868      1.2510654      50218.233      36.893836      36.893836      36.893836    
    390000   0.32063686    -8.1049722     -7.6240238      1.2650852      50218.233      36.893836      36.893836      36.893836    
    391000   0.32028698    -8.1072686     -7.626845       1.2477119      50218.233      36.893836      36.893836      36.893836    
    392000   0.32063346    -8.1068006     -7.6258573      1.2525338      50218.233      36.893836      36.893836      36.893836    
    393000   0.31992038    -8.1069592     -7.6270855      1.2483415      50218.233      36.893836      36.893836      36.893836    
    394000   0.321287      -8.1066992     -7.6247755      1.2480664      50218.233      36.893836      36.893836      36.893836    
    395000   0.3197161     -8.107906      -7.6283387      1.243596       50218.233      36.893836      36.893836      36.893836    
    396000   0.32107067    -8.1057867     -7.6241876      1.2495632      50218.233      36.893836      36.893836      36.893836    
    397000   0.32016471    -8.1092306     -7.6289904      1.2308989      50218.233      36.893836      36.893836      36.893836    
    398000   0.32043782    -8.1076703     -7.6270204      1.241651       50218.233      36.893836      36.893836      36.893836    
    399000   0.31930448    -8.1073792     -7.6284293      1.2355457      50218.233      36.893836      36.893836      36.893836    
    400000   0.32094248    -8.1096279     -7.628221       1.2323918      50218.233      36.893836      36.893836      36.893836    
    401000   0.31887967    -8.1039429     -7.6256302      1.2643406      50218.233      36.893836      36.893836      36.893836    
    402000   0.31978214    -8.1085718     -7.6289054      1.2367425      50218.233      36.893836      36.893836      36.893836    
    403000   0.320048      -8.1103403     -7.6302751      1.2243679      50218.233      36.893836      36.893836      36.893836    
    404000   0.31976359    -8.1088214     -7.6291829      1.2323062      50218.233      36.893836      36.893836      36.893836    
    405000   0.31885487    -8.1087004     -7.6304249      1.2250015      50218.233      36.893836      36.893836      36.893836    
    406000   0.32111458    -8.1041183     -7.6224533      1.267411       50218.233      36.893836      36.893836      36.893836    
    407000   0.31928247    -8.1083169     -7.6294         1.2351973      50218.233      36.893836      36.893836      36.893836    
    408000   0.31886162    -8.1084809     -7.6301952      1.2335834      50218.233      36.893836      36.893836      36.893836    
    409000   0.31948373    -8.1087366     -7.6295178      1.2325172      50218.233      36.893836      36.893836      36.893836    
    410000   0.32000871    -8.1051793     -7.6251731      1.2586979      50218.233      36.893836      36.893836      36.893836    
    411000   0.32136976    -8.1062559     -7.6242081      1.2564269      50218.233      36.893836      36.893836      36.893836    
    412000   0.3188944     -8.1062548     -7.62792        1.2462068      50218.233      36.893836      36.893836      36.893836    
    413000   0.31920819    -8.1078731     -7.6290677      1.2242033      50218.233      36.893836      36.893836      36.893836    
    414000   0.32071055    -8.1057734     -7.6247144      1.2552695      50218.233      36.893836      36.893836      36.893836    
    415000   0.3193999     -8.1088458     -7.6297528      1.236553       50218.233      36.893836      36.893836      36.893836    
    416000   0.3199208     -8.1092337     -7.6293593      1.2304842      50218.233      36.893836      36.893836      36.893836    
    417000   0.31996692    -8.1063227     -7.6263791      1.2454711      50218.233      36.893836      36.893836      36.893836    
    418000   0.32175943    -8.1079006     -7.6252684      1.242013       50218.233      36.893836      36.893836      36.893836    
    419000   0.32130321    -8.1044172     -7.6224692      1.27225        50218.233      36.893836      36.893836      36.893836    
    420000   0.3207637     -8.1049453     -7.6238065      1.2618283      50218.233      36.893836      36.893836      36.893836    
    421000   0.31949068    -8.1063188     -7.6270896      1.2503998      50218.233      36.893836      36.893836      36.893836    
    422000   0.31955156    -8.1043806     -7.62506        1.2647313      50218.233      36.893836      36.893836      36.893836    
    423000   0.3206912     -8.1056608     -7.6246309      1.2527319      50218.233      36.893836      36.893836      36.893836    
    424000   0.32017131    -8.1054834     -7.6252332      1.2614421      50218.233      36.893836      36.893836      36.893836    
    425000   0.32045806    -8.1040586     -7.6233783      1.2694245      50218.233      36.893836      36.893836      36.893836    
    426000   0.3195286     -8.1069773     -7.6276912      1.2419876      50218.233      36.893836      36.893836      36.893836    
    427000   0.31843555    -8.1055126     -7.627866       1.2511009      50218.233      36.893836      36.893836      36.893836    
    428000   0.32022651    -8.1049755     -7.6246426      1.2576761      50218.233      36.893836      36.893836      36.893836    
    429000   0.32047299    -8.1061997     -7.625497       1.2602339      50218.233      36.893836      36.893836      36.893836    
    430000   0.32052163    -8.107778      -7.6270024      1.2410166      50218.233      36.893836      36.893836      36.893836    
    431000   0.31999068    -8.1065486     -7.6265695      1.2472743      50218.233      36.893836      36.893836      36.893836    
    432000   0.32048393    -8.1038632     -7.6231442      1.2696404      50218.233      36.893836      36.893836      36.893836    
    433000   0.31772154    -8.1056787     -7.6291032      1.253608       50218.233      36.893836      36.893836      36.893836    
    434000   0.31904888    -8.1060242     -7.6274577      1.2503542      50218.233      36.893836      36.893836      36.893836    
    435000   0.31936987    -8.1065944     -7.6275464      1.2528305      50218.233      36.893836      36.893836      36.893836    
    436000   0.31780143    -8.1026293     -7.6259339      1.2752031      50218.233      36.893836      36.893836      36.893836    
    437000   0.32012188    -8.1066926     -7.6265166      1.2503987      50218.233      36.893836      36.893836      36.893836    
    438000   0.32020434    -8.107216      -7.6269163      1.2396898      50218.233      36.893836      36.893836      36.893836    
    439000   0.31958072    -8.1055422     -7.626178       1.2576057      50218.233      36.893836      36.893836      36.893836    
    440000   0.3215358     -8.1071444     -7.6248476      1.2477751      50218.233      36.893836      36.893836      36.893836    
    441000   0.32199613    -8.1094764     -7.626489       1.2244577      50218.233      36.893836      36.893836      36.893836    
    442000   0.31860817    -8.1066477     -7.6287423      1.2423108      50218.233      36.893836      36.893836      36.893836    
    443000   0.32124862    -8.1080498     -7.6261838      1.2377045      50218.233      36.893836      36.893836      36.893836    
    444000   0.31927504    -8.1057472     -7.6268414      1.2479462      50218.233      36.893836      36.893836      36.893836    
    445000   0.32049493    -8.1087038     -7.6279683      1.233118       50218.233      36.893836      36.893836      36.893836    
    446000   0.32178475    -8.1068012     -7.6241309      1.2455875      50218.233      36.893836      36.893836      36.893836    
    447000   0.32032575    -8.1083601     -7.6278783      1.2406337      50218.233      36.893836      36.893836      36.893836    
    448000   0.32099094    -8.1061202     -7.6246407      1.2500695      50218.233      36.893836      36.893836      36.893836    
    449000   0.31948579    -8.1084448     -7.6292229      1.2401357      50218.233      36.893836      36.893836      36.893836    
    450000   0.32041833    -8.105541      -7.6249204      1.2550012      50218.233      36.893836      36.893836      36.893836    
    451000   0.32114787    -8.1078198     -7.6261048      1.2413761      50218.233      36.893836      36.893836      36.893836    
    452000   0.3205795     -8.1084567     -7.6275943      1.2398689      50218.233      36.893836      36.893836      36.893836    
    453000   0.31900274    -8.1081016     -7.6296043      1.2420223      50218.233      36.893836      36.893836      36.893836    
    454000   0.32202684    -8.1092967     -7.6262633      1.2291696      50218.233      36.893836      36.893836      36.893836    
    455000   0.32056536    -8.1065378     -7.6256966      1.2537577      50218.233      36.893836      36.893836      36.893836    
    456000   0.31848823    -8.1072377     -7.6295121      1.2398455      50218.233      36.893836      36.893836      36.893836    
    457000   0.32037349    -8.1091164     -7.628563       1.2253094      50218.233      36.893836      36.893836      36.893836    
    458000   0.31931631    -8.1079395     -7.6289718      1.2389543      50218.233      36.893836      36.893836      36.893836    
    459000   0.32063449    -8.1055302     -7.6245853      1.2556371      50218.233      36.893836      36.893836      36.893836    
    460000   0.32142261    -8.1051784     -7.6230513      1.2582765      50218.233      36.893836      36.893836      36.893836    
    461000   0.31972737    -8.1073427     -7.6277585      1.2401264      50218.233      36.893836      36.893836      36.893836    
    462000   0.31840854    -8.1052566     -7.6276506      1.2565628      50218.233      36.893836      36.893836      36.893836    
    463000   0.31847881    -8.1036662     -7.6259548      1.2613969      50218.233      36.893836      36.893836      36.893836    
    464000   0.31915793    -8.1061367     -7.6274066      1.2592443      50218.233      36.893836      36.893836      36.893836    
    465000   0.32095106    -8.1077503     -7.6263305      1.2442822      50218.233      36.893836      36.893836      36.893836    
    466000   0.31982604    -8.1077233     -7.6279911      1.2352056      50218.233      36.893836      36.893836      36.893836    
    467000   0.31955065    -8.1046626     -7.6253434      1.2554773      50218.233      36.893836      36.893836      36.893836    
    468000   0.31903906    -8.1042073     -7.6256555      1.2709134      50218.233      36.893836      36.893836      36.893836    
    469000   0.31908568    -8.1042881     -7.6256664      1.2662811      50218.233      36.893836      36.893836      36.893836    
    470000   0.32087694    -8.1067742     -7.6254656      1.2475805      50218.233      36.893836      36.893836      36.893836    
    471000   0.3178399     -8.104233      -7.6274799      1.271557       50218.233      36.893836      36.893836      36.893836    
    472000   0.32193193    -8.1059907     -7.6230997      1.254602       50218.233      36.893836      36.893836      36.893836    
    473000   0.32061529    -8.1078217     -7.6269056      1.2451546      50218.233      36.893836      36.893836      36.893836    
    474000   0.31903564    -8.1078263     -7.6292796      1.2403144      50218.233      36.893836      36.893836      36.893836    
    475000   0.32067316    -8.1082654     -7.6272625      1.248138       50218.233      36.893836      36.893836      36.893836    
    476000   0.3193216     -8.1058163     -7.6268407      1.2535586      50218.233      36.893836      36.893836      36.893836    
    477000   0.32047621    -8.1068799     -7.6261725      1.2405781      50218.233      36.893836      36.893836      36.893836    
    478000   0.32156753    -8.1054343     -7.6230899      1.2615123      50218.233      36.893836      36.893836      36.893836    
    479000   0.32118654    -8.1022151     -7.6204421      1.2764315      50218.233      36.893836      36.893836      36.893836    
    480000   0.32056479    -8.1074554     -7.626615       1.245688       50218.233      36.893836      36.893836      36.893836    
    481000   0.31967619    -8.1073444     -7.6278369      1.2388248      50218.233      36.893836      36.893836      36.893836    
    482000   0.31967797    -8.1060475     -7.6265373      1.2504751      50218.233      36.893836      36.893836      36.893836    
    483000   0.31857878    -8.1067007     -7.6288393      1.2438243      50218.233      36.893836      36.893836      36.893836    
    484000   0.3215551     -8.1069935     -7.6246677      1.2476109      50218.233      36.893836      36.893836      36.893836    
    485000   0.31782244    -8.1088102     -7.6320834      1.225999       50218.233      36.893836      36.893836      36.893836    
    486000   0.32004208    -8.1066519     -7.6265956      1.2438624      50218.233      36.893836      36.893836      36.893836    
    487000   0.31885934    -8.1042766     -7.6259944      1.2620571      50218.233      36.893836      36.893836      36.893836    
    488000   0.31985716    -8.1070325     -7.6272535      1.2389156      50218.233      36.893836      36.893836      36.893836    
    489000   0.32007246    -8.1049909     -7.624889       1.256474       50218.233      36.893836      36.893836      36.893836    
    490000   0.32036967    -8.1068877     -7.62634        1.2452732      50218.233      36.893836      36.893836      36.893836    
    491000   0.31839594    -8.1053189     -7.6277318      1.2547335      50218.233      36.893836      36.893836      36.893836    
    492000   0.31973426    -8.1068785     -7.6272839      1.2428634      50218.233      36.893836      36.893836      36.893836    
    493000   0.31913276    -8.1068412     -7.6281489      1.248166       50218.233      36.893836      36.893836      36.893836    
    494000   0.32048514    -8.1067316     -7.6260108      1.2580711      50218.233      36.893836      36.893836      36.893836    
    495000   0.32067355    -8.1089431     -7.6279397      1.2310448      50218.233      36.893836      36.893836      36.893836    
    496000   0.32088089    -8.1088291     -7.6275146      1.2310775      50218.233      36.893836      36.893836      36.893836    
    497000   0.31911072    -8.1083249     -7.6296656      1.2429373      50218.233      36.893836      36.893836      36.893836    
    498000   0.3180587     -8.1066641     -7.6295828      1.249107       50218.233      36.893836      36.893836      36.893836    
    499000   0.32041076    -8.1063895     -7.6257802      1.2498866      50218.233      36.893836      36.893836      36.893836    
    500000   0.31947298    -8.1089267     -7.629724       1.2369571      50218.233      36.893836      36.893836      36.893836    
    501000   0.31937641    -8.1054679     -7.6264101      1.2540124      50218.233      36.893836      36.893836      36.893836    
    502000   0.31862536    -8.1064984     -7.6285672      1.2495444      50218.233      36.893836      36.893836      36.893836    
    503000   0.32031717    -8.1075849     -7.627116       1.2391392      50218.233      36.893836      36.893836      36.893836    
    504000   0.3206141     -8.1100899     -7.6291756      1.228686       50218.233      36.893836      36.893836      36.893836    
    505000   0.32244385    -8.1075244     -7.6238655      1.2467862      50218.233      36.893836      36.893836      36.893836    
    506000   0.31867548    -8.1060533     -7.6280469      1.2429168      50218.233      36.893836      36.893836      36.893836    
    507000   0.3212725     -8.1068867     -7.6249848      1.2473141      50218.233      36.893836      36.893836      36.893836    
    508000   0.32053386    -8.1044819     -7.623688       1.2681374      50218.233      36.893836      36.893836      36.893836    
    509000   0.31930932    -8.1068025     -7.6278453      1.2493279      50218.233      36.893836      36.893836      36.893836    
    510000   0.31941897    -8.1082675     -7.6291458      1.2282604      50218.233      36.893836      36.893836      36.893836    
    511000   0.32100239    -8.1068235     -7.6253267      1.2521173      50218.233      36.893836      36.893836      36.893836    
    512000   0.31835305    -8.1052353     -7.6277125      1.2529201      50218.233      36.893836      36.893836      36.893836    
    513000   0.32146036    -8.104842      -7.6226583      1.2629351      50218.233      36.893836      36.893836      36.893836    
    514000   0.32065356    -8.1088006     -7.6278271      1.2340279      50218.233      36.893836      36.893836      36.893836    
    515000   0.32054806    -8.1080402     -7.6272249      1.2455954      50218.233      36.893836      36.893836      36.893836    
    516000   0.32081799    -8.1039124     -7.6226922      1.2696979      50218.233      36.893836      36.893836      36.893836    
    517000   0.31958931    -8.1064654     -7.6270883      1.2477141      50218.233      36.893836      36.893836      36.893836    
    518000   0.31913436    -8.103582      -7.6248873      1.2694691      50218.233      36.893836      36.893836      36.893836    
    519000   0.31886632    -8.1047089     -7.6264162      1.2623932      50218.233      36.893836      36.893836      36.893836    
    520000   0.31972454    -8.1051231     -7.6255431      1.2621283      50218.233      36.893836      36.893836      36.893836    
    521000   0.3201456     -8.1054572     -7.6252457      1.2561429      50218.233      36.893836      36.893836      36.893836    
    522000   0.31973926    -8.106499      -7.626897       1.2545503      50218.233      36.893836      36.893836      36.893836    
    523000   0.32233722    -8.1080687     -7.6245698      1.2409656      50218.233      36.893836      36.893836      36.893836    
    524000   0.31987951    -8.1048687     -7.6250563      1.2603623      50218.233      36.893836      36.893836      36.893836    
    525000   0.32024117    -8.1036058     -7.6232509      1.2760268      50218.233      36.893836      36.893836      36.893836    
    526000   0.31917523    -8.1077074     -7.6289514      1.237157       50218.233      36.893836      36.893836      36.893836    
    527000   0.32031713    -8.1037646     -7.6232958      1.2771512      50218.233      36.893836      36.893836      36.893836    
    528000   0.31924895    -8.1066284     -7.6277618      1.2523685      50218.233      36.893836      36.893836      36.893836    
    529000   0.32010972    -8.1069786     -7.6268208      1.2398506      50218.233      36.893836      36.893836      36.893836    
    530000   0.31913022    -8.1061437     -7.6274552      1.2439728      50218.233      36.893836      36.893836      36.893836    
    531000   0.32010222    -8.1073286     -7.6271821      1.2445507      50218.233      36.893836      36.893836      36.893836    
    532000   0.3207851     -8.1063839     -7.6252131      1.2450627      50218.233      36.893836      36.893836      36.893836    
    533000   0.32121179    -8.1063017     -7.6244909      1.2524413      50218.233      36.893836      36.893836      36.893836    
    534000   0.3193371     -8.1048165     -7.6258177      1.2609193      50218.233      36.893836      36.893836      36.893836    
    535000   0.32217246    -8.1059798     -7.6227279      1.2473584      50218.233      36.893836      36.893836      36.893836    
    536000   0.31942868    -8.107571      -7.6284348      1.2379243      50218.233      36.893836      36.893836      36.893836    
    537000   0.31916954    -8.1082039     -7.6294564      1.2341673      50218.233      36.893836      36.893836      36.893836    
    538000   0.32034582    -8.1048612     -7.6243493      1.2547719      50218.233      36.893836      36.893836      36.893836    
    539000   0.32050788    -8.1086844     -7.6279294      1.2396801      50218.233      36.893836      36.893836      36.893836    
    540000   0.3203324     -8.1089737     -7.628482       1.2373633      50218.233      36.893836      36.893836      36.893836    
    541000   0.31807934    -8.108786      -7.6316738      1.2325145      50218.233      36.893836      36.893836      36.893836    
    542000   0.32119046    -8.1065667     -7.6247878      1.2464351      50218.233      36.893836      36.893836      36.893836    
    543000   0.32075792    -8.1057179     -7.6245878      1.2567297      50218.233      36.893836      36.893836      36.893836    
    544000   0.32003315    -8.1065167     -7.6264738      1.2543589      50218.233      36.893836      36.893836      36.893836    
    545000   0.32099319    -8.1063991     -7.6249162      1.2507625      50218.233      36.893836      36.893836      36.893836    
    546000   0.3200351     -8.1076351     -7.6275893      1.2447204      50218.233      36.893836      36.893836      36.893836    
    547000   0.31888472    -8.1061747     -7.6278544      1.2539012      50218.233      36.893836      36.893836      36.893836    
    548000   0.31913941    -8.107553      -7.6288507      1.2446689      50218.233      36.893836      36.893836      36.893836    
    549000   0.3212289     -8.1062957     -7.6244592      1.2627916      50218.233      36.893836      36.893836      36.893836    
    550000   0.32103402    -8.1101463     -7.6286022      1.2183579      50218.233      36.893836      36.893836      36.893836    
    551000   0.32013228    -8.1064957     -7.6263041      1.2405615      50218.233      36.893836      36.893836      36.893836    
    552000   0.32149686    -8.1080363     -7.6257978      1.2358281      50218.233      36.893836      36.893836      36.893836    
    553000   0.32077012    -8.105237      -7.6240886      1.2725583      50218.233      36.893836      36.893836      36.893836    
    554000   0.32118249    -8.1078726     -7.6261057      1.241951       50218.233      36.893836      36.893836      36.893836    
    555000   0.31888064    -8.1108612     -7.6325471      1.2125498      50218.233      36.893836      36.893836      36.893836    
    556000   0.32061034    -8.1083838     -7.6274752      1.2429267      50218.233      36.893836      36.893836      36.893836    
    557000   0.31967742    -8.1065796     -7.6270703      1.2452965      50218.233      36.893836      36.893836      36.893836    
    558000   0.31937791    -8.1049791     -7.6259191      1.2578091      50218.233      36.893836      36.893836      36.893836    
    559000   0.31883051    -8.1060962     -7.6278573      1.2511984      50218.233      36.893836      36.893836      36.893836    
    560000   0.3199686     -8.1078945     -7.6279485      1.2374077      50218.233      36.893836      36.893836      36.893836    
    561000   0.32038338    -8.1067724     -7.6262042      1.24542        50218.233      36.893836      36.893836      36.893836    
    562000   0.31904093    -8.1068915     -7.6283369      1.2519732      50218.233      36.893836      36.893836      36.893836    
    563000   0.31879318    -8.1073947     -7.6292117      1.2494709      50218.233      36.893836      36.893836      36.893836    
    564000   0.31961034    -8.1055071     -7.6260984      1.2536835      50218.233      36.893836      36.893836      36.893836    
    565000   0.31916455    -8.1068777     -7.6281377      1.2366809      50218.233      36.893836      36.893836      36.893836    
    566000   0.32039684    -8.1070894     -7.626501       1.2427741      50218.233      36.893836      36.893836      36.893836    
    567000   0.31913874    -8.1032485     -7.6245472      1.2702463      50218.233      36.893836      36.893836      36.893836    
    568000   0.31933797    -8.1044289     -7.6254288      1.2598027      50218.233      36.893836      36.893836      36.893836    
    569000   0.31900885    -8.1065044     -7.6279979      1.2429576      50218.233      36.893836      36.893836      36.893836    
    570000   0.31918701    -8.1055026     -7.6267289      1.2639688      50218.233      36.893836      36.893836      36.893836    
    571000   0.3190616     -8.1067262     -7.6281406      1.2445039      50218.233      36.893836      36.893836      36.893836    
    572000   0.32143482    -8.1074277     -7.6252823      1.2360982      50218.233      36.893836      36.893836      36.893836    
    573000   0.32097741    -8.1061868     -7.6247276      1.2593823      50218.233      36.893836      36.893836      36.893836    
    574000   0.31903785    -8.1061296     -7.6275796      1.2507155      50218.233      36.893836      36.893836      36.893836    
    575000   0.31903698    -8.1075819     -7.6290332      1.2423932      50218.233      36.893836      36.893836      36.893836    
    576000   0.32040092    -8.1033486     -7.6227541      1.271496       50218.233      36.893836      36.893836      36.893836    
    577000   0.31804973    -8.1065321     -7.6294643      1.2455112      50218.233      36.893836      36.893836      36.893836    
    578000   0.31947238    -8.1061877     -7.626986       1.2485186      50218.233      36.893836      36.893836      36.893836    
    579000   0.32117668    -8.1078471     -7.6260889      1.2486316      50218.233      36.893836      36.893836      36.893836    
    580000   0.32038141    -8.1040135     -7.6234482      1.2691632      50218.233      36.893836      36.893836      36.893836    
    581000   0.3184549     -8.1086625     -7.630987       1.2336068      50218.233      36.893836      36.893836      36.893836    
    582000   0.32056168    -8.1061251     -7.6252895      1.2557306      50218.233      36.893836      36.893836      36.893836    
    583000   0.3183615     -8.1085963     -7.6310609      1.23113        50218.233      36.893836      36.893836      36.893836    
    584000   0.32099626    -8.1085446     -7.6270571      1.2325679      50218.233      36.893836      36.893836      36.893836    
    585000   0.32069353    -8.1052245     -7.624191       1.2604698      50218.233      36.893836      36.893836      36.893836    
    586000   0.31880638    -8.106507      -7.6283042      1.2452198      50218.233      36.893836      36.893836      36.893836    
    587000   0.32016688    -8.108307      -7.6280635      1.2327528      50218.233      36.893836      36.893836      36.893836    
    588000   0.31993209    -8.1061083     -7.626217       1.2579439      50218.233      36.893836      36.893836      36.893836    
    589000   0.32096405    -8.1090453     -7.627606       1.2274938      50218.233      36.893836      36.893836      36.893836    
    590000   0.31983903    -8.1077967     -7.6280449      1.2384947      50218.233      36.893836      36.893836      36.893836    
    591000   0.32113133    -8.10848       -7.6267898      1.2328145      50218.233      36.893836      36.893836      36.893836    
    592000   0.32048851    -8.1070299     -7.626304       1.2436737      50218.233      36.893836      36.893836      36.893836    
    593000   0.3194855     -8.1067833     -7.6275619      1.2448477      50218.233      36.893836      36.893836      36.893836    
    594000   0.31940531    -8.1082247     -7.6291235      1.2375874      50218.233      36.893836      36.893836      36.893836    
    595000   0.32011382    -8.1086053     -7.6284414      1.2266843      50218.233      36.893836      36.893836      36.893836    
    596000   0.31963856    -8.1088051     -7.6293541      1.2293058      50218.233      36.893836      36.893836      36.893836    
    597000   0.31955554    -8.1041958     -7.6248693      1.2645301      50218.233      36.893836      36.893836      36.893836    
    598000   0.32025147    -8.1067688     -7.6263984      1.2450324      50218.233      36.893836      36.893836      36.893836    
    599000   0.31893046    -8.1073891     -7.6290002      1.2423282      50218.233      36.893836      36.893836      36.893836    
    600000   0.31945423    -8.1036303     -7.6244558      1.2716672      50218.233      36.893836      36.893836      36.893836    
    601000   0.31932943    -8.1077755     -7.6287881      1.2350189      50218.233      36.893836      36.893836      36.893836    
    602000   0.31865115    -8.1082889     -7.630319       1.2297986      50218.233      36.893836      36.893836      36.893836    
    603000   0.31905389    -8.1103471     -7.6317731      1.2249789      50218.233      36.893836      36.893836      36.893836    
    604000   0.32052596    -8.1067984     -7.6260163      1.2413398      50218.233      36.893836      36.893836      36.893836    
    605000   0.31923268    -8.1094389     -7.6305967      1.2246314      50218.233      36.893836      36.893836      36.893836    
    606000   0.32002988    -8.1095346     -7.6294966      1.2252201      50218.233      36.893836      36.893836      36.893836    
    607000   0.31965607    -8.1079089     -7.6284316      1.2346495      50218.233      36.893836      36.893836      36.893836    
    608000   0.31961297    -8.1062065     -7.6267939      1.2513939      50218.233      36.893836      36.893836      36.893836    
    609000   0.32193053    -8.1083131     -7.6254242      1.229936       50218.233      36.893836      36.893836      36.893836    
    610000   0.32113256    -8.1068429     -7.6251509      1.2406883      50218.233      36.893836      36.893836      36.893836    
    611000   0.31780428    -8.1082755     -7.6315759      1.2307742      50218.233      36.893836      36.893836      36.893836    
    612000   0.32175217    -8.1048132     -7.6221918      1.2605792      50218.233      36.893836      36.893836      36.893836    
    613000   0.32139811    -8.1078848     -7.6257945      1.2486277      50218.233      36.893836      36.893836      36.893836    
    614000   0.32011413    -8.1062488     -7.6260845      1.2481233      50218.233      36.893836      36.893836      36.893836    
    615000   0.31851924    -8.1077377     -7.6299657      1.2371508      50218.233      36.893836      36.893836      36.893836    
    616000   0.32083679    -8.1091255     -7.6278772      1.2254974      50218.233      36.893836      36.893836      36.893836    
    617000   0.32051641    -8.1052921     -7.6245243      1.2640416      50218.233      36.893836      36.893836      36.893836    
    618000   0.31915414    -8.1061035     -7.6273791      1.2525159      50218.233      36.893836      36.893836      36.893836    
    619000   0.32028041    -8.1082711     -7.6278574      1.2366528      50218.233      36.893836      36.893836      36.893836    
    620000   0.31870676    -8.1076274     -7.629574       1.2418494      50218.233      36.893836      36.893836      36.893836    
    621000   0.3223758     -8.1069943     -7.6234375      1.2466631      50218.233      36.893836      36.893836      36.893836    
    622000   0.32163524    -8.1065184     -7.6240724      1.2496604      50218.233      36.893836      36.893836      36.893836    
    623000   0.31985558    -8.1062272     -7.6264507      1.24619        50218.233      36.893836      36.893836      36.893836    
    624000   0.32220779    -8.1067417     -7.6234369      1.2501606      50218.233      36.893836      36.893836      36.893836    
    625000   0.31934889    -8.1062574     -7.6272409      1.2498121      50218.233      36.893836      36.893836      36.893836    
    626000   0.31966042    -8.106013      -7.6265292      1.2542903      50218.233      36.893836      36.893836      36.893836    
    627000   0.32207639    -8.1068537     -7.6237459      1.2486926      50218.233      36.893836      36.893836      36.893836    
    628000   0.32062239    -8.1065585     -7.6256317      1.2441476      50218.233      36.893836      36.893836      36.893836    
    629000   0.32021916    -8.1062281     -7.6259062      1.2506538      50218.233      36.893836      36.893836      36.893836    
    630000   0.3200464     -8.1077012     -7.6276384      1.2363308      50218.233      36.893836      36.893836      36.893836    
    631000   0.31871476    -8.1062121     -7.6281468      1.2604789      50218.233      36.893836      36.893836      36.893836    
    632000   0.3187403     -8.1049317     -7.6268281      1.2621139      50218.233      36.893836      36.893836      36.893836    
    633000   0.32030104    -8.1061747     -7.62573        1.2462621      50218.233      36.893836      36.893836      36.893836    
    634000   0.31871852    -8.1071905     -7.6291195      1.238736       50218.233      36.893836      36.893836      36.893836    
    635000   0.31979296    -8.1061823     -7.6264997      1.2557908      50218.233      36.893836      36.893836      36.893836    
    636000   0.32072619    -8.104061      -7.6229786      1.2682089      50218.233      36.893836      36.893836      36.893836    
    637000   0.32183676    -8.1053757     -7.6226275      1.2615929      50218.233      36.893836      36.893836      36.893836    
    638000   0.31994297    -8.1058637     -7.625956       1.2466944      50218.233      36.893836      36.893836      36.893836    
    639000   0.31903337    -8.1078623     -7.629319       1.2364012      50218.233      36.893836      36.893836      36.893836    
    640000   0.31883618    -8.1077704     -7.629523       1.2321936      50218.233      36.893836      36.893836      36.893836    
    641000   0.32099716    -8.1071642     -7.6256753      1.2427102      50218.233      36.893836      36.893836      36.893836    
    642000   0.319962      -8.1075075     -7.6275713      1.2523054      50218.233      36.893836      36.893836      36.893836    
    643000   0.31820179    -8.1089242     -7.6316283      1.237033       50218.233      36.893836      36.893836      36.893836    
    644000   0.32098417    -8.1075352     -7.6260658      1.2467349      50218.233      36.893836      36.893836      36.893836    
    645000   0.32044385    -8.1062025     -7.6255435      1.2499649      50218.233      36.893836      36.893836      36.893836    
    646000   0.31863016    -8.1084912     -7.6305528      1.224675       50218.233      36.893836      36.893836      36.893836    
    647000   0.32009047    -8.1079307     -7.6278018      1.22977        50218.233      36.893836      36.893836      36.893836    
    648000   0.31935781    -8.1064333     -7.6274034      1.2426285      50218.233      36.893836      36.893836      36.893836    
    649000   0.32106513    -8.1085748     -7.626984       1.2355498      50218.233      36.893836      36.893836      36.893836    
    650000   0.31980397    -8.1116806     -7.6319814      1.2102167      50218.233      36.893836      36.893836      36.893836    
    651000   0.3197611     -8.1087169     -7.6290821      1.2312755      50218.233      36.893836      36.893836      36.893836    
    652000   0.31861867    -8.109788      -7.6318668      1.2179087      50218.233      36.893836      36.893836      36.893836    
    653000   0.31962698    -8.1128709     -7.6334373      1.1999634      50218.233      36.893836      36.893836      36.893836    
    654000   0.31909643    -8.1090255     -7.6303876      1.2281112      50218.233      36.893836      36.893836      36.893836    
    655000   0.31967581    -8.1083229     -7.628816       1.2379031      50218.233      36.893836      36.893836      36.893836    
    656000   0.32165355    -8.1064985     -7.6240251      1.2559669      50218.233      36.893836      36.893836      36.893836    
    657000   0.32085153    -8.1090456     -7.6277751      1.2291721      50218.233      36.893836      36.893836      36.893836    
    658000   0.31668413    -8.1095835     -7.6345641      1.223033       50218.233      36.893836      36.893836      36.893836    
    659000   0.31848679    -8.107474      -7.6297506      1.2445078      50218.233      36.893836      36.893836      36.893836    
    660000   0.31867638    -8.106046      -7.6280382      1.2451874      50218.233      36.893836      36.893836      36.893836    
    661000   0.32107501    -8.1088223     -7.6272166      1.2333677      50218.233      36.893836      36.893836      36.893836    
    662000   0.3176913     -8.105687      -7.6291569      1.2545273      50218.233      36.893836      36.893836      36.893836    
    663000   0.32101981    -8.1047499     -7.623227       1.2669217      50218.233      36.893836      36.893836      36.893836    
    664000   0.31816085    -8.1064535     -7.6292191      1.2541355      50218.233      36.893836      36.893836      36.893836    
    665000   0.32108255    -8.1058781     -7.6242611      1.2555479      50218.233      36.893836      36.893836      36.893836    
    666000   0.32120475    -8.1070374     -7.6252372      1.2441239      50218.233      36.893836      36.893836      36.893836    
    667000   0.31944456    -8.104259      -7.6250989      1.2610132      50218.233      36.893836      36.893836      36.893836    
    668000   0.31930245    -8.1074178     -7.628471       1.2453817      50218.233      36.893836      36.893836      36.893836    
    669000   0.31910541    -8.1063292     -7.6276779      1.2464014      50218.233      36.893836      36.893836      36.893836    
    670000   0.31913048    -8.1070989     -7.62841        1.2466323      50218.233      36.893836      36.893836      36.893836    
    671000   0.31978183    -8.1071122     -7.6274463      1.2420633      50218.233      36.893836      36.893836      36.893836    
    672000   0.31969582    -8.105514      -7.6259771      1.2543055      50218.233      36.893836      36.893836      36.893836    
    673000   0.32247564    -8.1073878     -7.6236812      1.2521697      50218.233      36.893836      36.893836      36.893836    
    674000   0.3198985     -8.1070824     -7.6272415      1.240051       50218.233      36.893836      36.893836      36.893836    
    675000   0.32170042    -8.1032888     -7.620745       1.2731332      50218.233      36.893836      36.893836      36.893836    
    676000   0.31963919    -8.1043346     -7.6248826      1.2677097      50218.233      36.893836      36.893836      36.893836    
    677000   0.32111894    -8.106104      -7.6244324      1.2558489      50218.233      36.893836      36.893836      36.893836    
    678000   0.31955078    -8.105587      -7.6262676      1.2627976      50218.233      36.893836      36.893836      36.893836    
    679000   0.32100543    -8.1056137     -7.6241124      1.2644164      50218.233      36.893836      36.893836      36.893836    
    680000   0.32050025    -8.1076946     -7.6269511      1.24697        50218.233      36.893836      36.893836      36.893836    
    681000   0.31956334    -8.109926      -7.6305878      1.2152569      50218.233      36.893836      36.893836      36.893836    
    682000   0.31907326    -8.1080544     -7.6294513      1.2393019      50218.233      36.893836      36.893836      36.893836    
    683000   0.32002474    -8.1059469     -7.6259166      1.2473081      50218.233      36.893836      36.893836      36.893836    
    684000   0.32016847    -8.1055887     -7.6253428      1.2542665      50218.233      36.893836      36.893836      36.893836    
    685000   0.31926819    -8.1052351     -7.6263396      1.2613297      50218.233      36.893836      36.893836      36.893836    
    686000   0.32154889    -8.1065784     -7.6242619      1.2597492      50218.233      36.893836      36.893836      36.893836    
    687000   0.32068701    -8.1059006     -7.6248769      1.2561822      50218.233      36.893836      36.893836      36.893836    
    688000   0.31981371    -8.1051516     -7.6254378      1.2596053      50218.233      36.893836      36.893836      36.893836    
    689000   0.32032068    -8.1052595     -7.6247853      1.2518634      50218.233      36.893836      36.893836      36.893836    
    690000   0.32098375    -8.1090718     -7.627603       1.2292367      50218.233      36.893836      36.893836      36.893836    
    691000   0.31935144    -8.1071575     -7.6281371      1.2397556      50218.233      36.893836      36.893836      36.893836    
    692000   0.32171653    -8.1037265     -7.6211586      1.2684805      50218.233      36.893836      36.893836      36.893836    
    693000   0.32148323    -8.1068872     -7.6246692      1.2405856      50218.233      36.893836      36.893836      36.893836    
    694000   0.31999482    -8.1043784     -7.624393       1.2677203      50218.233      36.893836      36.893836      36.893836    
    695000   0.32088868    -8.1083829     -7.6270568      1.2347322      50218.233      36.893836      36.893836      36.893836    
    696000   0.3201348     -8.1075838     -7.6273885      1.2330315      50218.233      36.893836      36.893836      36.893836    
    697000   0.32035374    -8.1055065     -7.6249827      1.2552374      50218.233      36.893836      36.893836      36.893836    
    698000   0.3215002     -8.1065042     -7.6242607      1.2522804      50218.233      36.893836      36.893836      36.893836    
    699000   0.32203453    -8.108042      -7.6249971      1.2404271      50218.233      36.893836      36.893836      36.893836    
    700000   0.32010531    -8.1076773     -7.6275261      1.2403061      50218.233      36.893836      36.893836      36.893836    
    701000   0.32216075    -8.1090532     -7.625819       1.2313913      50218.233      36.893836      36.893836      36.893836    
    702000   0.31985019    -8.1052345     -7.6254661      1.2556104      50218.233      36.893836      36.893836      36.893836    
    703000   0.32119586    -8.1065159     -7.624729       1.2524184      50218.233      36.893836      36.893836      36.893836    
    704000   0.31970219    -8.1086283     -7.6290819      1.2363378      50218.233      36.893836      36.893836      36.893836    
    705000   0.32030958    -8.1064632     -7.6260057      1.2560182      50218.233      36.893836      36.893836      36.893836    
    706000   0.32126495    -8.1069049     -7.6250143      1.2474538      50218.233      36.893836      36.893836      36.893836    
    707000   0.32026381    -8.1048915     -7.6245026      1.249709       50218.233      36.893836      36.893836      36.893836    
    708000   0.32191941    -8.108905      -7.6260328      1.2255678      50218.233      36.893836      36.893836      36.893836    
    709000   0.31753982    -8.1073972     -7.6310943      1.2416644      50218.233      36.893836      36.893836      36.893836    
    710000   0.31882366    -8.1067143     -7.6284856      1.2379152      50218.233      36.893836      36.893836      36.893836    
    711000   0.319936      -8.1062467     -7.6263495      1.2402105      50218.233      36.893836      36.893836      36.893836    
    712000   0.31979573    -8.1098291     -7.6301423      1.2236396      50218.233      36.893836      36.893836      36.893836    
    713000   0.32060311    -8.1078213     -7.6269235      1.2411414      50218.233      36.893836      36.893836      36.893836    
    714000   0.32027746    -8.1066662     -7.6262568      1.2457221      50218.233      36.893836      36.893836      36.893836    
    715000   0.32117816    -8.1069076     -7.6251472      1.2381769      50218.233      36.893836      36.893836      36.893836    
    716000   0.32009763    -8.1066713     -7.6265317      1.253661       50218.233      36.893836      36.893836      36.893836    
    717000   0.32089481    -8.1073793     -7.6260439      1.2518777      50218.233      36.893836      36.893836      36.893836    
    718000   0.32025197    -8.1056217     -7.6252505      1.2633919      50218.233      36.893836      36.893836      36.893836    
    719000   0.31992067    -8.1070098     -7.6271356      1.2384052      50218.233      36.893836      36.893836      36.893836    
    720000   0.31983411    -8.107665      -7.6279207      1.2338834      50218.233      36.893836      36.893836      36.893836    
    721000   0.32126241    -8.1072308     -7.6253441      1.2457542      50218.233      36.893836      36.893836      36.893836    
    722000   0.3197965     -8.1065007     -7.6268128      1.2429019      50218.233      36.893836      36.893836      36.893836    
    723000   0.320147      -8.1066519     -7.6264383      1.2462612      50218.233      36.893836      36.893836      36.893836    
    724000   0.31992966    -8.1072754     -7.6273877      1.2364324      50218.233      36.893836      36.893836      36.893836    
    725000   0.31933045    -8.1044514     -7.6254625      1.2630355      50218.233      36.893836      36.893836      36.893836    
    726000   0.32127346    -8.1055391     -7.6236358      1.2562106      50218.233      36.893836      36.893836      36.893836    
    727000   0.32112627    -8.1061136     -7.624431       1.2527227      50218.233      36.893836      36.893836      36.893836    
    728000   0.32004423    -8.1049883     -7.6249288      1.2676526      50218.233      36.893836      36.893836      36.893836    
    729000   0.32013825    -8.1073169     -7.6271164      1.2439424      50218.233      36.893836      36.893836      36.893836    
    730000   0.32061139    -8.1086684     -7.6277582      1.230517       50218.233      36.893836      36.893836      36.893836    
    731000   0.32038156    -8.1041937     -7.6236282      1.2673482      50218.233      36.893836      36.893836      36.893836    
    732000   0.31909706    -8.105905      -7.6272662      1.2472376      50218.233      36.893836      36.893836      36.893836    
    733000   0.32209342    -8.1054333     -7.6223         1.2582826      50218.233      36.893836      36.893836      36.893836    
    734000   0.31833037    -8.1078545     -7.6303658      1.2398932      50218.233      36.893836      36.893836      36.893836    
    735000   0.32020324    -8.1064425     -7.6261445      1.2538035      50218.233      36.893836      36.893836      36.893836    
    736000   0.31814327    -8.1071393     -7.6299312      1.2387431      50218.233      36.893836      36.893836      36.893836    
    737000   0.31925667    -8.1061379     -7.6272597      1.2489077      50218.233      36.893836      36.893836      36.893836    
    738000   0.32081504    -8.1069327     -7.625717       1.239867       50218.233      36.893836      36.893836      36.893836    
    739000   0.31931381    -8.1053246     -7.6263607      1.2597535      50218.233      36.893836      36.893836      36.893836    
    740000   0.3192797     -8.10719       -7.6282772      1.2330073      50218.233      36.893836      36.893836      36.893836    
    741000   0.32026058    -8.109012      -7.628628       1.2274753      50218.233      36.893836      36.893836      36.893836    
    742000   0.3205989     -8.1073352     -7.6264437      1.239271       50218.233      36.893836      36.893836      36.893836    
    743000   0.31958774    -8.1075822     -7.6282074      1.2460533      50218.233      36.893836      36.893836      36.893836    
    744000   0.31845555    -8.1085917     -7.6309151      1.2309156      50218.233      36.893836      36.893836      36.893836    
    745000   0.32003121    -8.1074359     -7.6273959      1.2442086      50218.233      36.893836      36.893836      36.893836    
    746000   0.31982348    -8.1083409     -7.6286125      1.2373449      50218.233      36.893836      36.893836      36.893836    
    747000   0.31927329    -8.1108037     -7.6319006      1.2104897      50218.233      36.893836      36.893836      36.893836    
    748000   0.31960828    -8.106677      -7.6272714      1.2494436      50218.233      36.893836      36.893836      36.893836    
    749000   0.31935842    -8.1080192     -7.6289883      1.2459299      50218.233      36.893836      36.893836      36.893836    
    750000   0.31837491    -8.1090791     -7.6315235      1.2331204      50218.233      36.893836      36.893836      36.893836    
    751000   0.32051461    -8.1084305     -7.6276654      1.2418333      50218.233      36.893836      36.893836      36.893836    
    752000   0.3190104     -8.1058719     -7.6273632      1.2566578      50218.233      36.893836      36.893836      36.893836    
    753000   0.31898345    -8.1100763     -7.6316079      1.2172763      50218.233      36.893836      36.893836      36.893836    
    754000   0.32094206    -8.1052301     -7.6238239      1.2584661      50218.233      36.893836      36.893836      36.893836    
    755000   0.31995526    -8.1079095     -7.6279835      1.2312415      50218.233      36.893836      36.893836      36.893836    
    756000   0.31996885    -8.1079681     -7.6280217      1.2393406      50218.233      36.893836      36.893836      36.893836    
    757000   0.31794237    -8.1081648     -7.631258       1.2410238      50218.233      36.893836      36.893836      36.893836    
    758000   0.31993492    -8.1074024     -7.6275068      1.2406818      50218.233      36.893836      36.893836      36.893836    
    759000   0.31877545    -8.1097477     -7.6315914      1.2205856      50218.233      36.893836      36.893836      36.893836    
    760000   0.32067739    -8.1074083     -7.626399       1.2394769      50218.233      36.893836      36.893836      36.893836    
    761000   0.32214903    -8.105568      -7.6223513      1.2590771      50218.233      36.893836      36.893836      36.893836    
    762000   0.3210804     -8.1090516     -7.6274379      1.2333911      50218.233      36.893836      36.893836      36.893836    
    763000   0.31973478    -8.1062432     -7.6266478      1.2491886      50218.233      36.893836      36.893836      36.893836    
    764000   0.31958849    -8.1057007     -7.6263248      1.2567136      50218.233      36.893836      36.893836      36.893836    
    765000   0.32077543    -8.10712       -7.6259637      1.2461755      50218.233      36.893836      36.893836      36.893836    
    766000   0.32093598    -8.1027722     -7.6213751      1.270009       50218.233      36.893836      36.893836      36.893836    
    767000   0.32121789    -8.1084292     -7.6266092      1.2312983      50218.233      36.893836      36.893836      36.893836    
    768000   0.31937733    -8.1050525     -7.6259934      1.2593764      50218.233      36.893836      36.893836      36.893836    
    769000   0.3188022     -8.1085702     -7.6303737      1.228719       50218.233      36.893836      36.893836      36.893836    
    770000   0.31859059    -8.1075963     -7.6297172      1.2422792      50218.233      36.893836      36.893836      36.893836    
    771000   0.31936746    -8.1059836     -7.6269392      1.2482914      50218.233      36.893836      36.893836      36.893836    
    772000   0.31994672    -8.1078787     -7.6279654      1.2399424      50218.233      36.893836      36.893836      36.893836    
    773000   0.31930192    -8.1047767     -7.6258306      1.2533239      50218.233      36.893836      36.893836      36.893836    
    774000   0.31930258    -8.1081888     -7.6292417      1.2394524      50218.233      36.893836      36.893836      36.893836    
    775000   0.32010655    -8.1052356     -7.6250826      1.2530709      50218.233      36.893836      36.893836      36.893836    
    776000   0.32039893    -8.1077854     -7.6271938      1.2409135      50218.233      36.893836      36.893836      36.893836    
    777000   0.321311      -8.1045249     -7.6225653      1.2607116      50218.233      36.893836      36.893836      36.893836    
    778000   0.32040782    -8.1052072     -7.6246023      1.2619516      50218.233      36.893836      36.893836      36.893836    
    779000   0.31947945    -8.1075742     -7.6283618      1.2339807      50218.233      36.893836      36.893836      36.893836    
    780000   0.31880749    -8.1057102     -7.6275057      1.2508286      50218.233      36.893836      36.893836      36.893836    
    781000   0.32005006    -8.1074478     -7.6273796      1.2515935      50218.233      36.893836      36.893836      36.893836    
    782000   0.3195955     -8.1042033     -7.6248168      1.260929       50218.233      36.893836      36.893836      36.893836    
    783000   0.3214433     -8.1046794     -7.6225213      1.2653287      50218.233      36.893836      36.893836      36.893836    
    784000   0.32020896    -8.1069838     -7.6266772      1.2362279      50218.233      36.893836      36.893836      36.893836    
    785000   0.31988247    -8.1050735     -7.6252566      1.2630393      50218.233      36.893836      36.893836      36.893836    
    786000   0.31998827    -8.105667      -7.6256914      1.2539321      50218.233      36.893836      36.893836      36.893836    
    787000   0.31985151    -8.1075975     -7.6278271      1.2415719      50218.233      36.893836      36.893836      36.893836    
    788000   0.31956146    -8.1064455     -7.6271101      1.2580319      50218.233      36.893836      36.893836      36.893836    
    789000   0.32090472    -8.1075186     -7.6261683      1.2317882      50218.233      36.893836      36.893836      36.893836    
    790000   0.319542      -8.1056974     -7.6263913      1.2602122      50218.233      36.893836      36.893836      36.893836    
    791000   0.31817359    -8.1112256     -7.633972       1.2102253      50218.233      36.893836      36.893836      36.893836    
    792000   0.31884929    -8.1064814     -7.6282142      1.2508184      50218.233      36.893836      36.893836      36.893836    
    793000   0.32037585    -8.1057086     -7.6251517      1.2526936      50218.233      36.893836      36.893836      36.893836    
    794000   0.32014583    -8.1102633     -7.6300514      1.2209867      50218.233      36.893836      36.893836      36.893836    
    795000   0.32080778    -8.1079158     -7.626711       1.2480861      50218.233      36.893836      36.893836      36.893836    
    796000   0.32005003    -8.1074307     -7.6273624      1.2342932      50218.233      36.893836      36.893836      36.893836    
    797000   0.31917662    -8.1049259     -7.6261678      1.2604256      50218.233      36.893836      36.893836      36.893836    
    798000   0.32014452    -8.1105254     -7.6303155      1.2233498      50218.233      36.893836      36.893836      36.893836    
    799000   0.32108992    -8.1067323     -7.6251043      1.2474031      50218.233      36.893836      36.893836      36.893836    
    800000   0.31870879    -8.1084322     -7.6303758      1.233021       50218.233      36.893836      36.893836      36.893836    
    801000   0.31868537    -8.1074379     -7.6294167      1.2415139      50218.233      36.893836      36.893836      36.893836    
    802000   0.32039136    -8.1082512     -7.627671       1.2370157      50218.233      36.893836      36.893836      36.893836    
    803000   0.32078276    -8.1098609     -7.6286936      1.2291423      50218.233      36.893836      36.893836      36.893836    
    804000   0.32197943    -8.1099514     -7.6269891      1.2264498      50218.233      36.893836      36.893836      36.893836    
    805000   0.32058782    -8.107065      -7.6261901      1.2479041      50218.233      36.893836      36.893836      36.893836    
    806000   0.31981599    -8.1088527     -7.6291356      1.2383586      50218.233      36.893836      36.893836      36.893836    
    807000   0.31867087    -8.1062291     -7.6282296      1.2535788      50218.233      36.893836      36.893836      36.893836    
    808000   0.32051325    -8.1080735     -7.6273104      1.234006       50218.233      36.893836      36.893836      36.893836    
    809000   0.32020565    -8.1068404     -7.6265388      1.2505215      50218.233      36.893836      36.893836      36.893836    
    810000   0.31905953    -8.1047107     -7.6261283      1.256923       50218.233      36.893836      36.893836      36.893836    
    811000   0.32003511    -8.105391      -7.6253452      1.2504476      50218.233      36.893836      36.893836      36.893836    
    812000   0.31916111    -8.1097022     -7.6309673      1.227734       50218.233      36.893836      36.893836      36.893836    
    813000   0.3190555     -8.1083557     -7.6297793      1.2253508      50218.233      36.893836      36.893836      36.893836    
    814000   0.32077652    -8.105436      -7.6242781      1.2626452      50218.233      36.893836      36.893836      36.893836    
    815000   0.31987479    -8.1057303     -7.625925       1.2595754      50218.233      36.893836      36.893836      36.893836    
    816000   0.31971201    -8.105605      -7.6260438      1.251579       50218.233      36.893836      36.893836      36.893836    
    817000   0.31878011    -8.1037973     -7.6256339      1.2652424      50218.233      36.893836      36.893836      36.893836    
    818000   0.32081521    -8.1077628     -7.6265468      1.2407783      50218.233      36.893836      36.893836      36.893836    
    819000   0.32005089    -8.1074322     -7.6273627      1.2429963      50218.233      36.893836      36.893836      36.893836    
    820000   0.32002733    -8.1072174     -7.6271833      1.2450465      50218.233      36.893836      36.893836      36.893836    
    821000   0.32090489    -8.1058873     -7.6245368      1.2576862      50218.233      36.893836      36.893836      36.893836    
    822000   0.32051295    -8.1053669     -7.6246043      1.2602889      50218.233      36.893836      36.893836      36.893836    
    823000   0.31894144    -8.1061104     -7.6277051      1.2497821      50218.233      36.893836      36.893836      36.893836    
    824000   0.31994551    -8.1058078     -7.6258963      1.2672016      50218.233      36.893836      36.893836      36.893836    
    825000   0.32154158    -8.1076533     -7.6253478      1.243473       50218.233      36.893836      36.893836      36.893836    
    826000   0.3205786     -8.1027771     -7.621916       1.2725763      50218.233      36.893836      36.893836      36.893836    
    827000   0.32202122    -8.1088767     -7.6258517      1.2354698      50218.233      36.893836      36.893836      36.893836    
    828000   0.32096489    -8.1045987     -7.6231582      1.2629918      50218.233      36.893836      36.893836      36.893836    
    829000   0.32076033    -8.1043256     -7.6231919      1.2670841      50218.233      36.893836      36.893836      36.893836    
    830000   0.31926292    -8.1042789     -7.6253913      1.2676831      50218.233      36.893836      36.893836      36.893836    
    831000   0.32064247    -8.1044679     -7.6235111      1.2691388      50218.233      36.893836      36.893836      36.893836    
    832000   0.31991584    -8.1073872     -7.6275202      1.2411039      50218.233      36.893836      36.893836      36.893836    
    833000   0.31895876    -8.1072531     -7.6288218      1.2432319      50218.233      36.893836      36.893836      36.893836    
    834000   0.32034638    -8.106948      -7.6264353      1.2467237      50218.233      36.893836      36.893836      36.893836    
    835000   0.32027646    -8.1068472     -7.6264393      1.2442261      50218.233      36.893836      36.893836      36.893836    
    836000   0.31878714    -8.1067875     -7.6286136      1.2374939      50218.233      36.893836      36.893836      36.893836    
    837000   0.3195169     -8.1085328     -7.6292643      1.2286621      50218.233      36.893836      36.893836      36.893836    
    838000   0.31979741    -8.1070526     -7.6273633      1.2437098      50218.233      36.893836      36.893836      36.893836    
    839000   0.31939298    -8.1080097     -7.628927       1.2339913      50218.233      36.893836      36.893836      36.893836    
    840000   0.31986747    -8.1077282     -7.6279338      1.2351535      50218.233      36.893836      36.893836      36.893836    
    841000   0.31882292    -8.1066594     -7.6284319      1.244827       50218.233      36.893836      36.893836      36.893836    
    842000   0.32094723    -8.1067974     -7.6253834      1.244421       50218.233      36.893836      36.893836      36.893836    
    843000   0.32104216    -8.1090868     -7.6275304      1.2363423      50218.233      36.893836      36.893836      36.893836    
    844000   0.31946948    -8.1078937     -7.6286963      1.2355332      50218.233      36.893836      36.893836      36.893836    
    845000   0.31977485    -8.1068997     -7.6272443      1.2435109      50218.233      36.893836      36.893836      36.893836    
    846000   0.32140571    -8.1073298     -7.6252281      1.2478825      50218.233      36.893836      36.893836      36.893836    
    847000   0.32035616    -8.1050395     -7.6245121      1.2635074      50218.233      36.893836      36.893836      36.893836    
    848000   0.32039396    -8.1055033     -7.6249191      1.2555279      50218.233      36.893836      36.893836      36.893836    
    849000   0.32083207    -8.1075602     -7.6263189      1.2463122      50218.233      36.893836      36.893836      36.893836    
    850000   0.31864378    -8.1074209     -7.6294621      1.235864       50218.233      36.893836      36.893836      36.893836    
    851000   0.31983114    -8.1069853     -7.6272454      1.2410293      50218.233      36.893836      36.893836      36.893836    
    852000   0.31858593    -8.1069508     -7.6290787      1.2327749      50218.233      36.893836      36.893836      36.893836    
    853000   0.32067408    -8.107908      -7.6269038      1.2454014      50218.233      36.893836      36.893836      36.893836    
    854000   0.31880312    -8.1066212     -7.6284234      1.2520764      50218.233      36.893836      36.893836      36.893836    
    855000   0.31948857    -8.1074322     -7.6282061      1.2483903      50218.233      36.893836      36.893836      36.893836    
    856000   0.3190939     -8.1071427     -7.6285087      1.2442681      50218.233      36.893836      36.893836      36.893836    
    857000   0.32016018    -8.1060898     -7.6258564      1.252328       50218.233      36.893836      36.893836      36.893836    
    858000   0.31991971    -8.1090846     -7.6292119      1.233671       50218.233      36.893836      36.893836      36.893836    
    859000   0.32016686    -8.1069028     -7.6266593      1.2459697      50218.233      36.893836      36.893836      36.893836    
    860000   0.32043509    -8.1070542     -7.6264084      1.2405339      50218.233      36.893836      36.893836      36.893836    
    861000   0.31922088    -8.1075688     -7.6287443      1.2347202      50218.233      36.893836      36.893836      36.893836    
    862000   0.32051949    -8.1082099     -7.6274375      1.2371042      50218.233      36.893836      36.893836      36.893836    
    863000   0.32014612    -8.1070896     -7.6268773      1.242128       50218.233      36.893836      36.893836      36.893836    
    864000   0.32126777    -8.1077769     -7.6258821      1.2537845      50218.233      36.893836      36.893836      36.893836    
    865000   0.31989406    -8.1070178     -7.6271835      1.2468878      50218.233      36.893836      36.893836      36.893836    
    866000   0.32002606    -8.1083823     -7.6283501      1.2399962      50218.233      36.893836      36.893836      36.893836    
    867000   0.32018244    -8.1079383     -7.6276714      1.2362307      50218.233      36.893836      36.893836      36.893836    
    868000   0.31969236    -8.1076023     -7.6280706      1.2480839      50218.233      36.893836      36.893836      36.893836    
    869000   0.31966907    -8.1049273     -7.6254306      1.2574577      50218.233      36.893836      36.893836      36.893836    
    870000   0.32008135    -8.1066471     -7.6265319      1.2483197      50218.233      36.893836      36.893836      36.893836    
    871000   0.31962652    -8.1062419     -7.626809       1.2505227      50218.233      36.893836      36.893836      36.893836    
    872000   0.31895324    -8.1075975     -7.6291745      1.2401917      50218.233      36.893836      36.893836      36.893836    
    873000   0.31932144    -8.1050614     -7.626086       1.2485795      50218.233      36.893836      36.893836      36.893836    
    874000   0.32101412    -8.1046362     -7.6231218      1.2680891      50218.233      36.893836      36.893836      36.893836    
    875000   0.31929751    -8.1066092     -7.6276697      1.2400136      50218.233      36.893836      36.893836      36.893836    
    876000   0.32056663    -8.1069661     -7.626123       1.2520832      50218.233      36.893836      36.893836      36.893836    
    877000   0.32075921    -8.1081598     -7.6270279      1.235897       50218.233      36.893836      36.893836      36.893836    
    878000   0.32143653    -8.1076199     -7.625472       1.2432474      50218.233      36.893836      36.893836      36.893836    
    879000   0.32014173    -8.1046479     -7.6244422      1.2659591      50218.233      36.893836      36.893836      36.893836    
    880000   0.31952671    -8.1055467     -7.6262634      1.255728       50218.233      36.893836      36.893836      36.893836    
    881000   0.31810677    -8.1064109     -7.6292575      1.2427308      50218.233      36.893836      36.893836      36.893836    
    882000   0.319119      -8.1053626     -7.6266909      1.2576091      50218.233      36.893836      36.893836      36.893836    
    883000   0.31936327    -8.1060996     -7.6270615      1.2587127      50218.233      36.893836      36.893836      36.893836    
    884000   0.31904312    -8.1033236     -7.6247657      1.2709585      50218.233      36.893836      36.893836      36.893836    
    885000   0.31902042    -8.1052035     -7.6266797      1.2536506      50218.233      36.893836      36.893836      36.893836    
    886000   0.31962824    -8.1084745     -7.6290389      1.237287       50218.233      36.893836      36.893836      36.893836    
    887000   0.320591      -8.1071154     -7.6262357      1.2513235      50218.233      36.893836      36.893836      36.893836    
    888000   0.31889931    -8.1051739     -7.6268318      1.2539022      50218.233      36.893836      36.893836      36.893836    
    889000   0.32033714    -8.1060865     -7.6255877      1.254123       50218.233      36.893836      36.893836      36.893836    
    890000   0.3188481     -8.1098754     -7.63161        1.216579       50218.233      36.893836      36.893836      36.893836    
    891000   0.31901302    -8.1058517     -7.627339       1.2537096      50218.233      36.893836      36.893836      36.893836    
    892000   0.32034123    -8.1075327     -7.6270277      1.2421389      50218.233      36.893836      36.893836      36.893836    
    893000   0.31873765    -8.1038967     -7.625797       1.2649355      50218.233      36.893836      36.893836      36.893836    
    894000   0.31793001    -8.1075216     -7.6306334      1.2403193      50218.233      36.893836      36.893836      36.893836    
    895000   0.32037923    -8.1088026     -7.6282406      1.2312575      50218.233      36.893836      36.893836      36.893836    
    896000   0.31809544    -8.1066309     -7.6294946      1.2368051      50218.233      36.893836      36.893836      36.893836    
    897000   0.32136243    -8.1076751     -7.6256384      1.2494123      50218.233      36.893836      36.893836      36.893836    
    898000   0.31984175    -8.1085117     -7.6287559      1.230811       50218.233      36.893836      36.893836      36.893836    
    899000   0.32035156    -8.1051626     -7.6246421      1.262578       50218.233      36.893836      36.893836      36.893836    
    900000   0.31864756    -8.1076282     -7.6296636      1.2431194      50218.233      36.893836      36.893836      36.893836    
    901000   0.32115257    -8.1068291     -7.6251071      1.2459262      50218.233      36.893836      36.893836      36.893836    
    902000   0.32129694    -8.1054013     -7.6234628      1.2552027      50218.233      36.893836      36.893836      36.893836    
    903000   0.31869217    -8.1075488     -7.6295174      1.2376828      50218.233      36.893836      36.893836      36.893836    
    904000   0.32125186    -8.108219      -7.6263481      1.2354881      50218.233      36.893836      36.893836      36.893836    
    905000   0.32099272    -8.1063222     -7.6248399      1.2491565      50218.233      36.893836      36.893836      36.893836    
    906000   0.320076      -8.1087653     -7.6286581      1.233822       50218.233      36.893836      36.893836      36.893836    
    907000   0.31934413    -8.1096832     -7.6306739      1.2272423      50218.233      36.893836      36.893836      36.893836    
    908000   0.31983739    -8.1066598     -7.6269105      1.243646       50218.233      36.893836      36.893836      36.893836    
    909000   0.32022442    -8.1091874     -7.6288576      1.2214392      50218.233      36.893836      36.893836      36.893836    
    910000   0.32106173    -8.1076708     -7.626085       1.2314382      50218.233      36.893836      36.893836      36.893836    
    911000   0.31833827    -8.1072612     -7.6297606      1.2371825      50218.233      36.893836      36.893836      36.893836    
    912000   0.3204758     -8.1052476     -7.6245407      1.2587113      50218.233      36.893836      36.893836      36.893836    
    913000   0.32162332    -8.1091975     -7.6267694      1.2305287      50218.233      36.893836      36.893836      36.893836    
    914000   0.31972839    -8.1085217     -7.6289359      1.2356396      50218.233      36.893836      36.893836      36.893836    
    915000   0.31996441    -8.1047858     -7.624846       1.2621405      50218.233      36.893836      36.893836      36.893836    
    916000   0.31986121    -8.1038906     -7.6241056      1.2603945      50218.233      36.893836      36.893836      36.893836    
    917000   0.3185755     -8.1049647     -7.6271082      1.2521376      50218.233      36.893836      36.893836      36.893836    
    918000   0.32160708    -8.1063357     -7.6239319      1.2554259      50218.233      36.893836      36.893836      36.893836    
    919000   0.32036088    -8.107295      -7.6267605      1.2448277      50218.233      36.893836      36.893836      36.893836    
    920000   0.32094219    -8.1077047     -7.6262982      1.2359188      50218.233      36.893836      36.893836      36.893836    
    921000   0.31962679    -8.1042931     -7.6248598      1.2631133      50218.233      36.893836      36.893836      36.893836    
    922000   0.31961273    -8.1035103     -7.624098       1.2682217      50218.233      36.893836      36.893836      36.893836    
    923000   0.3195461     -8.1041687     -7.6248563      1.2707213      50218.233      36.893836      36.893836      36.893836    
    924000   0.32056336    -8.1034793     -7.6226411      1.2620989      50218.233      36.893836      36.893836      36.893836    
    925000   0.32115015    -8.1059963     -7.6242779      1.2546665      50218.233      36.893836      36.893836      36.893836    
    926000   0.32012293    -8.107295      -7.6271174      1.2360727      50218.233      36.893836      36.893836      36.893836    
    927000   0.31991227    -8.1042664     -7.6244048      1.2684605      50218.233      36.893836      36.893836      36.893836    
    928000   0.32090089    -8.1038832     -7.6225387      1.2612686      50218.233      36.893836      36.893836      36.893836    
    929000   0.31871101    -8.1042966     -7.6262369      1.2611022      50218.233      36.893836      36.893836      36.893836    
    930000   0.3204846     -8.1085341     -7.627814       1.2421757      50218.233      36.893836      36.893836      36.893836    
    931000   0.31749631    -8.1047336     -7.6284959      1.2611303      50218.233      36.893836      36.893836      36.893836    
    932000   0.3180862     -8.1065414     -7.6294189      1.2494217      50218.233      36.893836      36.893836      36.893836    
    933000   0.32119006    -8.1051321     -7.6233539      1.2546179      50218.233      36.893836      36.893836      36.893836    
    934000   0.31866135    -8.1088064     -7.6308212      1.2303109      50218.233      36.893836      36.893836      36.893836    
    935000   0.32056323    -8.1036049     -7.6227669      1.2715685      50218.233      36.893836      36.893836      36.893836    
    936000   0.32126413    -8.1050433     -7.623154       1.2600115      50218.233      36.893836      36.893836      36.893836    
    937000   0.32131544    -8.105351      -7.6233847      1.2604912      50218.233      36.893836      36.893836      36.893836    
    938000   0.32030815    -8.110332      -7.6298766      1.2200758      50218.233      36.893836      36.893836      36.893836    
    939000   0.31933356    -8.1073606     -7.6283671      1.2377401      50218.233      36.893836      36.893836      36.893836    
    940000   0.31939644    -8.1070198     -7.627932       1.2496529      50218.233      36.893836      36.893836      36.893836    
    941000   0.31887815    -8.1065142     -7.6282038      1.2491035      50218.233      36.893836      36.893836      36.893836    
    942000   0.32015495    -8.1055959     -7.6253703      1.2559315      50218.233      36.893836      36.893836      36.893836    
    943000   0.31966055    -8.1113133     -7.6318293      1.2154974      50218.233      36.893836      36.893836      36.893836    
    944000   0.3205037     -8.1068946     -7.6261459      1.2510007      50218.233      36.893836      36.893836      36.893836    
    945000   0.31905493    -8.1086096     -7.630034       1.2297774      50218.233      36.893836      36.893836      36.893836    
    946000   0.32033449    -8.1096698     -7.6291749      1.2230809      50218.233      36.893836      36.893836      36.893836    
    947000   0.32055112    -8.1056108     -7.624791       1.2581949      50218.233      36.893836      36.893836      36.893836    
    948000   0.32001528    -8.1089125     -7.6288964      1.2290639      50218.233      36.893836      36.893836      36.893836    
    949000   0.31903308    -8.1075849     -7.6290421      1.2422438      50218.233      36.893836      36.893836      36.893836    
    950000   0.3208122     -8.1029185     -7.621707       1.2685022      50218.233      36.893836      36.893836      36.893836    
    951000   0.32032402    -8.1077385     -7.6272593      1.2394809      50218.233      36.893836      36.893836      36.893836    
    952000   0.32069326    -8.1088099     -7.6277768      1.2329062      50218.233      36.893836      36.893836      36.893836    
    953000   0.31969406    -8.1065962     -7.6270619      1.2427187      50218.233      36.893836      36.893836      36.893836    
    954000   0.31803009    -8.1059353     -7.6288969      1.2453546      50218.233      36.893836      36.893836      36.893836    
    955000   0.31911452    -8.1055052     -7.6268403      1.2574917      50218.233      36.893836      36.893836      36.893836    
    956000   0.32116542    -8.1084378     -7.6266965      1.2381173      50218.233      36.893836      36.893836      36.893836    
    957000   0.32028625    -8.1074152     -7.6269927      1.2445622      50218.233      36.893836      36.893836      36.893836    
    958000   0.32058303    -8.1064694     -7.6256017      1.2443242      50218.233      36.893836      36.893836      36.893836    
    959000   0.31995094    -8.1093762     -7.6294566      1.2236665      50218.233      36.893836      36.893836      36.893836    
    960000   0.31968719    -8.1072355     -7.6277115      1.2403414      50218.233      36.893836      36.893836      36.893836    
    961000   0.32030724    -8.1067932     -7.6263391      1.2377896      50218.233      36.893836      36.893836      36.893836    
    962000   0.32056839    -8.1061439     -7.6252982      1.2425627      50218.233      36.893836      36.893836      36.893836    
    963000   0.31958369    -8.1060242     -7.6266555      1.2444617      50218.233      36.893836      36.893836      36.893836    
    964000   0.32105815    -8.1058762     -7.6242958      1.2579087      50218.233      36.893836      36.893836      36.893836    
    965000   0.32020915    -8.1100676     -7.6297607      1.2203862      50218.233      36.893836      36.893836      36.893836    
    966000   0.3218385     -8.1073276     -7.6245767      1.2319934      50218.233      36.893836      36.893836      36.893836    
    967000   0.32000441    -8.1057606     -7.6257608      1.2575984      50218.233      36.893836      36.893836      36.893836    
    968000   0.31942039    -8.1045203     -7.6253965      1.2563272      50218.233      36.893836      36.893836      36.893836    
    969000   0.31790283    -8.1063464     -7.629499       1.2484353      50218.233      36.893836      36.893836      36.893836    
    970000   0.32108586    -8.1073109     -7.625689       1.2477184      50218.233      36.893836      36.893836      36.893836    
    971000   0.32118936    -8.1088508     -7.6270736      1.2328707      50218.233      36.893836      36.893836      36.893836    
    972000   0.32074784    -8.1076861     -7.6265712      1.2330378      50218.233      36.893836      36.893836      36.893836    
    973000   0.31987401    -8.105933      -7.6261288      1.2564777      50218.233      36.893836      36.893836      36.893836    
    974000   0.3190667     -8.1056981     -7.6271049      1.2487953      50218.233      36.893836      36.893836      36.893836    
    975000   0.31849609    -8.1066447     -7.6289074      1.2361554      50218.233      36.893836      36.893836      36.893836    
    976000   0.32036541    -8.1052966     -7.6247553      1.2568732      50218.233      36.893836      36.893836      36.893836    
    977000   0.3201962     -8.104669      -7.6243815      1.2631649      50218.233      36.893836      36.893836      36.893836    
    978000   0.32036588    -8.107424      -7.626882       1.2330503      50218.233      36.893836      36.893836      36.893836    
    979000   0.32107013    -8.1039776     -7.6223793      1.2678211      50218.233      36.893836      36.893836      36.893836    
    980000   0.31905343    -8.1056122     -7.6270388      1.2564965      50218.233      36.893836      36.893836      36.893836    
    981000   0.32074426    -8.1052273     -7.6241178      1.2639434      50218.233      36.893836      36.893836      36.893836    
    982000   0.31957962    -8.1059547     -7.6265921      1.2541083      50218.233      36.893836      36.893836      36.893836    
    983000   0.32055803    -8.1090056     -7.6281754      1.2391186      50218.233      36.893836      36.893836      36.893836    
    984000   0.31959295    -8.1061977     -7.6268151      1.2470609      50218.233      36.893836      36.893836      36.893836    
    985000   0.31901531    -8.1064701     -7.6279539      1.2417067      50218.233      36.893836      36.893836      36.893836    
    986000   0.3209106     -8.1076537     -7.6262947      1.2476539      50218.233      36.893836      36.893836      36.893836    
    987000   0.32268678    -8.1078654     -7.6238421      1.2448168      50218.233      36.893836      36.893836      36.893836    
    988000   0.31908631    -8.1043409     -7.6257182      1.2579932      50218.233      36.893836      36.893836      36.893836    
    989000   0.32125909    -8.1058816     -7.6239998      1.2646472      50218.233      36.893836      36.893836      36.893836    
    990000   0.31968315    -8.1076401     -7.6281222      1.2461125      50218.233      36.893836      36.893836      36.893836    
    991000   0.32229552    -8.1082616     -7.6248252      1.2400025      50218.233      36.893836      36.893836      36.893836    
    992000   0.32056938    -8.1074274     -7.6265802      1.2419473      50218.233      36.893836      36.893836      36.893836    
    993000   0.31953501    -8.108891      -7.6295953      1.2338779      50218.233      36.893836      36.893836      36.893836    
    994000   0.32030631    -8.1076896     -7.627237       1.2337782      50218.233      36.893836      36.893836      36.893836    
    995000   0.32107374    -8.1108189     -7.6292151      1.2144372      50218.233      36.893836      36.893836      36.893836    
    996000   0.31945405    -8.1069839     -7.6278097      1.2384383      50218.233      36.893836      36.893836      36.893836    
    997000   0.32233661    -8.1081409     -7.6246429      1.228004       50218.233      36.893836      36.893836      36.893836    
    998000   0.32008087    -8.1056543     -7.6255399      1.2562172      50218.233      36.893836      36.893836      36.893836    
    999000   0.31901852    -8.1074495     -7.6289285      1.2427885      50218.233      36.893836      36.893836      36.893836    
   1000000   0.32070731    -8.1068706     -7.6258164      1.2494879      50218.233      36.893836      36.893836      36.893836    
Loop time of 1549.2 on 4 procs for 1000000 steps with 70304 atoms

Performance: 557706.389 tau/day, 645.494 timesteps/s, 45.381 Matom-step/s
95.4% CPU use with 4 MPI tasks x 1 OpenMP threads

MPI task timing breakdown:
Section |  min time  |  avg time  |  max time  |%varavg| %total
---------------------------------------------------------------
Pair    | 428.55     | 539.29     | 644.05     | 345.8 | 34.81
Neigh   | 5.2576     | 5.6777     | 5.905      |  10.4 |  0.37
Comm    | 221.14     | 223.42     | 226.11     |  14.8 | 14.42
Output  | 0.19883    | 0.20519    | 0.21635    |   1.5 |  0.01
Modify  | 593.42     | 695.78     | 803.91     | 298.5 | 44.91
Other   |            | 84.83      |            |       |  5.48

Nlocal:          17576 ave       17633 max       17533 min
Histogram: 1 0 0 2 0 0 0 0 0 1
Nghost:        16802.2 ave       16845 max       16773 min
Histogram: 2 0 0 0 0 1 0 0 0 1
Neighs:              0 ave           0 max           0 min
Histogram: 4 0 0 0 0 0 0 0 0 0

Total # of neighbors = 0
Ave neighs/atom = 0
Neighbor list builds = 168613
Dangerous builds = 0
clear
OMP_NUM_THREADS environment is not set. Defaulting to 1 thread. (src/comm.cpp:98)
  using 1 OpenMP thread(s) per MPI task
package gpu 0
jump dms300.lmp

variable T equal 300
# T = 1000* (temp in LJ unit)
variable f equal 1000
log log.${T}
log log.300
