variable TLJ equal (${T}/1000)
variable TLJ equal (640/1000)
variable NCyle equal 10
variable iStep equal (${f})
variable iStep equal (1000)
variable dumpStep equal (${f}*100)
variable dumpStep equal (1000*100)
variable runStep equal (${f}*100*${NCyle})
variable runStep equal (1000*100*${NCyle})
variable runStep equal (1000*100*10)

units       lj
atom_style  atomic
dimension 3
boundary     p p p
pair_style  lj/cut 2.5
read_data  ../data/T${T}.dat
read_data  ../data/T640.dat
Reading data file ...
  orthogonal box = (0.97250269 0.97250269 0.97250269) to (37.866338 37.866338 37.866338)
  1 by 1 by 5 MPI processor grid
  reading atoms ...
  70304 atoms
  reading velocities ...
  70304 velocities
  read_data CPU = 0.211 seconds
change_box all triclinic
Changing box ...
  triclinic box = (0.97250269 0.97250269 0.97250269) to (37.866338 37.866338 37.866338) with tilt (0 0 0)
mass 1 1
mass 2 1
pair_modify shift yes
pair_coeff  1 1 1 1
pair_coeff  1 2 1.5 0.8
pair_coeff  2 2 0.5 0.88


timestep 0.01
thermo ${iStep}
thermo 1000
reset_timestep 0
thermo_style custom step temp pe etotal press vol lx ly lz
fix             1 all nvt temp ${TLJ}  ${TLJ}  0.1
fix             1 all nvt temp 0.64  ${TLJ}  0.1
fix             1 all nvt temp 0.64  0.64  0.1
thermo_modify flush yes

fix dsf all deform 1 xy  wiggle 0.5  ${f}   units box
fix dsf all deform 1 xy  wiggle 0.5  1000   units box
fix ps1 all ave/time 1 1 ${iStep} c_thermo_press[1] c_thermo_press[2]  c_thermo_press[3] c_thermo_press[4]  c_thermo_press[5] c_thermo_press[6]  file  stress.${T}
fix ps1 all ave/time 1 1 1000 c_thermo_press[1] c_thermo_press[2]  c_thermo_press[3] c_thermo_press[4]  c_thermo_press[5] c_thermo_press[6]  file  stress.${T}
fix ps1 all ave/time 1 1 1000 c_thermo_press[1] c_thermo_press[2]  c_thermo_press[3] c_thermo_press[4]  c_thermo_press[5] c_thermo_press[6]  file  stress.640
dump            1 all custom ${dumpStep} dump.${T} id type x y z
dump            1 all custom 100000 dump.${T} id type x y z
dump            1 all custom 100000 dump.640 id type x y z
dump_modify 1 sort id
fix nodrift all momentum 1  linear 1 1 1
fix com_seed all recenter INIT INIT INIT shift all
run ${runStep}
run 1000000
Generated 0 of 1 mixed pair_coeff terms from geometric mixing rule
Per MPI rank memory allocation (min/avg/max) = 6.668 | 8.472 | 8.926 Mbytes
   Step          Temp          PotEng         TotEng         Press          Volume           Lx             Ly             Lz      
         0   0.64158218    -7.5263189     -6.5639593      5.975107       50218.233      36.893836      36.893836      36.893836    
      1000   0.63932122    -7.5159883     -6.5570201      6.0451536      50218.233      36.893836      36.893836      36.893836    
      2000   0.64029687    -7.5104946     -6.5500629      6.0937338      50218.233      36.893836      36.893836      36.893836    
      3000   0.63961038    -7.507317      -6.5479151      6.0977425      50218.233      36.893836      36.893836      36.893836    
      4000   0.63856543    -7.5173533     -6.5595188      6.0244977      50218.233      36.893836      36.893836      36.893836    
      5000   0.64071142    -7.5116025     -6.5505491      6.0864631      50218.233      36.893836      36.893836      36.893836    
      6000   0.63933825    -7.5148663     -6.5558725      6.0504169      50218.233      36.893836      36.893836      36.893836    
      7000   0.64183648    -7.5143014     -6.5515604      6.0690572      50218.233      36.893836      36.893836      36.893836    
      8000   0.6434624     -7.5123565     -6.5471767      6.092031       50218.233      36.893836      36.893836      36.893836    
      9000   0.63773551    -7.5118573     -6.5552677      6.072017       50218.233      36.893836      36.893836      36.893836    
     10000   0.63732372    -7.511107      -6.555135       6.0805405      50218.233      36.893836      36.893836      36.893836    
     11000   0.640194      -7.5093255     -6.5490481      6.0851366      50218.233      36.893836      36.893836      36.893836    
     12000   0.64459311    -7.5152638     -6.5483878      6.0533969      50218.233      36.893836      36.893836      36.893836    
     13000   0.64185884    -7.5079515     -6.5451769      6.1129518      50218.233      36.893836      36.893836      36.893836    
     14000   0.64112127    -7.5105232     -6.5488549      6.0849976      50218.233      36.893836      36.893836      36.893836    
     15000   0.63916564    -7.5114022     -6.5526674      6.0829214      50218.233      36.893836      36.893836      36.893836    
     16000   0.63798241    -7.508179      -6.551219       6.1068061      50218.233      36.893836      36.893836      36.893836    
     17000   0.64085234    -7.5118072     -6.5505424      6.0837395      50218.233      36.893836      36.893836      36.893836    
     18000   0.6384511     -7.5095889     -6.5519259      6.1010703      50218.233      36.893836      36.893836      36.893836    
     19000   0.6403778     -7.5103839     -6.5498309      6.1003583      50218.233      36.893836      36.893836      36.893836    
     20000   0.63927808    -7.5103734     -6.5514699      6.08332        50218.233      36.893836      36.893836      36.893836    
     21000   0.64308481    -7.5045758     -6.5399623      6.1490053      50218.233      36.893836      36.893836      36.893836    
     22000   0.64167389    -7.5131719     -6.5506748      6.0745515      50218.233      36.893836      36.893836      36.893836    
     23000   0.64101642    -7.5093235     -6.5478126      6.1033205      50218.233      36.893836      36.893836      36.893836    
     24000   0.64022023    -7.5093375     -6.5490208      6.1127553      50218.233      36.893836      36.893836      36.893836    
     25000   0.63712645    -7.5181005     -6.5624245      6.0220979      50218.233      36.893836      36.893836      36.893836    
     26000   0.63831625    -7.5153172     -6.5578564      6.0578618      50218.233      36.893836      36.893836      36.893836    
     27000   0.63956939    -7.511482      -6.5521415      6.095183       50218.233      36.893836      36.893836      36.893836    
     28000   0.636935      -7.5140418     -6.5586529      6.0498969      50218.233      36.893836      36.893836      36.893836    
     29000   0.63773522    -7.5130262     -6.556437       6.0645574      50218.233      36.893836      36.893836      36.893836    
     30000   0.64021055    -7.5113928     -6.5510906      6.0851322      50218.233      36.893836      36.893836      36.893836    
     31000   0.64111287    -7.5159418     -6.5542862      6.0616558      50218.233      36.893836      36.893836      36.893836    
     32000   0.63821185    -7.5122599     -6.5549557      6.0832644      50218.233      36.893836      36.893836      36.893836    
     33000   0.6407462     -7.5145811     -6.5534755      6.0635779      50218.233      36.893836      36.893836      36.893836    
     34000   0.6414713     -7.5111243     -6.548931       6.088496       50218.233      36.893836      36.893836      36.893836    
     35000   0.63535567    -7.5106659     -6.5576459      6.0882245      50218.233      36.893836      36.893836      36.893836    
     36000   0.63953095    -7.510142      -6.5508592      6.0947801      50218.233      36.893836      36.893836      36.893836    
     37000   0.64143623    -7.5042808     -6.5421402      6.1370455      50218.233      36.893836      36.893836      36.893836    
     38000   0.63779452    -7.5090424     -6.5523642      6.0984065      50218.233      36.893836      36.893836      36.893836    
     39000   0.6398351     -7.503985      -6.544246       6.1262135      50218.233      36.893836      36.893836      36.893836    
     40000   0.63809974    -7.5067        -6.549564       6.110236       50218.233      36.893836      36.893836      36.893836    
     41000   0.63737562    -7.5110276     -6.5549777      6.0824138      50218.233      36.893836      36.893836      36.893836    
     42000   0.64001502    -7.5067358     -6.5467269      6.1163329      50218.233      36.893836      36.893836      36.893836    
     43000   0.64197579    -7.5108995     -6.5479495      6.0930899      50218.233      36.893836      36.893836      36.893836    
     44000   0.63930353    -7.5124996     -6.5535579      6.0860911      50218.233      36.893836      36.893836      36.893836    
     45000   0.63807937    -7.5048819     -6.5477764      6.1329601      50218.233      36.893836      36.893836      36.893836    
     46000   0.63857095    -7.5126152     -6.5547724      6.0803868      50218.233      36.893836      36.893836      36.893836    
     47000   0.63943764    -7.5099953     -6.5508524      6.093444       50218.233      36.893836      36.893836      36.893836    
     48000   0.64494444    -7.511391      -6.5439881      6.0850866      50218.233      36.893836      36.893836      36.893836    
     49000   0.64180042    -7.5129641     -6.5502771      6.0724921      50218.233      36.893836      36.893836      36.893836    
     50000   0.64179486    -7.5148059     -6.5521273      6.0626932      50218.233      36.893836      36.893836      36.893836    
     51000   0.63777003    -7.5154478     -6.5588064      6.0460269      50218.233      36.893836      36.893836      36.893836    
     52000   0.63755189    -7.5094325     -6.5531183      6.1018425      50218.233      36.893836      36.893836      36.893836    
     53000   0.64076819    -7.5069798     -6.5458412      6.1251303      50218.233      36.893836      36.893836      36.893836    
     54000   0.64099024    -7.5117403     -6.5502686      6.0825564      50218.233      36.893836      36.893836      36.893836    
     55000   0.64311066    -7.5126834     -6.5480312      6.0754745      50218.233      36.893836      36.893836      36.893836    
     56000   0.6399011     -7.511358      -6.55152        6.0870338      50218.233      36.893836      36.893836      36.893836    
     57000   0.64011244    -7.5094077     -6.5492527      6.1028957      50218.233      36.893836      36.893836      36.893836    
     58000   0.63784278    -7.5137834     -6.5570328      6.0572882      50218.233      36.893836      36.893836      36.893836    
     59000   0.63770128    -7.5174034     -6.5608651      6.0372622      50218.233      36.893836      36.893836      36.893836    
     60000   0.64179163    -7.5154074     -6.5527337      6.0610462      50218.233      36.893836      36.893836      36.893836    
     61000   0.63583429    -7.5153012     -6.5615633      6.0625939      50218.233      36.893836      36.893836      36.893836    
     62000   0.63954414    -7.5107397     -6.5514371      6.0735511      50218.233      36.893836      36.893836      36.893836    
     63000   0.63949517    -7.5181594     -6.5589303      6.0377432      50218.233      36.893836      36.893836      36.893836    
     64000   0.63802392    -7.5099097     -6.5528875      6.1035494      50218.233      36.893836      36.893836      36.893836    
     65000   0.64287515    -7.5114275     -6.5471285      6.0863826      50218.233      36.893836      36.893836      36.893836    
     66000   0.63960575    -7.5123689     -6.5529739      6.0921936      50218.233      36.893836      36.893836      36.893836    
     67000   0.6384141     -7.514255      -6.5566474      6.0659688      50218.233      36.893836      36.893836      36.893836    
     68000   0.64192643    -7.5110147     -6.5481388      6.0987343      50218.233      36.893836      36.893836      36.893836    
     69000   0.63890368    -7.5107139     -6.5523721      6.0856976      50218.233      36.893836      36.893836      36.893836    
     70000   0.63983106    -7.51131       -6.551577       6.0796078      50218.233      36.893836      36.893836      36.893836    
     71000   0.64336106    -7.5086151     -6.5435872      6.1107959      50218.233      36.893836      36.893836      36.893836    
     72000   0.64100244    -7.5142863     -6.5527963      6.081339       50218.233      36.893836      36.893836      36.893836    
     73000   0.64211172    -7.5086893     -6.5455354      6.0976237      50218.233      36.893836      36.893836      36.893836    
     74000   0.64064535    -7.5105058     -6.5495515      6.0848193      50218.233      36.893836      36.893836      36.893836    
     75000   0.64117833    -7.5134808     -6.551727       6.0711246      50218.233      36.893836      36.893836      36.893836    
     76000   0.64090689    -7.5110808     -6.5497341      6.0777469      50218.233      36.893836      36.893836      36.893836    
     77000   0.63948051    -7.51354       -6.5543329      6.066449       50218.233      36.893836      36.893836      36.893836    
     78000   0.64483128    -7.510897      -6.5436639      6.0892581      50218.233      36.893836      36.893836      36.893836    
     79000   0.64244503    -7.5124328     -6.548779       6.0785335      50218.233      36.893836      36.893836      36.893836    
     80000   0.64143668    -7.5172406     -6.5550993      6.0413909      50218.233      36.893836      36.893836      36.893836    
     81000   0.63403525    -7.5112347     -6.5601954      6.0657694      50218.233      36.893836      36.893836      36.893836    
     82000   0.64093106    -7.5123749     -6.550992       6.0729351      50218.233      36.893836      36.893836      36.893836    
     83000   0.63664625    -7.5142168     -6.5592611      6.0604803      50218.233      36.893836      36.893836      36.893836    
     84000   0.64148588    -7.5186614     -6.5564462      6.0353072      50218.233      36.893836      36.893836      36.893836    
     85000   0.64209824    -7.5123225     -6.5491889      6.0815116      50218.233      36.893836      36.893836      36.893836    
     86000   0.63675043    -7.5153951     -6.560283       6.0517683      50218.233      36.893836      36.893836      36.893836    
     87000   0.64321066    -7.509335      -6.5445327      6.0907998      50218.233      36.893836      36.893836      36.893836    
     88000   0.638434      -7.5129432     -6.5553058      6.0662421      50218.233      36.893836      36.893836      36.893836    
     89000   0.64230865    -7.5156876     -6.5522383      6.0467651      50218.233      36.893836      36.893836      36.893836    
     90000   0.64068653    -7.5122087     -6.5511926      6.0868604      50218.233      36.893836      36.893836      36.893836    
     91000   0.64110029    -7.5107741     -6.5491374      6.0855345      50218.233      36.893836      36.893836      36.893836    
     92000   0.63717778    -7.5144061     -6.558653       6.0728733      50218.233      36.893836      36.893836      36.893836    
     93000   0.63869125    -7.512354      -6.5543307      6.0800459      50218.233      36.893836      36.893836      36.893836    
     94000   0.64474444    -7.5138671     -6.5467642      6.0778754      50218.233      36.893836      36.893836      36.893836    
     95000   0.63834489    -7.5181058     -6.5606021      6.0332726      50218.233      36.893836      36.893836      36.893836    
     96000   0.63997568    -7.512706      -6.5527561      6.0745579      50218.233      36.893836      36.893836      36.893836    
     97000   0.64087408    -7.5145191     -6.5532216      6.0588739      50218.233      36.893836      36.893836      36.893836    
     98000   0.63877041    -7.5109598     -6.5528178      6.0937468      50218.233      36.893836      36.893836      36.893836    
     99000   0.64020286    -7.5060198     -6.5457292      6.1299239      50218.233      36.893836      36.893836      36.893836    
    100000   0.6392379     -7.5046985     -6.5458553      6.1364102      50218.233      36.893836      36.893836      36.893836    
    101000   0.63816116    -7.5123833     -6.5551552      6.0895306      50218.233      36.893836      36.893836      36.893836    
    102000   0.6385252     -7.5110494     -6.5532752      6.0787153      50218.233      36.893836      36.893836      36.893836    
    103000   0.64213108    -7.5122993     -6.5491164      6.0822924      50218.233      36.893836      36.893836      36.893836    
    104000   0.64139392    -7.5121705     -6.5500933      6.0867438      50218.233      36.893836      36.893836      36.893836    
    105000   0.64042059    -7.5106452     -6.550028       6.0913653      50218.233      36.893836      36.893836      36.893836    
    106000   0.64400974    -7.5112529     -6.5452521      6.0909795      50218.233      36.893836      36.893836      36.893836    
    107000   0.63789514    -7.5148246     -6.5579955      6.0548557      50218.233      36.893836      36.893836      36.893836    
    108000   0.64099552    -7.5073965     -6.5459169      6.115588       50218.233      36.893836      36.893836      36.893836    
    109000   0.64229825    -7.51747       -6.5540363      6.0480189      50218.233      36.893836      36.893836      36.893836    
    110000   0.63846446    -7.5168006     -6.5591175      6.0486169      50218.233      36.893836      36.893836      36.893836    
    111000   0.63993151    -7.5119646     -6.552081       6.0870719      50218.233      36.893836      36.893836      36.893836    
    112000   0.64104317    -7.5121801     -6.550629       6.0687156      50218.233      36.893836      36.893836      36.893836    
    113000   0.63816345    -7.5140533     -6.5568218      6.0679139      50218.233      36.893836      36.893836      36.893836    
    114000   0.63800976    -7.5134664     -6.5564653      6.0693831      50218.233      36.893836      36.893836      36.893836    
    115000   0.64061539    -7.5114457     -6.5505363      6.0855677      50218.233      36.893836      36.893836      36.893836    
    116000   0.64363126    -7.5125577     -6.5471245      6.0934445      50218.233      36.893836      36.893836      36.893836    
    117000   0.64010706    -7.512864      -6.552717       6.0659885      50218.233      36.893836      36.893836      36.893836    
    118000   0.64501699    -7.5094423     -6.5419305      6.1019541      50218.233      36.893836      36.893836      36.893836    
    119000   0.64011179    -7.5135276     -6.5533735      6.0639583      50218.233      36.893836      36.893836      36.893836    
    120000   0.64067657    -7.5160676     -6.5550664      6.0554366      50218.233      36.893836      36.893836      36.893836    
    121000   0.64035631    -7.5164968     -6.555976       6.0428315      50218.233      36.893836      36.893836      36.893836    
    122000   0.63839835    -7.5133229     -6.555739       6.0710394      50218.233      36.893836      36.893836      36.893836    
    123000   0.63695799    -7.5149918     -6.5595684      6.0530205      50218.233      36.893836      36.893836      36.893836    
    124000   0.64003513    -7.5096137     -6.5495746      6.0991169      50218.233      36.893836      36.893836      36.893836    
    125000   0.6405553     -7.5149581     -6.5541388      6.0634686      50218.233      36.893836      36.893836      36.893836    
    126000   0.64037605    -7.5086338     -6.5480834      6.1007312      50218.233      36.893836      36.893836      36.893836    
    127000   0.64114696    -7.5137917     -6.552085       6.0771848      50218.233      36.893836      36.893836      36.893836    
    128000   0.64124385    -7.5101208     -6.5482687      6.0880612      50218.233      36.893836      36.893836      36.893836    
    129000   0.63933516    -7.5119543     -6.5529652      6.0824825      50218.233      36.893836      36.893836      36.893836    
    130000   0.64178688    -7.513445      -6.5507784      6.080894       50218.233      36.893836      36.893836      36.893836    
    131000   0.64069159    -7.5126541     -6.5516304      6.0678235      50218.233      36.893836      36.893836      36.893836    
    132000   0.64150673    -7.512537      -6.5502906      6.0762349      50218.233      36.893836      36.893836      36.893836    
    133000   0.64314807    -7.5192243     -6.5545159      6.0306614      50218.233      36.893836      36.893836      36.893836    
    134000   0.63682232    -7.5120131     -6.5567932      6.0906075      50218.233      36.893836      36.893836      36.893836    
    135000   0.63994846    -7.5167809     -6.5568719      6.0480513      50218.233      36.893836      36.893836      36.893836    
    136000   0.63916269    -7.5120962     -6.5533658      6.0824489      50218.233      36.893836      36.893836      36.893836    
    137000   0.64049417    -7.510934      -6.5502064      6.0893828      50218.233      36.893836      36.893836      36.893836    
    138000   0.6417091     -7.5132739     -6.550724       6.0745272      50218.233      36.893836      36.893836      36.893836    
    139000   0.63962058    -7.5083728     -6.5489556      6.1047323      50218.233      36.893836      36.893836      36.893836    
    140000   0.64378802    -7.5179288     -6.5522605      6.0346936      50218.233      36.893836      36.893836      36.893836    
    141000   0.64348798    -7.5104658     -6.5452476      6.1007451      50218.233      36.893836      36.893836      36.893836    
    142000   0.63913189    -7.5057871     -6.5471029      6.1230961      50218.233      36.893836      36.893836      36.893836    
    143000   0.64040393    -7.5126621     -6.5520699      6.0758089      50218.233      36.893836      36.893836      36.893836    
    144000   0.64108354    -7.5132644     -6.5516528      6.0650538      50218.233      36.893836      36.893836      36.893836    
    145000   0.64014037    -7.5104969     -6.5503         6.0942584      50218.233      36.893836      36.893836      36.893836    
    146000   0.63955791    -7.5091267     -6.5498035      6.0908999      50218.233      36.893836      36.893836      36.893836    
    147000   0.64229338    -7.5118858     -6.5484594      6.0690508      50218.233      36.893836      36.893836      36.893836    
    148000   0.6377526     -7.5143839     -6.5577686      6.0683414      50218.233      36.893836      36.893836      36.893836    
    149000   0.63891569    -7.5138372     -6.5554773      6.0644092      50218.233      36.893836      36.893836      36.893836    
    150000   0.64334612    -7.5115347     -6.5465292      6.0960759      50218.233      36.893836      36.893836      36.893836    
    151000   0.64045267    -7.5072452     -6.5465799      6.1104997      50218.233      36.893836      36.893836      36.893836    
    152000   0.64378892    -7.5115133     -6.5458437      6.0998807      50218.233      36.893836      36.893836      36.893836    
    153000   0.64131988    -7.5087382     -6.5467721      6.0968379      50218.233      36.893836      36.893836      36.893836    
    154000   0.64033815    -7.5160624     -6.5555689      6.047423       50218.233      36.893836      36.893836      36.893836    
    155000   0.64114355    -7.5112454     -6.5495437      6.0800015      50218.233      36.893836      36.893836      36.893836    
    156000   0.6382805     -7.514693      -6.5572859      6.059795       50218.233      36.893836      36.893836      36.893836    
    157000   0.6380206     -7.5160354     -6.5590181      6.0549756      50218.233      36.893836      36.893836      36.893836    
    158000   0.6389472     -7.5143846     -6.5559774      6.0542607      50218.233      36.893836      36.893836      36.893836    
    159000   0.63865534    -7.5219512     -6.5639818      6.0001945      50218.233      36.893836      36.893836      36.893836    
    160000   0.64109849    -7.5149072     -6.5532731      6.0656647      50218.233      36.893836      36.893836      36.893836    
    161000   0.64093084    -7.5105443     -6.5491617      6.0851121      50218.233      36.893836      36.893836      36.893836    
    162000   0.64072513    -7.5142862     -6.5532122      6.0663052      50218.233      36.893836      36.893836      36.893836    
    163000   0.64172586    -7.5045848     -6.5420097      6.142577       50218.233      36.893836      36.893836      36.893836    
    164000   0.63932091    -7.5107259     -6.5517582      6.0912767      50218.233      36.893836      36.893836      36.893836    
    165000   0.64133813    -7.5138673     -6.5518738      6.0579043      50218.233      36.893836      36.893836      36.893836    
    166000   0.63930898    -7.511792      -6.5528422      6.0938724      50218.233      36.893836      36.893836      36.893836    
    167000   0.64002753    -7.5109653     -6.5509376      6.1014081      50218.233      36.893836      36.893836      36.893836    
    168000   0.637357      -7.5079374     -6.5519155      6.1292967      50218.233      36.893836      36.893836      36.893836    
    169000   0.64173039    -7.513528      -6.5509461      6.077134       50218.233      36.893836      36.893836      36.893836    
    170000   0.63512881    -7.517365      -6.5646853      6.0386734      50218.233      36.893836      36.893836      36.893836    
    171000   0.63727112    -7.5133279     -6.5574348      6.0744313      50218.233      36.893836      36.893836      36.893836    
    172000   0.6425235     -7.5174059     -6.5536343      6.0476069      50218.233      36.893836      36.893836      36.893836    
    173000   0.63811841    -7.5153602     -6.5581962      6.0637151      50218.233      36.893836      36.893836      36.893836    
    174000   0.64015611    -7.5153009     -6.5550804      6.0678884      50218.233      36.893836      36.893836      36.893836    
    175000   0.64104511    -7.515733      -6.5541791      6.0541565      50218.233      36.893836      36.893836      36.893836    
    176000   0.64022833    -7.5151132     -6.5547844      6.0487436      50218.233      36.893836      36.893836      36.893836    
    177000   0.642636      -7.5181783     -6.554238       6.0334692      50218.233      36.893836      36.893836      36.893836    
    178000   0.64227748    -7.5137391     -6.5503365      6.0678884      50218.233      36.893836      36.893836      36.893836    
    179000   0.63469118    -7.5082199     -6.5561967      6.0974944      50218.233      36.893836      36.893836      36.893836    
    180000   0.63893338    -7.5131992     -6.5548128      6.074831       50218.233      36.893836      36.893836      36.893836    
    181000   0.63990582    -7.5133545     -6.5535095      6.0770233      50218.233      36.893836      36.893836      36.893836    
    182000   0.63927273    -7.5145603     -6.5556649      6.0575313      50218.233      36.893836      36.893836      36.893836    
    183000   0.63904105    -7.5142324     -6.5556845      6.0609401      50218.233      36.893836      36.893836      36.893836    
    184000   0.63655038    -7.5177906     -6.5629787      6.0417715      50218.233      36.893836      36.893836      36.893836    
    185000   0.63929118    -7.5131481     -6.554225       6.0776132      50218.233      36.893836      36.893836      36.893836    
    186000   0.6440473     -7.5117626     -6.5457054      6.0920769      50218.233      36.893836      36.893836      36.893836    
    187000   0.64245624    -7.5085598     -6.5448891      6.1035906      50218.233      36.893836      36.893836      36.893836    
    188000   0.64271588    -7.5099324     -6.5458723      6.1089925      50218.233      36.893836      36.893836      36.893836    
    189000   0.63839933    -7.5085601     -6.5509747      6.1094653      50218.233      36.893836      36.893836      36.893836    
    190000   0.63893448    -7.5093697     -6.5509816      6.0998537      50218.233      36.893836      36.893836      36.893836    
    191000   0.64491243    -7.5124871     -6.5451322      6.0729207      50218.233      36.893836      36.893836      36.893836    
    192000   0.64231953    -7.5108453     -6.5473797      6.0794833      50218.233      36.893836      36.893836      36.893836    
    193000   0.64342361    -7.5074305     -6.5423088      6.1279741      50218.233      36.893836      36.893836      36.893836    
    194000   0.63887437    -7.5136936     -6.5553957      6.0743362      50218.233      36.893836      36.893836      36.893836    
    195000   0.64051829    -7.5103208     -6.549557       6.0992371      50218.233      36.893836      36.893836      36.893836    
    196000   0.64441572    -7.5118756     -6.5452657      6.0796026      50218.233      36.893836      36.893836      36.893836    
    197000   0.63920149    -7.5133488     -6.5545602      6.0754865      50218.233      36.893836      36.893836      36.893836    
    198000   0.63868126    -7.5160115     -6.5580032      6.0431689      50218.233      36.893836      36.893836      36.893836    
    199000   0.63896465    -7.5120614     -6.553628       6.0855858      50218.233      36.893836      36.893836      36.893836    
    200000   0.64554043    -7.5090331     -6.5407362      6.1091314      50218.233      36.893836      36.893836      36.893836    
    201000   0.63935551    -7.515106      -6.5560864      6.052514       50218.233      36.893836      36.893836      36.893836    
    202000   0.63735074    -7.5108173     -6.5548048      6.0881734      50218.233      36.893836      36.893836      36.893836    
    203000   0.63771003    -7.516796      -6.5602445      6.0368457      50218.233      36.893836      36.893836      36.893836    
    204000   0.64316115    -7.512801      -6.548073       6.0745266      50218.233      36.893836      36.893836      36.893836    
    205000   0.6401725     -7.5123239     -6.5520789      6.0710149      50218.233      36.893836      36.893836      36.893836    
    206000   0.63801126    -7.5115313     -6.5545281      6.0722455      50218.233      36.893836      36.893836      36.893836    
    207000   0.64095538    -7.5114161     -6.5499967      6.0967504      50218.233      36.893836      36.893836      36.893836    
    208000   0.63965923    -7.5173373     -6.5578621      6.0478295      50218.233      36.893836      36.893836      36.893836    
    209000   0.63844406    -7.5113557     -6.5537033      6.0805329      50218.233      36.893836      36.893836      36.893836    
    210000   0.64193105    -7.5131993     -6.5503164      6.0654318      50218.233      36.893836      36.893836      36.893836    
    211000   0.63997204    -7.5158333     -6.5558889      6.0438727      50218.233      36.893836      36.893836      36.893836    
    212000   0.64155408    -7.5119286     -6.5496112      6.0830159      50218.233      36.893836      36.893836      36.893836    
    213000   0.64111156    -7.5089498     -6.5472962      6.1108279      50218.233      36.893836      36.893836      36.893836    
    214000   0.64077092    -7.5098958     -6.5487531      6.0896584      50218.233      36.893836      36.893836      36.893836    
    215000   0.63731399    -7.5085607     -6.5526033      6.1030895      50218.233      36.893836      36.893836      36.893836    
    216000   0.64086261    -7.5134918     -6.5522115      6.0583865      50218.233      36.893836      36.893836      36.893836    
    217000   0.6385484     -7.5124824     -6.5546735      6.069143       50218.233      36.893836      36.893836      36.893836    
    218000   0.64326549    -7.5139945     -6.54911        6.0722487      50218.233      36.893836      36.893836      36.893836    
    219000   0.63648767    -7.5118237     -6.5571057      6.0790617      50218.233      36.893836      36.893836      36.893836    
    220000   0.63667529    -7.5083581     -6.5533587      6.0986745      50218.233      36.893836      36.893836      36.893836    
    221000   0.63780381    -7.5109833     -6.5542912      6.0776987      50218.233      36.893836      36.893836      36.893836    
    222000   0.64083116    -7.5107573     -6.5495242      6.087026       50218.233      36.893836      36.893836      36.893836    
    223000   0.63850852    -7.5125064     -6.5547573      6.076999       50218.233      36.893836      36.893836      36.893836    
    224000   0.63844531    -7.5089947     -6.5513403      6.094355       50218.233      36.893836      36.893836      36.893836    
    225000   0.64039094    -7.5144129     -6.5538401      6.0688219      50218.233      36.893836      36.893836      36.893836    
    226000   0.64078211    -7.5168611     -6.5557016      6.0415085      50218.233      36.893836      36.893836      36.893836    
    227000   0.63947443    -7.5085676     -6.5493696      6.1102413      50218.233      36.893836      36.893836      36.893836    
    228000   0.63964582    -7.518251      -6.558796       6.0203083      50218.233      36.893836      36.893836      36.893836    
    229000   0.63717337    -7.511322      -6.5555756      6.0746598      50218.233      36.893836      36.893836      36.893836    
    230000   0.6405693     -7.5091877     -6.5483474      6.0984509      50218.233      36.893836      36.893836      36.893836    
    231000   0.63930716    -7.5044181     -6.545471       6.1376488      50218.233      36.893836      36.893836      36.893836    
    232000   0.63997442    -7.5092047     -6.5492568      6.1106782      50218.233      36.893836      36.893836      36.893836    
    233000   0.6370359     -7.5079167     -6.5523764      6.1008676      50218.233      36.893836      36.893836      36.893836    
    234000   0.63499868    -7.5076215     -6.5551371      6.106377       50218.233      36.893836      36.893836      36.893836    
    235000   0.639253      -7.50718       -6.5483141      6.1212442      50218.233      36.893836      36.893836      36.893836    
    236000   0.64194597    -7.5113842     -6.548479       6.0885547      50218.233      36.893836      36.893836      36.893836    
    237000   0.63913142    -7.5109324     -6.5522489      6.0900823      50218.233      36.893836      36.893836      36.893836    
    238000   0.64231255    -7.508273      -6.5448179      6.1036664      50218.233      36.893836      36.893836      36.893836    
    239000   0.64030604    -7.509216      -6.5487706      6.1076367      50218.233      36.893836      36.893836      36.893836    
    240000   0.63959133    -7.5115529     -6.5521795      6.0801724      50218.233      36.893836      36.893836      36.893836    
    241000   0.63752373    -7.5094658     -6.5531938      6.0861051      50218.233      36.893836      36.893836      36.893836    
    242000   0.64193913    -7.5089135     -6.5460185      6.1053438      50218.233      36.893836      36.893836      36.893836    
    243000   0.64163992    -7.5116707     -6.5492245      6.0852794      50218.233      36.893836      36.893836      36.893836    
    244000   0.64045083    -7.5134016     -6.552739       6.0808485      50218.233      36.893836      36.893836      36.893836    
    245000   0.64037985    -7.5099942     -6.5494381      6.0977352      50218.233      36.893836      36.893836      36.893836    
    246000   0.63686655    -7.503583      -6.5482968      6.1315153      50218.233      36.893836      36.893836      36.893836    
    247000   0.64174947    -7.5117378     -6.5491272      6.0865026      50218.233      36.893836      36.893836      36.893836    
    248000   0.63982514    -7.5111224     -6.5513983      6.0897964      50218.233      36.893836      36.893836      36.893836    
    249000   0.64254599    -7.5123573     -6.548552       6.0932141      50218.233      36.893836      36.893836      36.893836    
    250000   0.63856948    -7.5109493     -6.5531087      6.0929021      50218.233      36.893836      36.893836      36.893836    
    251000   0.639607      -7.5112809     -6.5518841      6.0874921      50218.233      36.893836      36.893836      36.893836    
    252000   0.64466627    -7.5056858     -6.5387002      6.1369532      50218.233      36.893836      36.893836      36.893836    
    253000   0.64315063    -7.5085938     -6.5438816      6.106987       50218.233      36.893836      36.893836      36.893836    
    254000   0.64165899    -7.5098651     -6.5473903      6.1097433      50218.233      36.893836      36.893836      36.893836    
    255000   0.64195587    -7.5103808     -6.5474607      6.0903074      50218.233      36.893836      36.893836      36.893836    
    256000   0.64175289    -7.5117655     -6.5491498      6.0836698      50218.233      36.893836      36.893836      36.893836    
    257000   0.63990536    -7.5136395     -6.5537951      6.0734527      50218.233      36.893836      36.893836      36.893836    
    258000   0.64155916    -7.5136059     -6.5512808      6.0750194      50218.233      36.893836      36.893836      36.893836    
    259000   0.63951068    -7.5067594     -6.5475071      6.1259572      50218.233      36.893836      36.893836      36.893836    
    260000   0.63717896    -7.5133983     -6.5576435      6.0684639      50218.233      36.893836      36.893836      36.893836    
    261000   0.63860051    -7.5129807     -6.5550936      6.0697502      50218.233      36.893836      36.893836      36.893836    
    262000   0.64309417    -7.5106598     -6.5460323      6.0929786      50218.233      36.893836      36.893836      36.893836    
    263000   0.64063818    -7.518066      -6.5571224      6.0289975      50218.233      36.893836      36.893836      36.893836    
    264000   0.64112535    -7.5123124     -6.550638       6.0778722      50218.233      36.893836      36.893836      36.893836    
    265000   0.63820493    -7.5097644     -6.5524706      6.0939802      50218.233      36.893836      36.893836      36.893836    
    266000   0.6403091     -7.5172772     -6.5568272      6.0371277      50218.233      36.893836      36.893836      36.893836    
    267000   0.64144654    -7.5083279     -6.5461718      6.1022457      50218.233      36.893836      36.893836      36.893836    
    268000   0.63825643    -7.5109961     -6.553625       6.0806994      50218.233      36.893836      36.893836      36.893836    
    269000   0.64377991    -7.5153173     -6.5496612      6.0636365      50218.233      36.893836      36.893836      36.893836    
    270000   0.63748807    -7.5104651     -6.5542465      6.0817985      50218.233      36.893836      36.893836      36.893836    
    271000   0.64317317    -7.5146509     -6.5499049      6.0639302      50218.233      36.893836      36.893836      36.893836    
    272000   0.63845005    -7.5080817     -6.5504203      6.1022603      50218.233      36.893836      36.893836      36.893836    
    273000   0.63881212    -7.517367      -6.5591624      6.0328759      50218.233      36.893836      36.893836      36.893836    
    274000   0.64048429    -7.5110651     -6.5503523      6.084425       50218.233      36.893836      36.893836      36.893836    
    275000   0.64012777    -7.5127659     -6.5525879      6.0749492      50218.233      36.893836      36.893836      36.893836    
    276000   0.6401933     -7.5117697     -6.5514935      6.0790964      50218.233      36.893836      36.893836      36.893836    
    277000   0.64076043    -7.5125858     -6.5514588      6.0899592      50218.233      36.893836      36.893836      36.893836    
    278000   0.63905579    -7.5175125     -6.5589424      6.0447205      50218.233      36.893836      36.893836      36.893836    
    279000   0.64105123    -7.5079388     -6.5463757      6.1067337      50218.233      36.893836      36.893836      36.893836    
    280000   0.63890322    -7.5053354     -6.5469942      6.1090988      50218.233      36.893836      36.893836      36.893836    
    281000   0.63998597    -7.50846       -6.5484947      6.0885776      50218.233      36.893836      36.893836      36.893836    
    282000   0.64467085    -7.5113949     -6.5444024      6.0948822      50218.233      36.893836      36.893836      36.893836    
    283000   0.6395346     -7.5097085     -6.5504203      6.0838392      50218.233      36.893836      36.893836      36.893836    
    284000   0.63836907    -7.5100347     -6.5524947      6.0954888      50218.233      36.893836      36.893836      36.893836    
    285000   0.64053294    -7.5053814     -6.5445957      6.118823       50218.233      36.893836      36.893836      36.893836    
    286000   0.63543957    -7.5054066     -6.5522608      6.1084113      50218.233      36.893836      36.893836      36.893836    
    287000   0.64619381    -7.5111982     -6.5419213      6.0964792      50218.233      36.893836      36.893836      36.893836    
    288000   0.64319686    -7.5060447     -6.5412631      6.1194614      50218.233      36.893836      36.893836      36.893836    
    289000   0.63824001    -7.5122722     -6.5549258      6.0878806      50218.233      36.893836      36.893836      36.893836    
    290000   0.64374464    -7.5165174     -6.5509142      6.0513346      50218.233      36.893836      36.893836      36.893836    
    291000   0.63863524    -7.5150996     -6.5571603      6.0540943      50218.233      36.893836      36.893836      36.893836    
    292000   0.63926827    -7.508631      -6.5497422      6.1184443      50218.233      36.893836      36.893836      36.893836    
    293000   0.63913154    -7.5115302     -6.5528465      6.0886663      50218.233      36.893836      36.893836      36.893836    
    294000   0.63911455    -7.5103552     -6.551697       6.0932142      50218.233      36.893836      36.893836      36.893836    
    295000   0.64057063    -7.5131926     -6.5523503      6.075364       50218.233      36.893836      36.893836      36.893836    
    296000   0.63611754    -7.5188941     -6.5647313      6.0189667      50218.233      36.893836      36.893836      36.893836    
    297000   0.63817779    -7.5148936     -6.5576405      6.064141       50218.233      36.893836      36.893836      36.893836    
    298000   0.6361794     -7.5150932     -6.5608377      6.0566745      50218.233      36.893836      36.893836      36.893836    
    299000   0.64416983    -7.5080881     -6.5418471      6.1227937      50218.233      36.893836      36.893836      36.893836    
    300000   0.63894663    -7.5117978     -6.5533914      6.0899877      50218.233      36.893836      36.893836      36.893836    
    301000   0.63816129    -7.5097244     -6.5524961      6.0909796      50218.233      36.893836      36.893836      36.893836    
    302000   0.64176139    -7.511942      -6.5493136      6.0821154      50218.233      36.893836      36.893836      36.893836    
    303000   0.64131264    -7.5079064     -6.5459512      6.1098883      50218.233      36.893836      36.893836      36.893836    
    304000   0.6401943     -7.5103389     -6.5500611      6.0862883      50218.233      36.893836      36.893836      36.893836    
    305000   0.64155911    -7.5108304     -6.5485054      6.0942116      50218.233      36.893836      36.893836      36.893836    
    306000   0.63711813    -7.5075104     -6.5518468      6.1077426      50218.233      36.893836      36.893836      36.893836    
    307000   0.63871348    -7.509722      -6.5516654      6.096964       50218.233      36.893836      36.893836      36.893836    
    308000   0.6392832     -7.5120408     -6.5531296      6.0737124      50218.233      36.893836      36.893836      36.893836    
    309000   0.63892012    -7.519603      -6.5612364      6.023565       50218.233      36.893836      36.893836      36.893836    
    310000   0.63846343    -7.5153022     -6.5576207      6.0575203      50218.233      36.893836      36.893836      36.893836    
    311000   0.63731278    -7.5130749     -6.5571194      6.0719132      50218.233      36.893836      36.893836      36.893836    
    312000   0.63698701    -7.5114561     -6.5559892      6.0769543      50218.233      36.893836      36.893836      36.893836    
    313000   0.63858103    -7.5138642     -6.5560062      6.0642175      50218.233      36.893836      36.893836      36.893836    
    314000   0.63937393    -7.513987      -6.5549398      6.060357       50218.233      36.893836      36.893836      36.893836    
    315000   0.63973606    -7.5094951     -6.5499047      6.0830268      50218.233      36.893836      36.893836      36.893836    
    316000   0.64094403    -7.5153025     -6.5539002      6.0551534      50218.233      36.893836      36.893836      36.893836    
    317000   0.64014621    -7.5056328     -6.5454271      6.1263404      50218.233      36.893836      36.893836      36.893836    
    318000   0.64084593    -7.5135432     -6.552288       6.0559239      50218.233      36.893836      36.893836      36.893836    
    319000   0.64414365    -7.5070778     -6.5408761      6.1229602      50218.233      36.893836      36.893836      36.893836    
    320000   0.64116379    -7.5082306     -6.5464986      6.1167939      50218.233      36.893836      36.893836      36.893836    
    321000   0.63935263    -7.5134685     -6.5544532      6.0676548      50218.233      36.893836      36.893836      36.893836    
    322000   0.63694161    -7.5130561     -6.5576572      6.0776288      50218.233      36.893836      36.893836      36.893836    
    323000   0.6430909     -7.5107997     -6.5461771      6.103467       50218.233      36.893836      36.893836      36.893836    
    324000   0.6398493     -7.5129338     -6.5531735      6.0703652      50218.233      36.893836      36.893836      36.893836    
    325000   0.639912      -7.5105898     -6.5507355      6.0842857      50218.233      36.893836      36.893836      36.893836    
    326000   0.64026996    -7.5103704     -6.5499791      6.0975204      50218.233      36.893836      36.893836      36.893836    
    327000   0.63863859    -7.5147025     -6.5567583      6.0638756      50218.233      36.893836      36.893836      36.893836    
    328000   0.63907193    -7.5089745     -6.5503803      6.1019531      50218.233      36.893836      36.893836      36.893836    
    329000   0.638044      -7.5061886     -6.5491362      6.1248517      50218.233      36.893836      36.893836      36.893836    
    330000   0.64129638    -7.5126998     -6.5507689      6.0844401      50218.233      36.893836      36.893836      36.893836    
    331000   0.63862951    -7.5163087     -6.5583781      6.0390659      50218.233      36.893836      36.893836      36.893836    
    332000   0.64155459    -7.5077278     -6.5454096      6.1149779      50218.233      36.893836      36.893836      36.893836    
    333000   0.63663222    -7.509788      -6.5548532      6.0955582      50218.233      36.893836      36.893836      36.893836    
    334000   0.64389205    -7.5089464     -6.543122       6.1024186      50218.233      36.893836      36.893836      36.893836    
    335000   0.63975145    -7.5130649     -6.5534514      6.0860268      50218.233      36.893836      36.893836      36.893836    
    336000   0.639606      -7.5099245     -6.5505291      6.0906498      50218.233      36.893836      36.893836      36.893836    
    337000   0.64449386    -7.5109656     -6.5442385      6.0994147      50218.233      36.893836      36.893836      36.893836    
    338000   0.64110395    -7.5143479     -6.5527057      6.0498993      50218.233      36.893836      36.893836      36.893836    
    339000   0.64170839    -7.5084908     -6.5459419      6.1049913      50218.233      36.893836      36.893836      36.893836    
    340000   0.64302366    -7.5073006     -6.5427788      6.1237037      50218.233      36.893836      36.893836      36.893836    
    341000   0.64486382    -7.5107173     -6.5434353      6.0889986      50218.233      36.893836      36.893836      36.893836    
    342000   0.64079514    -7.5104909     -6.5493119      6.0893899      50218.233      36.893836      36.893836      36.893836    
    343000   0.64046745    -7.5066704     -6.5459829      6.1152065      50218.233      36.893836      36.893836      36.893836    
    344000   0.63717851    -7.5103846     -6.5546304      6.0891491      50218.233      36.893836      36.893836      36.893836    
    345000   0.64175926    -7.5108362     -6.548211       6.0913732      50218.233      36.893836      36.893836      36.893836    
    346000   0.6378566     -7.5071762     -6.5504049      6.1179598      50218.233      36.893836      36.893836      36.893836    
    347000   0.64035867    -7.50801       -6.5474856      6.122831       50218.233      36.893836      36.893836      36.893836    
    348000   0.64232573    -7.5092471     -6.5457722      6.1173444      50218.233      36.893836      36.893836      36.893836    
    349000   0.63999548    -7.5092519     -6.5492724      6.1028365      50218.233      36.893836      36.893836      36.893836    
    350000   0.64108845    -7.5100109     -6.5483919      6.0954023      50218.233      36.893836      36.893836      36.893836    
    351000   0.63996677    -7.5053386     -6.5454021      6.1266034      50218.233      36.893836      36.893836      36.893836    
    352000   0.6427151     -7.5123139     -6.548255       6.078845       50218.233      36.893836      36.893836      36.893836    
    353000   0.6398219     -7.5048912     -6.545172       6.1319526      50218.233      36.893836      36.893836      36.893836    
    354000   0.64254661    -7.5150142     -6.551208       6.065389       50218.233      36.893836      36.893836      36.893836    
    355000   0.64046272    -7.5124941     -6.5518137      6.0813569      50218.233      36.893836      36.893836      36.893836    
    356000   0.64042495    -7.509675      -6.5490513      6.1057107      50218.233      36.893836      36.893836      36.893836    
    357000   0.63912869    -7.5127657     -6.5540863      6.0615692      50218.233      36.893836      36.893836      36.893836    
    358000   0.63860297    -7.5129381     -6.5550473      6.0591038      50218.233      36.893836      36.893836      36.893836    
    359000   0.6375861     -7.5102584     -6.5538929      6.0817992      50218.233      36.893836      36.893836      36.893836    
    360000   0.64087629    -7.5098259     -6.5485252      6.0968001      50218.233      36.893836      36.893836      36.893836    
    361000   0.63824246    -7.5049205     -6.5475704      6.1233493      50218.233      36.893836      36.893836      36.893836    
    362000   0.64188998    -7.5090798     -6.5462586      6.1074217      50218.233      36.893836      36.893836      36.893836    
    363000   0.63843012    -7.5133618     -6.5557303      6.0742613      50218.233      36.893836      36.893836      36.893836    
    364000   0.64013375    -7.512716      -6.5525291      6.0850827      50218.233      36.893836      36.893836      36.893836    
    365000   0.64107624    -7.5063479     -6.5447472      6.1214665      50218.233      36.893836      36.893836      36.893836    
    366000   0.64257636    -7.5127447     -6.5488939      6.0562561      50218.233      36.893836      36.893836      36.893836    
    367000   0.64008842    -7.5142565     -6.5541375      6.0611603      50218.233      36.893836      36.893836      36.893836    
    368000   0.64176656    -7.5132134     -6.5505773      6.0614763      50218.233      36.893836      36.893836      36.893836    
    369000   0.64411831    -7.5088134     -6.5426497      6.1104566      50218.233      36.893836      36.893836      36.893836    
    370000   0.63904256    -7.5120178     -6.5534676      6.0745786      50218.233      36.893836      36.893836      36.893836    
    371000   0.6386964     -7.5118654     -6.5538344      6.0787005      50218.233      36.893836      36.893836      36.893836    
    372000   0.63846711    -7.5114592     -6.5537722      6.0678628      50218.233      36.893836      36.893836      36.893836    
    373000   0.63549413    -7.5109981     -6.5577705      6.0761946      50218.233      36.893836      36.893836      36.893836    
    374000   0.64267035    -7.5163131     -6.5523213      6.0612129      50218.233      36.893836      36.893836      36.893836    
    375000   0.64519689    -7.5158655     -6.5480839      6.0596932      50218.233      36.893836      36.893836      36.893836    
    376000   0.63886449    -7.5110798     -6.5527967      6.0846578      50218.233      36.893836      36.893836      36.893836    
    377000   0.63908899    -7.5167907     -6.5581708      6.0433236      50218.233      36.893836      36.893836      36.893836    
    378000   0.64170718    -7.5141517     -6.5516046      6.0790948      50218.233      36.893836      36.893836      36.893836    
    379000   0.63588891    -7.5123342     -6.5585144      6.0802839      50218.233      36.893836      36.893836      36.893836    
    380000   0.64260882    -7.5122762     -6.5483767      6.0835578      50218.233      36.893836      36.893836      36.893836    
    381000   0.64024645    -7.5160469     -6.5556909      6.064302       50218.233      36.893836      36.893836      36.893836    
    382000   0.64064309    -7.5155636     -6.5546126      6.0582949      50218.233      36.893836      36.893836      36.893836    
    383000   0.6395834     -7.5105881     -6.5512267      6.0805826      50218.233      36.893836      36.893836      36.893836    
    384000   0.64247044    -7.5122516     -6.5485597      6.09151        50218.233      36.893836      36.893836      36.893836    
    385000   0.63973023    -7.5069717     -6.54739        6.1193461      50218.233      36.893836      36.893836      36.893836    
    386000   0.64437657    -7.5095713     -6.5430202      6.1124645      50218.233      36.893836      36.893836      36.893836    
    387000   0.64075567    -7.5106336     -6.5495138      6.093777       50218.233      36.893836      36.893836      36.893836    
    388000   0.63977225    -7.5144575     -6.5548128      6.0540368      50218.233      36.893836      36.893836      36.893836    
    389000   0.6410745     -7.5101803     -6.5485823      6.0920615      50218.233      36.893836      36.893836      36.893836    
    390000   0.63828941    -7.5103253     -6.5529048      6.0814834      50218.233      36.893836      36.893836      36.893836    
    391000   0.6382237     -7.5123914     -6.5550695      6.0693437      50218.233      36.893836      36.893836      36.893836    
    392000   0.63810086    -7.5092825     -6.5521448      6.0941555      50218.233      36.893836      36.893836      36.893836    
    393000   0.6396687     -7.5112446     -6.5517552      6.0866         50218.233      36.893836      36.893836      36.893836    
    394000   0.63930389    -7.513969      -6.5550268      6.0667363      50218.233      36.893836      36.893836      36.893836    
    395000   0.63670172    -7.5141305     -6.5590915      6.0636176      50218.233      36.893836      36.893836      36.893836    
    396000   0.64213842    -7.5157531     -6.5525591      6.0565613      50218.233      36.893836      36.893836      36.893836    
    397000   0.63928428    -7.5182186     -6.5593059      6.028995       50218.233      36.893836      36.893836      36.893836    
    398000   0.64056416    -7.5112629     -6.5504304      6.0846529      50218.233      36.893836      36.893836      36.893836    
    399000   0.64098308    -7.517009      -6.555548       6.0413684      50218.233      36.893836      36.893836      36.893836    
    400000   0.64117051    -7.5126604     -6.5509183      6.0801561      50218.233      36.893836      36.893836      36.893836    
    401000   0.63914195    -7.516525      -6.5578257      6.057366       50218.233      36.893836      36.893836      36.893836    
    402000   0.63865016    -7.5139708     -6.5560092      6.0605313      50218.233      36.893836      36.893836      36.893836    
    403000   0.6456541     -7.5115209     -6.5430535      6.0865624      50218.233      36.893836      36.893836      36.893836    
    404000   0.64168978    -7.521022      -6.558501       6.0207001      50218.233      36.893836      36.893836      36.893836    
    405000   0.6434714     -7.5168644     -6.5516711      6.0542212      50218.233      36.893836      36.893836      36.893836    
    406000   0.64007994    -7.5131755     -6.5530693      6.0665828      50218.233      36.893836      36.893836      36.893836    
    407000   0.6390517     -7.5139123     -6.5553484      6.0583347      50218.233      36.893836      36.893836      36.893836    
    408000   0.63692624    -7.5149195     -6.5595437      6.0388865      50218.233      36.893836      36.893836      36.893836    
    409000   0.63789266    -7.5190688     -6.5622434      6.0118762      50218.233      36.893836      36.893836      36.893836    
    410000   0.6385736     -7.5151712     -6.5573244      6.0511435      50218.233      36.893836      36.893836      36.893836    
    411000   0.63712868    -7.5084713     -6.5527919      6.1101781      50218.233      36.893836      36.893836      36.893836    
    412000   0.6423441     -7.5176024     -6.5540999      6.0290996      50218.233      36.893836      36.893836      36.893836    
    413000   0.63723481    -7.5121617     -6.556323       6.069446       50218.233      36.893836      36.893836      36.893836    
    414000   0.64013476    -7.5147912     -6.5546027      6.0592143      50218.233      36.893836      36.893836      36.893836    
    415000   0.63888583    -7.5177665     -6.5594514      6.0374742      50218.233      36.893836      36.893836      36.893836    
    416000   0.63845201    -7.5122433     -6.5545789      6.08373        50218.233      36.893836      36.893836      36.893836    
    417000   0.63772848    -7.5126902     -6.5561111      6.0564553      50218.233      36.893836      36.893836      36.893836    
    418000   0.63497155    -7.5093862     -6.5569424      6.0907178      50218.233      36.893836      36.893836      36.893836    
    419000   0.64000496    -7.5101054     -6.5501116      6.1022971      50218.233      36.893836      36.893836      36.893836    
    420000   0.64201078    -7.5130448     -6.5500423      6.0722914      50218.233      36.893836      36.893836      36.893836    
    421000   0.63898432    -7.5108385     -6.5523757      6.0873226      50218.233      36.893836      36.893836      36.893836    
    422000   0.63711517    -7.5143327     -6.5586736      6.0570607      50218.233      36.893836      36.893836      36.893836    
    423000   0.63955139    -7.5170034     -6.55769        6.0478402      50218.233      36.893836      36.893836      36.893836    
    424000   0.64235555    -7.5118091     -6.5482895      6.0788367      50218.233      36.893836      36.893836      36.893836    
    425000   0.64096014    -7.5074793     -6.5460528      6.1095579      50218.233      36.893836      36.893836      36.893836    
    426000   0.64165686    -7.5027833     -6.5403117      6.1355879      50218.233      36.893836      36.893836      36.893836    
    427000   0.64340802    -7.5069985     -6.5419001      6.1207096      50218.233      36.893836      36.893836      36.893836    
    428000   0.63671494    -7.5104292     -6.5553704      6.0733616      50218.233      36.893836      36.893836      36.893836    
    429000   0.64068612    -7.51234       -6.5513245      6.0641459      50218.233      36.893836      36.893836      36.893836    
    430000   0.63990244    -7.5084954     -6.5486554      6.1086728      50218.233      36.893836      36.893836      36.893836    
    431000   0.63782186    -7.5098785     -6.5531593      6.0872769      50218.233      36.893836      36.893836      36.893836    
    432000   0.64044443    -7.5082868     -6.5476338      6.107977       50218.233      36.893836      36.893836      36.893836    
    433000   0.63628639    -7.512293      -6.557877       6.0816665      50218.233      36.893836      36.893836      36.893836    
    434000   0.63684088    -7.5073335     -6.5520858      6.1015117      50218.233      36.893836      36.893836      36.893836    
    435000   0.63863955    -7.5080411     -6.5500954      6.1041603      50218.233      36.893836      36.893836      36.893836    
    436000   0.63956301    -7.5131996     -6.5538687      6.0808365      50218.233      36.893836      36.893836      36.893836    
    437000   0.63575182    -7.5086255     -6.5550114      6.1092105      50218.233      36.893836      36.893836      36.893836    
    438000   0.63827961    -7.5176355     -6.5602297      6.0280012      50218.233      36.893836      36.893836      36.893836    
    439000   0.64082794    -7.5152725     -6.5540442      6.0519928      50218.233      36.893836      36.893836      36.893836    
    440000   0.64173304    -7.5122136     -6.5496277      6.0843499      50218.233      36.893836      36.893836      36.893836    
    441000   0.64236424    -7.5135168     -6.5499841      6.0765211      50218.233      36.893836      36.893836      36.893836    
    442000   0.63739015    -7.5116983     -6.5556267      6.0710154      50218.233      36.893836      36.893836      36.893836    
    443000   0.63983107    -7.5150878     -6.5553548      6.0609504      50218.233      36.893836      36.893836      36.893836    
    444000   0.64248842    -7.5114096     -6.5476906      6.0907881      50218.233      36.893836      36.893836      36.893836    
    445000   0.64105946    -7.5101966     -6.5486211      6.0927129      50218.233      36.893836      36.893836      36.893836    
    446000   0.64025251    -7.5120891     -6.551724       6.0851899      50218.233      36.893836      36.893836      36.893836    
    447000   0.63785754    -7.5148947     -6.558122       6.0571577      50218.233      36.893836      36.893836      36.893836    
    448000   0.64288302    -7.5150726     -6.5507618      6.0497004      50218.233      36.893836      36.893836      36.893836    
    449000   0.64049073    -7.5163004     -6.555578       6.0586511      50218.233      36.893836      36.893836      36.893836    
    450000   0.64012874    -7.5081682     -6.5479887      6.1030529      50218.233      36.893836      36.893836      36.893836    
    451000   0.63958162    -7.5109816     -6.5516228      6.091599       50218.233      36.893836      36.893836      36.893836    
    452000   0.63908088    -7.5063768     -6.5477692      6.1169372      50218.233      36.893836      36.893836      36.893836    
    453000   0.63833262    -7.5108664     -6.5533811      6.0889256      50218.233      36.893836      36.893836      36.893836    
    454000   0.64128677    -7.5097275     -6.547811       6.094771       50218.233      36.893836      36.893836      36.893836    
    455000   0.63910523    -7.5106664     -6.5520222      6.0814973      50218.233      36.893836      36.893836      36.893836    
    456000   0.64470544    -7.5095866     -6.5425421      6.1136452      50218.233      36.893836      36.893836      36.893836    
    457000   0.63734509    -7.5104659     -6.5544619      6.0879501      50218.233      36.893836      36.893836      36.893836    
    458000   0.6433396     -7.5087674     -6.5437718      6.1038219      50218.233      36.893836      36.893836      36.893836    
    459000   0.63814186    -7.5104553     -6.5532561      6.0804376      50218.233      36.893836      36.893836      36.893836    
    460000   0.64115891    -7.5162046     -6.5544799      6.0377679      50218.233      36.893836      36.893836      36.893836    
    461000   0.64143196    -7.5148762     -6.552742       6.0556305      50218.233      36.893836      36.893836      36.893836    
    462000   0.63850664    -7.5131636     -6.5554172      6.0652889      50218.233      36.893836      36.893836      36.893836    
    463000   0.63898316    -7.5114722     -6.5530111      6.0670316      50218.233      36.893836      36.893836      36.893836    
    464000   0.63971261    -7.5117166     -6.5521613      6.0776437      50218.233      36.893836      36.893836      36.893836    
    465000   0.64576495    -7.510008      -6.5413743      6.09938        50218.233      36.893836      36.893836      36.893836    
    466000   0.64049297    -7.5057183     -6.5449925      6.1273916      50218.233      36.893836      36.893836      36.893836    
    467000   0.64307889    -7.5080059     -6.5434013      6.1098245      50218.233      36.893836      36.893836      36.893836    
    468000   0.63808424    -7.5049659     -6.5478531      6.1178853      50218.233      36.893836      36.893836      36.893836    
    469000   0.63916961    -7.5087247     -6.5499839      6.0950982      50218.233      36.893836      36.893836      36.893836    
    470000   0.63992725    -7.5136537     -6.5537765      6.0720291      50218.233      36.893836      36.893836      36.893836    
    471000   0.64188601    -7.5126391     -6.5498238      6.0781882      50218.233      36.893836      36.893836      36.893836    
    472000   0.64151424    -7.5168754     -6.5546177      6.0444455      50218.233      36.893836      36.893836      36.893836    
    473000   0.63883602    -7.5158078     -6.5575674      6.0528583      50218.233      36.893836      36.893836      36.893836    
    474000   0.64006593    -7.5091376     -6.5490523      6.0973924      50218.233      36.893836      36.893836      36.893836    
    475000   0.64058465    -7.5165175     -6.5556542      6.0489457      50218.233      36.893836      36.893836      36.893836    
    476000   0.64032835    -7.5108069     -6.5503281      6.0892968      50218.233      36.893836      36.893836      36.893836    
    477000   0.63826822    -7.5129393     -6.5555506      6.0620524      50218.233      36.893836      36.893836      36.893836    
    478000   0.64030982    -7.516632      -6.556181       6.0317842      50218.233      36.893836      36.893836      36.893836    
    479000   0.63802057    -7.5092635     -6.5522463      6.0839729      50218.233      36.893836      36.893836      36.893836    
    480000   0.64196775    -7.5110768     -6.5481389      6.0836486      50218.233      36.893836      36.893836      36.893836    
    481000   0.63727031    -7.5129148     -6.5570229      6.0598312      50218.233      36.893836      36.893836      36.893836    
    482000   0.64062461    -7.5116965     -6.5507733      6.0807733      50218.233      36.893836      36.893836      36.893836    
    483000   0.63650459    -7.5112105     -6.5564672      6.0664854      50218.233      36.893836      36.893836      36.893836    
    484000   0.63878951    -7.5184853     -6.5603146      6.0228899      50218.233      36.893836      36.893836      36.893836    
    485000   0.63908563    -7.5133046     -6.5546898      6.0713091      50218.233      36.893836      36.893836      36.893836    
    486000   0.64143384    -7.5066232     -6.5444861      6.1307269      50218.233      36.893836      36.893836      36.893836    
    487000   0.637993      -7.5089566     -6.5519807      6.100449       50218.233      36.893836      36.893836      36.893836    
    488000   0.64215516    -7.5159593     -6.5527402      6.0427521      50218.233      36.893836      36.893836      36.893836    
    489000   0.63779931    -7.5140793     -6.557394       6.0500187      50218.233      36.893836      36.893836      36.893836    
    490000   0.64168893    -7.5086608     -6.5461411      6.0959733      50218.233      36.893836      36.893836      36.893836    
    491000   0.64181981    -7.505874      -6.543158       6.1320973      50218.233      36.893836      36.893836      36.893836    
    492000   0.64157942    -7.5110394     -6.5486839      6.0989363      50218.233      36.893836      36.893836      36.893836    
    493000   0.63737145    -7.5109767     -6.5549331      6.0884708      50218.233      36.893836      36.893836      36.893836    
    494000   0.63805283    -7.508493      -6.5514273      6.0995206      50218.233      36.893836      36.893836      36.893836    
    495000   0.64198825    -7.5098821     -6.5469134      6.087226       50218.233      36.893836      36.893836      36.893836    
    496000   0.63990476    -7.5106974     -6.5508539      6.0751735      50218.233      36.893836      36.893836      36.893836    
    497000   0.64388611    -7.5106231     -6.5448077      6.0994873      50218.233      36.893836      36.893836      36.893836    
    498000   0.63986169    -7.5123576     -6.5525787      6.0630193      50218.233      36.893836      36.893836      36.893836    
    499000   0.63649896    -7.5125957     -6.5578609      6.0637051      50218.233      36.893836      36.893836      36.893836    
    500000   0.63852087    -7.5157782     -6.5580105      6.0519536      50218.233      36.893836      36.893836      36.893836    
    501000   0.64334703    -7.5091245     -6.5441176      6.1030976      50218.233      36.893836      36.893836      36.893836    
    502000   0.6393826     -7.5147741     -6.5557139      6.0559066      50218.233      36.893836      36.893836      36.893836    
    503000   0.63973495    -7.5140074     -6.5544186      6.0685743      50218.233      36.893836      36.893836      36.893836    
    504000   0.6402909     -7.5065664     -6.5461437      6.1300835      50218.233      36.893836      36.893836      36.893836    
    505000   0.63884615    -7.5083605     -6.5501049      6.1025802      50218.233      36.893836      36.893836      36.893836    
    506000   0.64163835    -7.5139695     -6.5515257      6.0579926      50218.233      36.893836      36.893836      36.893836    
    507000   0.63961858    -7.5096277     -6.5502135      6.0962618      50218.233      36.893836      36.893836      36.893836    
    508000   0.63870552    -7.5119972     -6.5539525      6.0775427      50218.233      36.893836      36.893836      36.893836    
    509000   0.64090469    -7.5184396     -6.5570962      6.0373737      50218.233      36.893836      36.893836      36.893836    
    510000   0.64018266    -7.5149261     -6.5546657      6.0809451      50218.233      36.893836      36.893836      36.893836    
    511000   0.63706245    -7.5109778     -6.5553977      6.0733361      50218.233      36.893836      36.893836      36.893836    
    512000   0.64101504    -7.5076133     -6.5461045      6.1064757      50218.233      36.893836      36.893836      36.893836    
    513000   0.64229648    -7.51175       -6.548319       6.0800746      50218.233      36.893836      36.893836      36.893836    
    514000   0.63832246    -7.5092451     -6.5517751      6.1043693      50218.233      36.893836      36.893836      36.893836    
    515000   0.64033806    -7.5095929     -6.5490995      6.085121       50218.233      36.893836      36.893836      36.893836    
    516000   0.64033874    -7.5125878     -6.5520933      6.0751209      50218.233      36.893836      36.893836      36.893836    
    517000   0.64341873    -7.5119712     -6.5468569      6.0776311      50218.233      36.893836      36.893836      36.893836    
    518000   0.63991371    -7.5123866     -6.5525297      6.0697237      50218.233      36.893836      36.893836      36.893836    
    519000   0.63884546    -7.5080576     -6.5498031      6.1085974      50218.233      36.893836      36.893836      36.893836    
    520000   0.64356317    -7.5122492     -6.5469182      6.0688895      50218.233      36.893836      36.893836      36.893836    
    521000   0.6358064     -7.5158964     -6.5622004      6.0497826      50218.233      36.893836      36.893836      36.893836    
    522000   0.64018583    -7.515073      -6.5548079      6.0509423      50218.233      36.893836      36.893836      36.893836    
    523000   0.64206692    -7.5122105     -6.5491239      6.0769441      50218.233      36.893836      36.893836      36.893836    
    524000   0.63968469    -7.5182769     -6.5587635      6.0404044      50218.233      36.893836      36.893836      36.893836    
    525000   0.64178147    -7.5086758     -6.5460173      6.1019915      50218.233      36.893836      36.893836      36.893836    
    526000   0.63774014    -7.5150387     -6.5584421      6.0556484      50218.233      36.893836      36.893836      36.893836    
    527000   0.63866944    -7.5107677     -6.5527771      6.0768708      50218.233      36.893836      36.893836      36.893836    
    528000   0.64336326    -7.5113931     -6.5463619      6.0835898      50218.233      36.893836      36.893836      36.893836    
    529000   0.64126654    -7.5092291     -6.547343       6.1081352      50218.233      36.893836      36.893836      36.893836    
    530000   0.64098388    -7.5088575     -6.5473953      6.1024265      50218.233      36.893836      36.893836      36.893836    
    531000   0.63667995    -7.5159826     -6.5609763      6.0468125      50218.233      36.893836      36.893836      36.893836    
    532000   0.64145295    -7.5161863     -6.5540206      6.0576856      50218.233      36.893836      36.893836      36.893836    
    533000   0.64300532    -7.5108258     -6.5463316      6.0991887      50218.233      36.893836      36.893836      36.893836    
    534000   0.64266568    -7.5120988     -6.548114       6.0831482      50218.233      36.893836      36.893836      36.893836    
    535000   0.63913442    -7.517335      -6.558647       6.0331644      50218.233      36.893836      36.893836      36.893836    
    536000   0.63416145    -7.5172958     -6.5660672      6.0376194      50218.233      36.893836      36.893836      36.893836    
    537000   0.63714415    -7.5116874     -6.5559848      6.0711186      50218.233      36.893836      36.893836      36.893836    
    538000   0.63911856    -7.5149802     -6.556316       6.0515498      50218.233      36.893836      36.893836      36.893836    
    539000   0.63864564    -7.516458      -6.5585032      6.042586       50218.233      36.893836      36.893836      36.893836    
    540000   0.63826388    -7.5178475     -6.5604653      6.0343025      50218.233      36.893836      36.893836      36.893836    
    541000   0.64234974    -7.5140575     -6.5505466      6.0802735      50218.233      36.893836      36.893836      36.893836    
    542000   0.63868673    -7.5136577     -6.5556413      6.0725828      50218.233      36.893836      36.893836      36.893836    
    543000   0.64193074    -7.5181386     -6.5552562      6.039393       50218.233      36.893836      36.893836      36.893836    
    544000   0.64371531    -7.5098203     -6.544261       6.0894147      50218.233      36.893836      36.893836      36.893836    
    545000   0.64084775    -7.5145932     -6.5533352      6.0580901      50218.233      36.893836      36.893836      36.893836    
    546000   0.64340916    -7.5174649     -6.5523649      6.0347545      50218.233      36.893836      36.893836      36.893836    
    547000   0.64153667    -7.5176727     -6.5553814      6.0283975      50218.233      36.893836      36.893836      36.893836    
    548000   0.64377762    -7.5118372     -6.5461845      6.0825533      50218.233      36.893836      36.893836      36.893836    
    549000   0.64037255    -7.5148558     -6.5543106      6.0580604      50218.233      36.893836      36.893836      36.893836    
    550000   0.63968499    -7.5156842     -6.5561704      6.0492955      50218.233      36.893836      36.893836      36.893836    
    551000   0.64375348    -7.5125634     -6.5469469      6.0829656      50218.233      36.893836      36.893836      36.893836    
    552000   0.63886216    -7.5151972     -6.5569176      6.0583671      50218.233      36.893836      36.893836      36.893836    
    553000   0.63891155    -7.5126981     -6.5543444      6.0656744      50218.233      36.893836      36.893836      36.893836    
    554000   0.6411224     -7.5138327     -6.5521628      6.0830774      50218.233      36.893836      36.893836      36.893836    
    555000   0.64003814    -7.5049079     -6.5448643      6.1337563      50218.233      36.893836      36.893836      36.893836    
    556000   0.63900236    -7.5144072     -6.5559173      6.0652945      50218.233      36.893836      36.893836      36.893836    
    557000   0.6413233     -7.5085329     -6.5465616      6.1129519      50218.233      36.893836      36.893836      36.893836    
    558000   0.64163225    -7.5146431     -6.5522084      6.0704573      50218.233      36.893836      36.893836      36.893836    
    559000   0.6386251     -7.5148251     -6.5569011      6.045668       50218.233      36.893836      36.893836      36.893836    
    560000   0.64112247    -7.5087142     -6.5470442      6.1115592      50218.233      36.893836      36.893836      36.893836    
    561000   0.63834241    -7.5108306     -6.5533306      6.0894485      50218.233      36.893836      36.893836      36.893836    
    562000   0.64021149    -7.5100706     -6.549767       6.0932813      50218.233      36.893836      36.893836      36.893836    
    563000   0.63663971    -7.512899      -6.557953       6.0731746      50218.233      36.893836      36.893836      36.893836    
    564000   0.63994537    -7.5133616     -6.5534571      6.0682484      50218.233      36.893836      36.893836      36.893836    
    565000   0.64503179    -7.5129245     -6.5453906      6.0947124      50218.233      36.893836      36.893836      36.893836    
    566000   0.64014225    -7.5067508     -6.5465511      6.1262152      50218.233      36.893836      36.893836      36.893836    
    567000   0.63747404    -7.5097629     -6.5535655      6.0975615      50218.233      36.893836      36.893836      36.893836    
    568000   0.63763367    -7.5083857     -6.5519488      6.1156953      50218.233      36.893836      36.893836      36.893836    
    569000   0.64037251    -7.5177828     -6.5572377      6.0469556      50218.233      36.893836      36.893836      36.893836    
    570000   0.63981       -7.5159154     -6.5562141      6.0454462      50218.233      36.893836      36.893836      36.893836    
    571000   0.64019077    -7.5132008     -6.5529283      6.0739193      50218.233      36.893836      36.893836      36.893836    
    572000   0.63898938    -7.5098756     -6.5514051      6.0860242      50218.233      36.893836      36.893836      36.893836    
    573000   0.63926453    -7.5119937     -6.5531106      6.0775755      50218.233      36.893836      36.893836      36.893836    
    574000   0.64053926    -7.513038      -6.5522428      6.0695209      50218.233      36.893836      36.893836      36.893836    
    575000   0.63995126    -7.5164773     -6.556564       6.0521462      50218.233      36.893836      36.893836      36.893836    
    576000   0.63754662    -7.5134203     -6.5571139      6.0738709      50218.233      36.893836      36.893836      36.893836    
    577000   0.63865609    -7.5151551     -6.5571845      6.0639206      50218.233      36.893836      36.893836      36.893836    
    578000   0.64235351    -7.512947      -6.5494304      6.0617018      50218.233      36.893836      36.893836      36.893836    
    579000   0.64342552    -7.5142351     -6.5491106      6.0559503      50218.233      36.893836      36.893836      36.893836    
    580000   0.63844702    -7.5108587     -6.5532018      6.0826262      50218.233      36.893836      36.893836      36.893836    
    581000   0.63920943    -7.5073888     -6.5485883      6.0984876      50218.233      36.893836      36.893836      36.893836    
    582000   0.63799844    -7.5134008     -6.5564168      6.0493142      50218.233      36.893836      36.893836      36.893836    
    583000   0.63613661    -7.5184888     -6.5642974      6.0300514      50218.233      36.893836      36.893836      36.893836    
    584000   0.64175706    -7.5164253     -6.5538033      6.0565755      50218.233      36.893836      36.893836      36.893836    
    585000   0.64216358    -7.512696      -6.5494643      6.08198        50218.233      36.893836      36.893836      36.893836    
    586000   0.64164665    -7.5144824     -6.5520261      6.0452091      50218.233      36.893836      36.893836      36.893836    
    587000   0.63771778    -7.5155657     -6.5590027      6.0473169      50218.233      36.893836      36.893836      36.893836    
    588000   0.64199774    -7.5146863     -6.5517034      6.0560009      50218.233      36.893836      36.893836      36.893836    
    589000   0.64161467    -7.513681      -6.5512727      6.0531651      50218.233      36.893836      36.893836      36.893836    
    590000   0.64281423    -7.5146555     -6.5504479      6.066535       50218.233      36.893836      36.893836      36.893836    
    591000   0.64007632    -7.5105198     -6.5504189      6.0787092      50218.233      36.893836      36.893836      36.893836    
    592000   0.64307276    -7.5114868     -6.5468914      6.0938034      50218.233      36.893836      36.893836      36.893836    
    593000   0.64284381    -7.5108822     -6.5466302      6.079208       50218.233      36.893836      36.893836      36.893836    
    594000   0.63745219    -7.5138268     -6.5576621      6.0610821      50218.233      36.893836      36.893836      36.893836    
    595000   0.64031134    -7.5042143     -6.543761       6.119937       50218.233      36.893836      36.893836      36.893836    
    596000   0.63781913    -7.510008      -6.5532929      6.0839023      50218.233      36.893836      36.893836      36.893836    
    597000   0.63897127    -7.5113067     -6.5528634      6.0860118      50218.233      36.893836      36.893836      36.893836    
    598000   0.63832678    -7.5060725     -6.5485959      6.113317       50218.233      36.893836      36.893836      36.893836    
    599000   0.64002469    -7.5092549     -6.5492315      6.0937726      50218.233      36.893836      36.893836      36.893836    
    600000   0.63786758    -7.5124205     -6.5556327      6.0632592      50218.233      36.893836      36.893836      36.893836    
    601000   0.63935101    -7.5127169     -6.553704       6.0813665      50218.233      36.893836      36.893836      36.893836    
    602000   0.64109369    -7.5148386     -6.5532118      6.0594675      50218.233      36.893836      36.893836      36.893836    
    603000   0.63949072    -7.5121933     -6.5529709      6.0846942      50218.233      36.893836      36.893836      36.893836    
    604000   0.64259487    -7.5147192     -6.5508406      6.0696138      50218.233      36.893836      36.893836      36.893836    
    605000   0.64261383    -7.5107551     -6.5468481      6.09085        50218.233      36.893836      36.893836      36.893836    
    606000   0.64276396    -7.5075672     -6.543435       6.1136085      50218.233      36.893836      36.893836      36.893836    
    607000   0.64176335    -7.5114899     -6.5488586      6.0878123      50218.233      36.893836      36.893836      36.893836    
    608000   0.63998838    -7.5162248     -6.5562558      6.0529301      50218.233      36.893836      36.893836      36.893836    
    609000   0.63645368    -7.5138653     -6.5591984      6.0673604      50218.233      36.893836      36.893836      36.893836    
    610000   0.63604034    -7.5130534     -6.5590065      6.0573078      50218.233      36.893836      36.893836      36.893836    
    611000   0.64090698    -7.5134011     -6.5520543      6.0732316      50218.233      36.893836      36.893836      36.893836    
    612000   0.64065056    -7.5150361     -6.5540739      6.0563551      50218.233      36.893836      36.893836      36.893836    
    613000   0.64260154    -7.5148175     -6.550929       6.0670038      50218.233      36.893836      36.893836      36.893836    
    614000   0.64171982    -7.5147983     -6.5522323      6.0665381      50218.233      36.893836      36.893836      36.893836    
    615000   0.64208198    -7.5093001     -6.5461909      6.0904512      50218.233      36.893836      36.893836      36.893836    
    616000   0.64297651    -7.5103499     -6.5458988      6.0975713      50218.233      36.893836      36.893836      36.893836    
    617000   0.64010584    -7.5148683     -6.5547232      6.0500561      50218.233      36.893836      36.893836      36.893836    
    618000   0.64478186    -7.5105041     -6.5433451      6.1100494      50218.233      36.893836      36.893836      36.893836    
    619000   0.63725239    -7.5181418     -6.5622768      6.0251654      50218.233      36.893836      36.893836      36.893836    
    620000   0.64031694    -7.5152241     -6.5547623      6.0655853      50218.233      36.893836      36.893836      36.893836    
    621000   0.6417702     -7.5132202     -6.5505786      6.07068        50218.233      36.893836      36.893836      36.893836    
    622000   0.64245807    -7.5085176     -6.5448442      6.1140895      50218.233      36.893836      36.893836      36.893836    
    623000   0.63948992    -7.5076754     -6.5484541      6.1069683      50218.233      36.893836      36.893836      36.893836    
    624000   0.64020174    -7.5148638     -6.5545749      6.0545061      50218.233      36.893836      36.893836      36.893836    
    625000   0.638784      -7.5098642     -6.5517018      6.1130756      50218.233      36.893836      36.893836      36.893836    
    626000   0.63755495    -7.5089506     -6.5526318      6.0880616      50218.233      36.893836      36.893836      36.893836    
    627000   0.63943332    -7.5099605     -6.5508242      6.1040748      50218.233      36.893836      36.893836      36.893836    
    628000   0.64069383    -7.5072352     -6.5462081      6.1159258      50218.233      36.893836      36.893836      36.893836    
    629000   0.63855995    -7.5106592     -6.5528328      6.1025143      50218.233      36.893836      36.893836      36.893836    
    630000   0.64197766    -7.5115035     -6.5485507      6.0832832      50218.233      36.893836      36.893836      36.893836    
    631000   0.64114351    -7.5123135     -6.5506119      6.0805815      50218.233      36.893836      36.893836      36.893836    
    632000   0.64413554    -7.5156263     -6.5494367      6.0568683      50218.233      36.893836      36.893836      36.893836    
    633000   0.63945011    -7.5110732     -6.5519117      6.0803446      50218.233      36.893836      36.893836      36.893836    
    634000   0.63968451    -7.506107      -6.5465939      6.1111688      50218.233      36.893836      36.893836      36.893836    
    635000   0.64217453    -7.5088391     -6.545591       6.1124101      50218.233      36.893836      36.893836      36.893836    
    636000   0.64119773    -7.5142654     -6.5524825      6.0546117      50218.233      36.893836      36.893836      36.893836    
    637000   0.64207949    -7.5156046     -6.5524991      6.0511387      50218.233      36.893836      36.893836      36.893836    
    638000   0.645801      -7.5148757     -6.546188       6.0702543      50218.233      36.893836      36.893836      36.893836    
    639000   0.63886764    -7.5136287     -6.5553408      6.0567005      50218.233      36.893836      36.893836      36.893836    
    640000   0.63762765    -7.5153117     -6.5588838      6.0388236      50218.233      36.893836      36.893836      36.893836    
    641000   0.6373722     -7.5066706     -6.5506259      6.1094133      50218.233      36.893836      36.893836      36.893836    
    642000   0.63727789    -7.5066207     -6.5507175      6.1114301      50218.233      36.893836      36.893836      36.893836    
    643000   0.63994132    -7.5119715     -6.5520732      6.0753795      50218.233      36.893836      36.893836      36.893836    
    644000   0.64021613    -7.5088163     -6.5485057      6.1123905      50218.233      36.893836      36.893836      36.893836    
    645000   0.63742085    -7.5068767     -6.550759       6.1219356      50218.233      36.893836      36.893836      36.893836    
    646000   0.63832791    -7.5096492     -6.552171       6.0905815      50218.233      36.893836      36.893836      36.893836    
    647000   0.6394142     -7.5105708     -6.5514631      6.0796871      50218.233      36.893836      36.893836      36.893836    
    648000   0.64118262    -7.5108015     -6.5490412      6.0881491      50218.233      36.893836      36.893836      36.893836    
    649000   0.6384142     -7.5085187     -6.550911       6.0930545      50218.233      36.893836      36.893836      36.893836    
    650000   0.6406175     -7.502895      -6.5419824      6.1402999      50218.233      36.893836      36.893836      36.893836    
    651000   0.63929174    -7.5059211     -6.5469971      6.1232783      50218.233      36.893836      36.893836      36.893836    
    652000   0.63858608    -7.5086306     -6.5507651      6.1039127      50218.233      36.893836      36.893836      36.893836    
    653000   0.6410614     -7.5106126     -6.5490342      6.1052007      50218.233      36.893836      36.893836      36.893836    
    654000   0.64199359    -7.5105697     -6.547593       6.0689928      50218.233      36.893836      36.893836      36.893836    
    655000   0.64044295    -7.5114772     -6.5508265      6.0903477      50218.233      36.893836      36.893836      36.893836    
    656000   0.63923991    -7.5062474     -6.5474012      6.1222422      50218.233      36.893836      36.893836      36.893836    
    657000   0.6431363     -7.5094724     -6.5447817      6.1077902      50218.233      36.893836      36.893836      36.893836    
    658000   0.63954193    -7.5062398     -6.5469406      6.1209165      50218.233      36.893836      36.893836      36.893836    
    659000   0.63876454    -7.5090928     -6.5509596      6.0925062      50218.233      36.893836      36.893836      36.893836    
    660000   0.63952842    -7.5101473     -6.5508683      6.0894444      50218.233      36.893836      36.893836      36.893836    
    661000   0.63627672    -7.5092708     -6.5548693      6.0931359      50218.233      36.893836      36.893836      36.893836    
    662000   0.63786548    -7.5109494     -6.5541648      6.0865775      50218.233      36.893836      36.893836      36.893836    
    663000   0.63840836    -7.5084904     -6.5508915      6.0934742      50218.233      36.893836      36.893836      36.893836    
    664000   0.64365699    -7.5122256     -6.5467539      6.0905295      50218.233      36.893836      36.893836      36.893836    
    665000   0.63913375    -7.5048269     -6.5461399      6.1428338      50218.233      36.893836      36.893836      36.893836    
    666000   0.64238362    -7.5122718     -6.5487101      6.0809198      50218.233      36.893836      36.893836      36.893836    
    667000   0.64150304    -7.5045435     -6.5423026      6.1344303      50218.233      36.893836      36.893836      36.893836    
    668000   0.64064908    -7.5089082     -6.5479483      6.0981011      50218.233      36.893836      36.893836      36.893836    
    669000   0.64158625    -7.5104177     -6.548052       6.0932158      50218.233      36.893836      36.893836      36.893836    
    670000   0.63884003    -7.5131607     -6.5549143      6.0742523      50218.233      36.893836      36.893836      36.893836    
    671000   0.64245367    -7.5101597     -6.5464929      6.0980002      50218.233      36.893836      36.893836      36.893836    
    672000   0.64010826    -7.5143538     -6.5542051      6.0601022      50218.233      36.893836      36.893836      36.893836    
    673000   0.63998506    -7.5090127     -6.5490487      6.0983766      50218.233      36.893836      36.893836      36.893836    
    674000   0.63940429    -7.5064469     -6.5473541      6.123823       50218.233      36.893836      36.893836      36.893836    
    675000   0.64159857    -7.5073355     -6.5449514      6.1315759      50218.233      36.893836      36.893836      36.893836    
    676000   0.64221169    -7.5081633     -6.5448594      6.1013034      50218.233      36.893836      36.893836      36.893836    
    677000   0.64233938    -7.5058571     -6.5423617      6.1349593      50218.233      36.893836      36.893836      36.893836    
    678000   0.63937365    -7.5117019     -6.552655       6.0900246      50218.233      36.893836      36.893836      36.893836    
    679000   0.6432709     -7.5157689     -6.5508763      6.0571531      50218.233      36.893836      36.893836      36.893836    
    680000   0.63982834    -7.5075669     -6.5478381      6.1095552      50218.233      36.893836      36.893836      36.893836    
    681000   0.63886196    -7.5065944     -6.5483151      6.1217649      50218.233      36.893836      36.893836      36.893836    
    682000   0.63993076    -7.5026601     -6.5427776      6.1471448      50218.233      36.893836      36.893836      36.893836    
    683000   0.63894354    -7.5060377     -6.547636       6.1108912      50218.233      36.893836      36.893836      36.893836    
    684000   0.64081217    -7.5106652     -6.5494606      6.0992604      50218.233      36.893836      36.893836      36.893836    
    685000   0.63962128    -7.5107508     -6.5513325      6.0919969      50218.233      36.893836      36.893836      36.893836    
    686000   0.63811209    -7.5100107     -6.5528562      6.0958053      50218.233      36.893836      36.893836      36.893836    
    687000   0.640897      -7.5086449     -6.5473131      6.1118814      50218.233      36.893836      36.893836      36.893836    
    688000   0.63968279    -7.5065677     -6.5470572      6.1249382      50218.233      36.893836      36.893836      36.893836    
    689000   0.63982911    -7.5109143     -6.5511843      6.0887596      50218.233      36.893836      36.893836      36.893836    
    690000   0.63853029    -7.5125232     -6.5547414      6.0693316      50218.233      36.893836      36.893836      36.893836    
    691000   0.63739002    -7.5155204     -6.559449       6.0540742      50218.233      36.893836      36.893836      36.893836    
    692000   0.63871728    -7.5120464     -6.5539841      6.0805543      50218.233      36.893836      36.893836      36.893836    
    693000   0.64267014    -7.5096306     -6.5456391      6.0922273      50218.233      36.893836      36.893836      36.893836    
    694000   0.63955701    -7.5179019     -6.5585801      6.0272283      50218.233      36.893836      36.893836      36.893836    
    695000   0.64032964    -7.5068578     -6.546377       6.1226838      50218.233      36.893836      36.893836      36.893836    
    696000   0.63944468    -7.5135281     -6.5543748      6.074975       50218.233      36.893836      36.893836      36.893836    
    697000   0.63945805    -7.5166325     -6.5574591      6.0430636      50218.233      36.893836      36.893836      36.893836    
    698000   0.64133473    -7.5095342     -6.5475458      6.1012436      50218.233      36.893836      36.893836      36.893836    
    699000   0.64224065    -7.51144       -6.5480927      6.0834335      50218.233      36.893836      36.893836      36.893836    
    700000   0.63993327    -7.5089452     -6.549059       6.1024562      50218.233      36.893836      36.893836      36.893836    
    701000   0.64316293    -7.5072314     -6.5425007      6.1085979      50218.233      36.893836      36.893836      36.893836    
    702000   0.63700182    -7.5088273     -6.5533382      6.0949472      50218.233      36.893836      36.893836      36.893836    
    703000   0.63723414    -7.5082743     -6.5524367      6.1017606      50218.233      36.893836      36.893836      36.893836    
    704000   0.63435854    -7.5096111     -6.5580868      6.0839964      50218.233      36.893836      36.893836      36.893836    
    705000   0.64288907    -7.510437      -6.5461171      6.1040334      50218.233      36.893836      36.893836      36.893836    
    706000   0.64031095    -7.5135971     -6.5531443      6.0560952      50218.233      36.893836      36.893836      36.893836    
    707000   0.64136454    -7.5116118     -6.5495787      6.0826786      50218.233      36.893836      36.893836      36.893836    
    708000   0.63867114    -7.5199769     -6.5619838      6.0199783      50218.233      36.893836      36.893836      36.893836    
    709000   0.64126928    -7.5117003     -6.5498101      6.074892       50218.233      36.893836      36.893836      36.893836    
    710000   0.63923085    -7.5094184     -6.5505857      6.0819746      50218.233      36.893836      36.893836      36.893836    
    711000   0.6396862     -7.5109156     -6.5513999      6.0941659      50218.233      36.893836      36.893836      36.893836    
    712000   0.63984668    -7.5165886     -6.5568323      6.0422272      50218.233      36.893836      36.893836      36.893836    
    713000   0.64122054    -7.5137958     -6.5519787      6.0651453      50218.233      36.893836      36.893836      36.893836    
    714000   0.63936015    -7.5129414     -6.5539148      6.0675224      50218.233      36.893836      36.893836      36.893836    
    715000   0.63954202    -7.5070878     -6.5477884      6.1143701      50218.233      36.893836      36.893836      36.893836    
    716000   0.6369592     -7.5149287     -6.5595035      6.0570155      50218.233      36.893836      36.893836      36.893836    
    717000   0.64195904    -7.512903      -6.5499781      6.0609481      50218.233      36.893836      36.893836      36.893836    
    718000   0.63952325    -7.5075774     -6.5483061      6.1114847      50218.233      36.893836      36.893836      36.893836    
    719000   0.6357011     -7.5078565     -6.5543184      6.1092452      50218.233      36.893836      36.893836      36.893836    
    720000   0.63737046    -7.5106898     -6.5546477      6.089077       50218.233      36.893836      36.893836      36.893836    
    721000   0.64425363    -7.5163956     -6.5500289      6.0522576      50218.233      36.893836      36.893836      36.893836    
    722000   0.64061922    -7.5114097     -6.5504945      6.0905782      50218.233      36.893836      36.893836      36.893836    
    723000   0.63783213    -7.5091129     -6.5523783      6.0982225      50218.233      36.893836      36.893836      36.893836    
    724000   0.63953777    -7.5114774     -6.5521844      6.0835548      50218.233      36.893836      36.893836      36.893836    
    725000   0.64307927    -7.5081783     -6.5435731      6.1135873      50218.233      36.893836      36.893836      36.893836    
    726000   0.63679587    -7.5159732     -6.5607929      6.0368558      50218.233      36.893836      36.893836      36.893836    
    727000   0.63937193    -7.509653      -6.5506087      6.0993763      50218.233      36.893836      36.893836      36.893836    
    728000   0.6406535     -7.5078954     -6.5469288      6.112548       50218.233      36.893836      36.893836      36.893836    
    729000   0.64221682    -7.5058838     -6.5425723      6.1456494      50218.233      36.893836      36.893836      36.893836    
    730000   0.63511791    -7.5092574     -6.5565941      6.0894955      50218.233      36.893836      36.893836      36.893836    
    731000   0.63934696    -7.508093      -6.5490862      6.1198199      50218.233      36.893836      36.893836      36.893836    
    732000   0.64093174    -7.5032784     -6.5418944      6.144718       50218.233      36.893836      36.893836      36.893836    
    733000   0.64259404    -7.5088337     -6.5449563      6.1088077      50218.233      36.893836      36.893836      36.893836    
    734000   0.64244085    -7.5103652     -6.5467176      6.0869589      50218.233      36.893836      36.893836      36.893836    
    735000   0.63893138    -7.5068506     -6.5484672      6.1200615      50218.233      36.893836      36.893836      36.893836    
    736000   0.64457061    -7.5081668     -6.5413246      6.1168621      50218.233      36.893836      36.893836      36.893836    
    737000   0.63871042    -7.5090569     -6.5510049      6.0984263      50218.233      36.893836      36.893836      36.893836    
    738000   0.64105721    -7.5069232     -6.5453511      6.1144186      50218.233      36.893836      36.893836      36.893836    
    739000   0.63840404    -7.5075781     -6.5499857      6.1065714      50218.233      36.893836      36.893836      36.893836    
    740000   0.64095529    -7.5051418     -6.5437225      6.1327692      50218.233      36.893836      36.893836      36.893836    
    741000   0.64163596    -7.5129663     -6.550526       6.0621556      50218.233      36.893836      36.893836      36.893836    
    742000   0.63914691    -7.512222      -6.5535153      6.0845336      50218.233      36.893836      36.893836      36.893836    
    743000   0.63887389    -7.5062659     -6.5479687      6.1278508      50218.233      36.893836      36.893836      36.893836    
    744000   0.63734792    -7.5099189     -6.5539106      6.0868894      50218.233      36.893836      36.893836      36.893836    
    745000   0.63950094    -7.5106848     -6.551447       6.0899519      50218.233      36.893836      36.893836      36.893836    
    746000   0.63987046    -7.5108019     -6.5510099      6.1058202      50218.233      36.893836      36.893836      36.893836    
    747000   0.63825197    -7.5099605     -6.5525961      6.089209       50218.233      36.893836      36.893836      36.893836    
    748000   0.63860096    -7.5090587     -6.5511709      6.0981801      50218.233      36.893836      36.893836      36.893836    
    749000   0.64027909    -7.5104718     -6.5500668      6.0769105      50218.233      36.893836      36.893836      36.893836    
    750000   0.63909366    -7.511857      -6.5532302      6.0777475      50218.233      36.893836      36.893836      36.893836    
    751000   0.63936953    -7.5052589     -6.5462183      6.1193613      50218.233      36.893836      36.893836      36.893836    
    752000   0.6410325     -7.5108837     -6.5493486      6.0915351      50218.233      36.893836      36.893836      36.893836    
    753000   0.63884275    -7.5103928     -6.5521424      6.0778234      50218.233      36.893836      36.893836      36.893836    
    754000   0.64315144    -7.5139074     -6.5491939      6.057113       50218.233      36.893836      36.893836      36.893836    
    755000   0.64328732    -7.508605      -6.5436878      6.1035708      50218.233      36.893836      36.893836      36.893836    
    756000   0.64054865    -7.506141      -6.5453317      6.1213706      50218.233      36.893836      36.893836      36.893836    
    757000   0.64028226    -7.5137312     -6.5533215      6.0660865      50218.233      36.893836      36.893836      36.893836    
    758000   0.6408334     -7.506949      -6.5457125      6.1176184      50218.233      36.893836      36.893836      36.893836    
    759000   0.6430221     -7.5131939     -6.5486745      6.0650454      50218.233      36.893836      36.893836      36.893836    
    760000   0.63941259    -7.507972      -6.5488668      6.1078021      50218.233      36.893836      36.893836      36.893836    
    761000   0.63831387    -7.5114794     -6.5540222      6.0843249      50218.233      36.893836      36.893836      36.893836    
    762000   0.64099066    -7.5105004     -6.5490281      6.0882181      50218.233      36.893836      36.893836      36.893836    
    763000   0.64095325    -7.5022489     -6.5408327      6.1576464      50218.233      36.893836      36.893836      36.893836    
    764000   0.63777316    -7.5106117     -6.5539656      6.0906897      50218.233      36.893836      36.893836      36.893836    
    765000   0.63946419    -7.5114285     -6.5522458      6.0792936      50218.233      36.893836      36.893836      36.893836    
    766000   0.64380412    -7.507614      -6.5419215      6.1151913      50218.233      36.893836      36.893836      36.893836    
    767000   0.63755247    -7.5095502     -6.5532351      6.087268       50218.233      36.893836      36.893836      36.893836    
    768000   0.64494634    -7.5070371     -6.5396314      6.105941       50218.233      36.893836      36.893836      36.893836    
    769000   0.64258655    -7.5054203     -6.5415542      6.1222203      50218.233      36.893836      36.893836      36.893836    
    770000   0.63791754    -7.5128681     -6.5560054      6.0846619      50218.233      36.893836      36.893836      36.893836    
    771000   0.64039912    -7.5088605     -6.5482755      6.1103511      50218.233      36.893836      36.893836      36.893836    
    772000   0.64271183    -7.5108767     -6.5468227      6.0868152      50218.233      36.893836      36.893836      36.893836    
    773000   0.63479683    -7.5120212     -6.5598395      6.0741302      50218.233      36.893836      36.893836      36.893836    
    774000   0.6406484     -7.5048748     -6.5439158      6.1309857      50218.233      36.893836      36.893836      36.893836    
    775000   0.64238315    -7.5100706     -6.5465096      6.0946209      50218.233      36.893836      36.893836      36.893836    
    776000   0.63697529    -7.506936      -6.5514867      6.1005006      50218.233      36.893836      36.893836      36.893836    
    777000   0.64092126    -7.5066351     -6.5452668      6.1213138      50218.233      36.893836      36.893836      36.893836    
    778000   0.63950807    -7.5052309     -6.5459824      6.1349311      50218.233      36.893836      36.893836      36.893836    
    779000   0.63792476    -7.5089609     -6.5520874      6.1017225      50218.233      36.893836      36.893836      36.893836    
    780000   0.64165096    -7.5047606     -6.5422978      6.1407799      50218.233      36.893836      36.893836      36.893836    
    781000   0.63808111    -7.5088067     -6.5516986      6.094522       50218.233      36.893836      36.893836      36.893836    
    782000   0.63702603    -7.5106037     -6.5550782      6.0756946      50218.233      36.893836      36.893836      36.893836    
    783000   0.6393347     -7.5112478     -6.5522593      6.0783659      50218.233      36.893836      36.893836      36.893836    
    784000   0.63970682    -7.5126701     -6.5531235      6.0767365      50218.233      36.893836      36.893836      36.893836    
    785000   0.63894077    -7.5055911     -6.5471936      6.1228612      50218.233      36.893836      36.893836      36.893836    
    786000   0.63945889    -7.5100578     -6.5508831      6.0895202      50218.233      36.893836      36.893836      36.893836    
    787000   0.63752371    -7.5098822     -6.5536103      6.0936733      50218.233      36.893836      36.893836      36.893836    
    788000   0.64251191    -7.512776      -6.5490219      6.0702833      50218.233      36.893836      36.893836      36.893836    
    789000   0.63760476    -7.5143327     -6.5579392      6.0472285      50218.233      36.893836      36.893836      36.893836    
    790000   0.64041396    -7.5125699     -6.5519626      6.0693412      50218.233      36.893836      36.893836      36.893836    
    791000   0.63980097    -7.5068106     -6.5471228      6.1231054      50218.233      36.893836      36.893836      36.893836    
    792000   0.63960302    -7.5084099     -6.549019       6.0843277      50218.233      36.893836      36.893836      36.893836    
    793000   0.64151828    -7.5141665     -6.5519028      6.063724       50218.233      36.893836      36.893836      36.893836    
    794000   0.63895936    -7.5047085     -6.5462831      6.124769       50218.233      36.893836      36.893836      36.893836    
    795000   0.64002774    -7.5151593     -6.5551314      6.0519753      50218.233      36.893836      36.893836      36.893836    
    796000   0.64124246    -7.5089291     -6.5470791      6.0931384      50218.233      36.893836      36.893836      36.893836    
    797000   0.64265633    -7.5108972     -6.5469265      6.0799256      50218.233      36.893836      36.893836      36.893836    
    798000   0.63805517    -7.5061406     -6.5490715      6.1141545      50218.233      36.893836      36.893836      36.893836    
    799000   0.64047696    -7.5077884     -6.5470866      6.109174       50218.233      36.893836      36.893836      36.893836    
    800000   0.63858851    -7.5018683     -6.5439992      6.1489301      50218.233      36.893836      36.893836      36.893836    
    801000   0.6388272     -7.5093954     -6.5511682      6.0880614      50218.233      36.893836      36.893836      36.893836    
    802000   0.6373984     -7.5097258     -6.5536418      6.0855873      50218.233      36.893836      36.893836      36.893836    
    803000   0.64080294    -7.5084105     -6.5472198      6.1098656      50218.233      36.893836      36.893836      36.893836    
    804000   0.64075095    -7.5081494     -6.5470366      6.1142541      50218.233      36.893836      36.893836      36.893836    
    805000   0.63930717    -7.5070731     -6.548126       6.1185388      50218.233      36.893836      36.893836      36.893836    
    806000   0.63872284    -7.5047315     -6.5466609      6.135517       50218.233      36.893836      36.893836      36.893836    
    807000   0.6383435     -7.5006788     -6.5431771      6.1593014      50218.233      36.893836      36.893836      36.893836    
    808000   0.64007087    -7.5143176     -6.554225       6.0633772      50218.233      36.893836      36.893836      36.893836    
    809000   0.64011715    -7.506458      -6.5462959      6.1153574      50218.233      36.893836      36.893836      36.893836    
    810000   0.64405293    -7.5128041     -6.5467385      6.0773795      50218.233      36.893836      36.893836      36.893836    
    811000   0.64119263    -7.5050526     -6.5432773      6.1273794      50218.233      36.893836      36.893836      36.893836    
    812000   0.64179293    -7.5094232     -6.5467475      6.0987594      50218.233      36.893836      36.893836      36.893836    
    813000   0.64190233    -7.5142045     -6.5513647      6.0623139      50218.233      36.893836      36.893836      36.893836    
    814000   0.63632236    -7.5060424     -6.5515724      6.1032752      50218.233      36.893836      36.893836      36.893836    
    815000   0.63918011    -7.510645      -6.5518884      6.0871828      50218.233      36.893836      36.893836      36.893836    
    816000   0.63744722    -7.5107755     -6.5546183      6.0826352      50218.233      36.893836      36.893836      36.893836    
    817000   0.63707132    -7.5146403     -6.5590469      6.0616563      50218.233      36.893836      36.893836      36.893836    
    818000   0.64628055    -7.5128533     -6.5434462      6.0807905      50218.233      36.893836      36.893836      36.893836    
    819000   0.6425156     -7.514384      -6.5506243      6.0554435      50218.233      36.893836      36.893836      36.893836    
    820000   0.64211179    -7.5092155     -6.5460615      6.098216       50218.233      36.893836      36.893836      36.893836    
    821000   0.63980117    -7.5125668     -6.5528787      6.0695282      50218.233      36.893836      36.893836      36.893836    
    822000   0.63673649    -7.5142468     -6.5591557      6.0593879      50218.233      36.893836      36.893836      36.893836    
    823000   0.63980853    -7.5128988     -6.5531997      6.0633901      50218.233      36.893836      36.893836      36.893836    
    824000   0.643115      -7.5111733     -6.5465145      6.0981941      50218.233      36.893836      36.893836      36.893836    
    825000   0.63907212    -7.5061547     -6.5475601      6.1102939      50218.233      36.893836      36.893836      36.893836    
    826000   0.64225723    -7.5133173     -6.5499451      6.0702594      50218.233      36.893836      36.893836      36.893836    
    827000   0.64355744    -7.504846      -6.5395236      6.1359638      50218.233      36.893836      36.893836      36.893836    
    828000   0.64127539    -7.5131153     -6.5512159      6.0800625      50218.233      36.893836      36.893836      36.893836    
    829000   0.63813902    -7.509553      -6.5523581      6.1098623      50218.233      36.893836      36.893836      36.893836    
    830000   0.6442217     -7.5131717     -6.5468529      6.0771743      50218.233      36.893836      36.893836      36.893836    
    831000   0.64088314    -7.5038571     -6.542546       6.1435934      50218.233      36.893836      36.893836      36.893836    
    832000   0.63976644    -7.5134823     -6.5538463      6.0558432      50218.233      36.893836      36.893836      36.893836    
    833000   0.64283774    -7.5127044     -6.5484615      6.0923947      50218.233      36.893836      36.893836      36.893836    
    834000   0.63992304    -7.5160662     -6.5561953      6.0501888      50218.233      36.893836      36.893836      36.893836    
    835000   0.63922748    -7.5118179     -6.5529903      6.0750811      50218.233      36.893836      36.893836      36.893836    
    836000   0.63945429    -7.5132224     -6.5540546      6.0758603      50218.233      36.893836      36.893836      36.893836    
    837000   0.64034159    -7.5105095     -6.5500108      6.0821057      50218.233      36.893836      36.893836      36.893836    
    838000   0.63859392    -7.516347      -6.5584697      6.0551418      50218.233      36.893836      36.893836      36.893836    
    839000   0.63920157    -7.511326      -6.5525373      6.0880082      50218.233      36.893836      36.893836      36.893836    
    840000   0.63767372    -7.5130411     -6.5565441      6.0812076      50218.233      36.893836      36.893836      36.893836    
    841000   0.63954758    -7.5079662     -6.5486584      6.0992822      50218.233      36.893836      36.893836      36.893836    
    842000   0.63803074    -7.5105227     -6.5534902      6.0878077      50218.233      36.893836      36.893836      36.893836    
    843000   0.63975322    -7.5066171     -6.547001       6.1248498      50218.233      36.893836      36.893836      36.893836    
    844000   0.64240885    -7.5133966     -6.5497971      6.0783908      50218.233      36.893836      36.893836      36.893836    
    845000   0.63939606    -7.5133449     -6.5542644      6.0766997      50218.233      36.893836      36.893836      36.893836    
    846000   0.64277111    -7.5127572     -6.5486143      6.0817587      50218.233      36.893836      36.893836      36.893836    
    847000   0.63816154    -7.511159      -6.5539303      6.0790887      50218.233      36.893836      36.893836      36.893836    
    848000   0.64189804    -7.509456      -6.5466226      6.0950525      50218.233      36.893836      36.893836      36.893836    
    849000   0.64128098    -7.5127015     -6.5507937      6.0801754      50218.233      36.893836      36.893836      36.893836    
    850000   0.63929246    -7.5068764     -6.5479513      6.1177324      50218.233      36.893836      36.893836      36.893836    
    851000   0.64104374    -7.5109455     -6.5493935      6.0922864      50218.233      36.893836      36.893836      36.893836    
    852000   0.64283148    -7.5143759     -6.5501424      6.0784606      50218.233      36.893836      36.893836      36.893836    
    853000   0.64272146    -7.5120851     -6.5480166      6.0805502      50218.233      36.893836      36.893836      36.893836    
    854000   0.63854802    -7.5091512     -6.5513428      6.1114946      50218.233      36.893836      36.893836      36.893836    
    855000   0.63881903    -7.5127306     -6.5545157      6.071684       50218.233      36.893836      36.893836      36.893836    
    856000   0.64132517    -7.5120343     -6.5500603      6.0783814      50218.233      36.893836      36.893836      36.893836    
    857000   0.63670758    -7.5074706     -6.5524228      6.1054255      50218.233      36.893836      36.893836      36.893836    
    858000   0.63834646    -7.5108853     -6.5533792      6.094997       50218.233      36.893836      36.893836      36.893836    
    859000   0.63704951    -7.5200344     -6.5644738      6.023671       50218.233      36.893836      36.893836      36.893836    
    860000   0.6412743     -7.5060307     -6.544133       6.1290814      50218.233      36.893836      36.893836      36.893836    
    861000   0.63983871    -7.5144786     -6.5547342      6.0681983      50218.233      36.893836      36.893836      36.893836    
    862000   0.64013793    -7.5074496     -6.5472564      6.1124156      50218.233      36.893836      36.893836      36.893836    
    863000   0.64348603    -7.5148373     -6.5496219      6.0609099      50218.233      36.893836      36.893836      36.893836    
    864000   0.63693388    -7.5177432     -6.5623559      6.0301681      50218.233      36.893836      36.893836      36.893836    
    865000   0.64045384    -7.5094814     -6.5488143      6.106882       50218.233      36.893836      36.893836      36.893836    
    866000   0.63898798    -7.5083857     -6.5499173      6.1052958      50218.233      36.893836      36.893836      36.893836    
    867000   0.64211729    -7.5160175     -6.5528553      6.0426099      50218.233      36.893836      36.893836      36.893836    
    868000   0.63940694    -7.5097999     -6.5507031      6.0932622      50218.233      36.893836      36.893836      36.893836    
    869000   0.6384076     -7.511981      -6.5543833      6.0932587      50218.233      36.893836      36.893836      36.893836    
    870000   0.63903744    -7.5098883     -6.5513458      6.1011629      50218.233      36.893836      36.893836      36.893836    
    871000   0.64031937    -7.5085658     -6.5481004      6.104637       50218.233      36.893836      36.893836      36.893836    
    872000   0.64005663    -7.5106492     -6.5505779      6.1008989      50218.233      36.893836      36.893836      36.893836    
    873000   0.64070487    -7.5127294     -6.5516858      6.081303       50218.233      36.893836      36.893836      36.893836    
    874000   0.64196898    -7.5032171     -6.5402773      6.139675       50218.233      36.893836      36.893836      36.893836    
    875000   0.64125129    -7.5092297     -6.5473665      6.1034247      50218.233      36.893836      36.893836      36.893836    
    876000   0.64234924    -7.5047347     -6.5412245      6.1397734      50218.233      36.893836      36.893836      36.893836    
    877000   0.6390926     -7.5162549     -6.5576296      6.0600645      50218.233      36.893836      36.893836      36.893836    
    878000   0.64019637    -7.5052132     -6.5449324      6.1177749      50218.233      36.893836      36.893836      36.893836    
    879000   0.64011088    -7.513034      -6.5528813      6.0550221      50218.233      36.893836      36.893836      36.893836    
    880000   0.63889448    -7.5056934     -6.5473653      6.1280271      50218.233      36.893836      36.893836      36.893836    
    881000   0.63954714    -7.5113293     -6.5520222      6.0710634      50218.233      36.893836      36.893836      36.893836    
    882000   0.64121041    -7.5056432     -6.5438413      6.1328751      50218.233      36.893836      36.893836      36.893836    
    883000   0.64165404    -7.5113825     -6.5489152      6.0890755      50218.233      36.893836      36.893836      36.893836    
    884000   0.639856      -7.5123873     -6.552617       6.0736592      50218.233      36.893836      36.893836      36.893836    
    885000   0.63643349    -7.511042      -6.5564053      6.0773871      50218.233      36.893836      36.893836      36.893836    
    886000   0.64033954    -7.5081805     -6.5476849      6.1084734      50218.233      36.893836      36.893836      36.893836    
    887000   0.63954571    -7.5034519     -6.5441469      6.1364394      50218.233      36.893836      36.893836      36.893836    
    888000   0.6414734     -7.512138      -6.5499416      6.0843039      50218.233      36.893836      36.893836      36.893836    
    889000   0.64167322    -7.5065709     -6.5440747      6.1153776      50218.233      36.893836      36.893836      36.893836    
    890000   0.63790531    -7.5062086     -6.5493643      6.1174591      50218.233      36.893836      36.893836      36.893836    
    891000   0.63890194    -7.5044122     -6.546073       6.1367864      50218.233      36.893836      36.893836      36.893836    
    892000   0.6370073     -7.5108661     -6.5553687      6.0802487      50218.233      36.893836      36.893836      36.893836    
    893000   0.64205469    -7.5090994     -6.5460311      6.1009681      50218.233      36.893836      36.893836      36.893836    
    894000   0.64221481    -7.5084597     -6.5451512      6.1185445      50218.233      36.893836      36.893836      36.893836    
    895000   0.64004379    -7.5010495     -6.5409975      6.1467829      50218.233      36.893836      36.893836      36.893836    
    896000   0.63781775    -7.5094499     -6.5527369      6.0937911      50218.233      36.893836      36.893836      36.893836    
    897000   0.64121545    -7.5080768     -6.5462673      6.1049508      50218.233      36.893836      36.893836      36.893836    
    898000   0.6410016     -7.5107187     -6.54923        6.0915709      50218.233      36.893836      36.893836      36.893836    
    899000   0.64136473    -7.5106015     -6.5485681      6.0850326      50218.233      36.893836      36.893836      36.893836    
    900000   0.64017069    -7.5080274     -6.5477851      6.1198157      50218.233      36.893836      36.893836      36.893836    
    901000   0.63851893    -7.510191      -6.5524262      6.0854322      50218.233      36.893836      36.893836      36.893836    
    902000   0.64132708    -7.5111232     -6.5491462      6.0981516      50218.233      36.893836      36.893836      36.893836    
    903000   0.64180929    -7.5109929     -6.5482926      6.1011897      50218.233      36.893836      36.893836      36.893836    
    904000   0.64198438    -7.5083541     -6.5453912      6.1139921      50218.233      36.893836      36.893836      36.893836    
    905000   0.64230651    -7.5152891     -6.551843       6.0596389      50218.233      36.893836      36.893836      36.893836    
    906000   0.64003845    -7.5057401     -6.5456961      6.1217354      50218.233      36.893836      36.893836      36.893836    
    907000   0.64106438    -7.5084032     -6.5468203      6.1127586      50218.233      36.893836      36.893836      36.893836    
    908000   0.64192058    -7.511637      -6.5487698      6.087753       50218.233      36.893836      36.893836      36.893836    
    909000   0.63744045    -7.5106426     -6.5544955      6.0817492      50218.233      36.893836      36.893836      36.893836    
    910000   0.63912828    -7.5114996     -6.5528208      6.0838858      50218.233      36.893836      36.893836      36.893836    
    911000   0.64242908    -7.5148666     -6.5512366      6.0596332      50218.233      36.893836      36.893836      36.893836    
    912000   0.64116738    -7.5091711     -6.5474337      6.0974832      50218.233      36.893836      36.893836      36.893836    
    913000   0.6399779     -7.517174      -6.5572208      6.0467656      50218.233      36.893836      36.893836      36.893836    
    914000   0.64074028    -7.5179945     -6.5568977      6.0424049      50218.233      36.893836      36.893836      36.893836    
    915000   0.64161222    -7.5143111     -6.5519065      6.0593881      50218.233      36.893836      36.893836      36.893836    
    916000   0.63927809    -7.5129064     -6.5540029      6.0644869      50218.233      36.893836      36.893836      36.893836    
    917000   0.63915082    -7.5154672     -6.5567546      6.0545068      50218.233      36.893836      36.893836      36.893836    
    918000   0.64101479    -7.5096471     -6.5481386      6.095282       50218.233      36.893836      36.893836      36.893836    
    919000   0.64017779    -7.509869      -6.5496159      6.0953065      50218.233      36.893836      36.893836      36.893836    
    920000   0.64048586    -7.5057426     -6.5450275      6.1313079      50218.233      36.893836      36.893836      36.893836    
    921000   0.63936724    -7.5161311     -6.5570939      6.0365223      50218.233      36.893836      36.893836      36.893836    
    922000   0.6412984     -7.5105452     -6.5486112      6.0861191      50218.233      36.893836      36.893836      36.893836    
    923000   0.64337672    -7.512263      -6.5472116      6.0705827      50218.233      36.893836      36.893836      36.893836    
    924000   0.64241937    -7.5049489     -6.5413336      6.131855       50218.233      36.893836      36.893836      36.893836    
    925000   0.6415782     -7.5108581     -6.5485045      6.0923642      50218.233      36.893836      36.893836      36.893836    
    926000   0.63731702    -7.5088568     -6.5528949      6.1055328      50218.233      36.893836      36.893836      36.893836    
    927000   0.64077367    -7.510131      -6.5489841      6.0901978      50218.233      36.893836      36.893836      36.893836    
    928000   0.63927477    -7.509773      -6.5508745      6.0995236      50218.233      36.893836      36.893836      36.893836    
    929000   0.63855938    -7.5083522     -6.5505268      6.0945442      50218.233      36.893836      36.893836      36.893836    
    930000   0.63886083    -7.5123261     -6.5540485      6.0603915      50218.233      36.893836      36.893836      36.893836    
    931000   0.64062204    -7.5097018     -6.5487824      6.0828441      50218.233      36.893836      36.893836      36.893836    
    932000   0.64004519    -7.5100683     -6.5500141      6.0810142      50218.233      36.893836      36.893836      36.893836    
    933000   0.64150259    -7.5093279     -6.5470877      6.1022213      50218.233      36.893836      36.893836      36.893836    
    934000   0.63978662    -7.5091382     -6.5494719      6.0953109      50218.233      36.893836      36.893836      36.893836    
    935000   0.64022894    -7.5070445     -6.5467147      6.1060828      50218.233      36.893836      36.893836      36.893836    
    936000   0.6415622     -7.5057832     -6.5434535      6.1410879      50218.233      36.893836      36.893836      36.893836    
    937000   0.6383385     -7.5074186     -6.5499244      6.1129209      50218.233      36.893836      36.893836      36.893836    
    938000   0.64273311    -7.5087238     -6.5446379      6.1106952      50218.233      36.893836      36.893836      36.893836    
    939000   0.64319161    -7.5061684     -6.5413947      6.1262152      50218.233      36.893836      36.893836      36.893836    
    940000   0.63984457    -7.5073795     -6.5476263      6.1072299      50218.233      36.893836      36.893836      36.893836    
    941000   0.64058103    -7.5064367     -6.5455788      6.1176447      50218.233      36.893836      36.893836      36.893836    
    942000   0.64341052    -7.5062106     -6.5411085      6.1267222      50218.233      36.893836      36.893836      36.893836    
    943000   0.6392969     -7.510508      -6.5515762      6.0851228      50218.233      36.893836      36.893836      36.893836    
    944000   0.64048492    -7.5032295     -6.5425158      6.1506608      50218.233      36.893836      36.893836      36.893836    
    945000   0.6398788     -7.5073686     -6.5475641      6.1149737      50218.233      36.893836      36.893836      36.893836    
    946000   0.64044275    -7.5022911     -6.5416407      6.1483967      50218.233      36.893836      36.893836      36.893836    
    947000   0.64042728    -7.504972      -6.5443448      6.1284005      50218.233      36.893836      36.893836      36.893836    
    948000   0.63615258    -7.4999433     -6.545728       6.1639452      50218.233      36.893836      36.893836      36.893836    
    949000   0.64042233    -7.5077872     -6.5471674      6.1059745      50218.233      36.893836      36.893836      36.893836    
    950000   0.63470363    -7.5076777     -6.5556358      6.0912372      50218.233      36.893836      36.893836      36.893836    
    951000   0.64276669    -7.5050294     -6.5408931      6.1344745      50218.233      36.893836      36.893836      36.893836    
    952000   0.64050089    -7.5032147     -6.542477       6.1413512      50218.233      36.893836      36.893836      36.893836    
    953000   0.63866073    -7.5047621     -6.5467846      6.130806       50218.233      36.893836      36.893836      36.893836    
    954000   0.64268189    -7.5066004     -6.5425913      6.1276962      50218.233      36.893836      36.893836      36.893836    
    955000   0.64030966    -7.5042895     -6.5438387      6.1349544      50218.233      36.893836      36.893836      36.893836    
    956000   0.63942687    -7.5072527     -6.5481261      6.1116743      50218.233      36.893836      36.893836      36.893836    
    957000   0.64231122    -7.5137384     -6.5502853      6.0782768      50218.233      36.893836      36.893836      36.893836    
    958000   0.6401129     -7.508542      -6.5483863      6.1098549      50218.233      36.893836      36.893836      36.893836    
    959000   0.64235927    -7.5046141     -6.5410889      6.1418828      50218.233      36.893836      36.893836      36.893836    
    960000   0.6416077     -7.5137632     -6.5513653      6.0684362      50218.233      36.893836      36.893836      36.893836    
    961000   0.63938925    -7.5122525     -6.5531823      6.0662416      50218.233      36.893836      36.893836      36.893836    
    962000   0.63614517    -7.508061      -6.5538568      6.0927413      50218.233      36.893836      36.893836      36.893836    
    963000   0.63885341    -7.5036252     -6.5453587      6.1380356      50218.233      36.893836      36.893836      36.893836    
    964000   0.63843655    -7.5088888     -6.5512476      6.0927932      50218.233      36.893836      36.893836      36.893836    
    965000   0.64100386    -7.5110184     -6.5495263      6.0903996      50218.233      36.893836      36.893836      36.893836    
    966000   0.64471267    -7.5061414     -6.5390862      6.1330425      50218.233      36.893836      36.893836      36.893836    
    967000   0.63633596    -7.505333      -6.5508426      6.119726       50218.233      36.893836      36.893836      36.893836    
    968000   0.63854724    -7.5062205     -6.5484133      6.1302446      50218.233      36.893836      36.893836      36.893836    
    969000   0.63984112    -7.5106232     -6.5508752      6.0984744      50218.233      36.893836      36.893836      36.893836    
    970000   0.64017154    -7.506591      -6.5463474      6.109167       50218.233      36.893836      36.893836      36.893836    
    971000   0.63913489    -7.5090347     -6.550346       6.1050755      50218.233      36.893836      36.893836      36.893836    
    972000   0.64242137    -7.5122956     -6.5486772      6.0817522      50218.233      36.893836      36.893836      36.893836    
    973000   0.63947062    -7.514909      -6.5557167      6.0535068      50218.233      36.893836      36.893836      36.893836    
    974000   0.64305451    -7.5145427     -6.5499747      6.0619302      50218.233      36.893836      36.893836      36.893836    
    975000   0.64141464    -7.5046955     -6.5425872      6.1384718      50218.233      36.893836      36.893836      36.893836    
    976000   0.63916978    -7.5085932     -6.5498521      6.1058678      50218.233      36.893836      36.893836      36.893836    
    977000   0.64381831    -7.5047362     -6.5390225      6.1524107      50218.233      36.893836      36.893836      36.893836    
    978000   0.63839409    -7.508429      -6.5508515      6.1073728      50218.233      36.893836      36.893836      36.893836    
    979000   0.6387198     -7.5024109     -6.5443449      6.1465756      50218.233      36.893836      36.893836      36.893836    
    980000   0.64259451    -7.5109837     -6.5471057      6.083711       50218.233      36.893836      36.893836      36.893836    
    981000   0.64211453    -7.5043558     -6.5411977      6.1324613      50218.233      36.893836      36.893836      36.893836    
    982000   0.63878535    -7.5046772     -6.5465128      6.1422978      50218.233      36.893836      36.893836      36.893836    
    983000   0.63989872    -7.5066391     -6.5468046      6.1209588      50218.233      36.893836      36.893836      36.893836    
    984000   0.63530062    -7.5029797     -6.5500423      6.1375444      50218.233      36.893836      36.893836      36.893836    
    985000   0.6381553     -7.5105164     -6.5532971      6.1009955      50218.233      36.893836      36.893836      36.893836    
    986000   0.63815527    -7.5076579     -6.5504386      6.0998791      50218.233      36.893836      36.893836      36.893836    
    987000   0.63825024    -7.5119253     -6.5545636      6.0820381      50218.233      36.893836      36.893836      36.893836    
    988000   0.64132853    -7.5096315     -6.5476523      6.1005313      50218.233      36.893836      36.893836      36.893836    
    989000   0.64265246    -7.5102242     -6.5462592      6.095001       50218.233      36.893836      36.893836      36.893836    
    990000   0.6401427     -7.5110634     -6.5508631      6.0912654      50218.233      36.893836      36.893836      36.893836    
    991000   0.64057476    -7.5138992     -6.5530508      6.0576946      50218.233      36.893836      36.893836      36.893836    
    992000   0.63848368    -7.5150915     -6.5573796      6.048466       50218.233      36.893836      36.893836      36.893836    
    993000   0.63961018    -7.5111499     -6.5517482      6.0813579      50218.233      36.893836      36.893836      36.893836    
    994000   0.63800911    -7.5082005     -6.5512005      6.1055217      50218.233      36.893836      36.893836      36.893836    
    995000   0.64197908    -7.5066226     -6.5436677      6.1304018      50218.233      36.893836      36.893836      36.893836    
    996000   0.6402647     -7.509291      -6.5489076      6.0947667      50218.233      36.893836      36.893836      36.893836    
    997000   0.63888866    -7.5136562     -6.5553369      6.0705344      50218.233      36.893836      36.893836      36.893836    
    998000   0.63938886    -7.5120589     -6.5529892      6.0754335      50218.233      36.893836      36.893836      36.893836    
    999000   0.63850968    -7.5076877     -6.5499368      6.1072833      50218.233      36.893836      36.893836      36.893836    
   1000000   0.63733645    -7.5151797     -6.5591887      6.0537477      50218.233      36.893836      36.893836      36.893836    
Loop time of 1653.99 on 5 procs for 1000000 steps with 70304 atoms

Performance: 522372.080 tau/day, 604.597 timesteps/s, 42.506 Matom-step/s
94.6% CPU use with 5 MPI tasks x 1 OpenMP threads

MPI task timing breakdown:
Section |  min time  |  avg time  |  max time  |%varavg| %total
---------------------------------------------------------------
Pair    | 566.32     | 662.94     | 759.23     | 246.7 | 40.08
Neigh   | 6.0423     | 6.5019     | 6.7044     |   9.6 |  0.39
Comm    | 249.96     | 253.49     | 255.79     |  15.3 | 15.33
Output  | 0.17875    | 0.18619    | 0.20191    |   1.9 |  0.01
Modify  | 546.39     | 643.08     | 736.05     | 248.5 | 38.88
Other   |            | 87.79      |            |       |  5.31

Nlocal:        14060.8 ave       14129 max       14018 min
Histogram: 2 0 0 1 0 1 0 0 0 1
Nghost:        18727.2 ave       18777 max       18672 min
Histogram: 1 0 1 0 0 0 1 1 0 1
Neighs:              0 ave           0 max           0 min
Histogram: 5 0 0 0 0 0 0 0 0 0

Total # of neighbors = 0
Ave neighs/atom = 0
Neighbor list builds = 245324
Dangerous builds = 0
clear
OMP_NUM_THREADS environment is not set. Defaulting to 1 thread. (src/comm.cpp:98)
  using 1 OpenMP thread(s) per MPI task
package gpu 0
jump dms620.lmp

variable T equal 620
# T = 1000* (temp in LJ unit)
variable f equal 1000
log log.${T}
log log.620
