variable TLJ equal (${T}/1000)
variable TLJ equal (420/1000)
variable NCyle equal 10
variable iStep equal (${f})
variable iStep equal (1000)
variable dumpStep equal (${f}*100)
variable dumpStep equal (1000*100)
variable runStep equal (${f}*100*${NCyle})
variable runStep equal (1000*100*${NCyle})
variable runStep equal (1000*100*10)

units       lj
atom_style  atomic
dimension 3
boundary     p p p
pair_style  lj/cut 2.5
read_data  ../data/T${T}.dat
read_data  ../data/T420.dat
Reading data file ...
  orthogonal box = (0.97250269 0.97250269 0.97250269) to (37.866338 37.866338 37.866338)
  1 by 2 by 2 MPI processor grid
  reading atoms ...
  70304 atoms
  reading velocities ...
  70304 velocities
  read_data CPU = 0.189 seconds
change_box all triclinic
Changing box ...
  triclinic box = (0.97250269 0.97250269 0.97250269) to (37.866338 37.866338 37.866338) with tilt (0 0 0)
mass 1 1
mass 2 1
pair_modify shift yes
pair_coeff  1 1 1 1
pair_coeff  1 2 1.5 0.8
pair_coeff  2 2 0.5 0.88


timestep 0.01
thermo ${iStep}
thermo 1000
reset_timestep 0
thermo_style custom step temp pe etotal press vol lx ly lz
fix             1 all nvt temp ${TLJ}  ${TLJ}  0.1
fix             1 all nvt temp 0.42  ${TLJ}  0.1
fix             1 all nvt temp 0.42  0.42  0.1
thermo_modify flush yes

fix dsf all deform 1 xy  wiggle 0.5  ${f}   units box
fix dsf all deform 1 xy  wiggle 0.5  1000   units box
fix ps1 all ave/time 1 1 ${iStep} c_thermo_press[1] c_thermo_press[2]  c_thermo_press[3] c_thermo_press[4]  c_thermo_press[5] c_thermo_press[6]  file  stress.${T}
fix ps1 all ave/time 1 1 1000 c_thermo_press[1] c_thermo_press[2]  c_thermo_press[3] c_thermo_press[4]  c_thermo_press[5] c_thermo_press[6]  file  stress.${T}
fix ps1 all ave/time 1 1 1000 c_thermo_press[1] c_thermo_press[2]  c_thermo_press[3] c_thermo_press[4]  c_thermo_press[5] c_thermo_press[6]  file  stress.420
dump            1 all custom ${dumpStep} dump.${T} id type x y z
dump            1 all custom 100000 dump.${T} id type x y z
dump            1 all custom 100000 dump.420 id type x y z
dump_modify 1 sort id
fix nodrift all momentum 1  linear 1 1 1
fix com_seed all recenter INIT INIT INIT shift all
run ${runStep}
run 1000000
Generated 0 of 1 mixed pair_coeff terms from geometric mixing rule
Per MPI rank memory allocation (min/avg/max) = 8.61 | 8.612 | 8.614 Mbytes
   Step          Temp          PotEng         TotEng         Press          Volume           Lx             Ly             Lz      
         0   0.42008684    -7.965561      -7.3354397      2.4268343      50218.233      36.893836      36.893836      36.893836    
      1000   0.42146064    -7.9578723     -7.3256904      2.4833656      50218.233      36.893836      36.893836      36.893836    
      2000   0.4206263     -7.9576904     -7.32676        2.4904201      50218.233      36.893836      36.893836      36.893836    
      3000   0.41953164    -7.9561654     -7.3268769      2.5076962      50218.233      36.893836      36.893836      36.893836    
      4000   0.41956032    -7.95882       -7.3294885      2.4826015      50218.233      36.893836      36.893836      36.893836    
      5000   0.41989339    -7.9581323     -7.3283012      2.4843961      50218.233      36.893836      36.893836      36.893836    
      6000   0.42175366    -7.9545396     -7.3219181      2.5088487      50218.233      36.893836      36.893836      36.893836    
      7000   0.42192833    -7.954537      -7.3216535      2.5065714      50218.233      36.893836      36.893836      36.893836    
      8000   0.42014122    -7.9558337     -7.3256308      2.5012416      50218.233      36.893836      36.893836      36.893836    
      9000   0.42098485    -7.9584146     -7.3269463      2.4887302      50218.233      36.893836      36.893836      36.893836    
     10000   0.4205236     -7.9541912     -7.3234148      2.5106845      50218.233      36.893836      36.893836      36.893836    
     11000   0.42141343    -7.956391      -7.3242799      2.504367       50218.233      36.893836      36.893836      36.893836    
     12000   0.41988698    -7.9592984     -7.3294769      2.4851672      50218.233      36.893836      36.893836      36.893836    
     13000   0.42021823    -7.9596835     -7.3293652      2.48223        50218.233      36.893836      36.893836      36.893836    
     14000   0.42131177    -7.9556571     -7.3236984      2.5075288      50218.233      36.893836      36.893836      36.893836    
     15000   0.41859607    -7.9554338     -7.3275487      2.4991504      50218.233      36.893836      36.893836      36.893836    
     16000   0.41900089    -7.9578376     -7.3293452      2.4876298      50218.233      36.893836      36.893836      36.893836    
     17000   0.41941413    -7.9557049     -7.3265926      2.5024485      50218.233      36.893836      36.893836      36.893836    
     18000   0.41920898    -7.9570324     -7.3282279      2.4895381      50218.233      36.893836      36.893836      36.893836    
     19000   0.42066819    -7.9531057     -7.3221124      2.5279268      50218.233      36.893836      36.893836      36.893836    
     20000   0.41828395    -7.9559865     -7.3285695      2.4910502      50218.233      36.893836      36.893836      36.893836    
     21000   0.42001252    -7.9534519     -7.3234421      2.5189577      50218.233      36.893836      36.893836      36.893836    
     22000   0.42029927    -7.9565922     -7.3261523      2.4914804      50218.233      36.893836      36.893836      36.893836    
     23000   0.42187647    -7.9550413     -7.3222356      2.5006805      50218.233      36.893836      36.893836      36.893836    
     24000   0.41697129    -7.9545906     -7.3291426      2.5042629      50218.233      36.893836      36.893836      36.893836    
     25000   0.42079343    -7.9538316     -7.3226504      2.5217838      50218.233      36.893836      36.893836      36.893836    
     26000   0.42167087    -7.9571167     -7.3246193      2.4906667      50218.233      36.893836      36.893836      36.893836    
     27000   0.41859748    -7.9558281     -7.3279409      2.5002034      50218.233      36.893836      36.893836      36.893836    
     28000   0.41989927    -7.9564634     -7.3266235      2.4887489      50218.233      36.893836      36.893836      36.893836    
     29000   0.42092298    -7.9546411     -7.3232656      2.5140204      50218.233      36.893836      36.893836      36.893836    
     30000   0.42220194    -7.9558813     -7.3225874      2.5100829      50218.233      36.893836      36.893836      36.893836    
     31000   0.42021355    -7.9560966     -7.3257853      2.4865518      50218.233      36.893836      36.893836      36.893836    
     32000   0.42174712    -7.9512073     -7.3185956      2.5411295      50218.233      36.893836      36.893836      36.893836    
     33000   0.41959416    -7.9577005     -7.3283183      2.4883685      50218.233      36.893836      36.893836      36.893836    
     34000   0.42181962    -7.9562142     -7.3234937      2.4989459      50218.233      36.893836      36.893836      36.893836    
     35000   0.42130393    -7.9571467     -7.3251998      2.4934625      50218.233      36.893836      36.893836      36.893836    
     36000   0.42039039    -7.9572716     -7.326695       2.4864961      50218.233      36.893836      36.893836      36.893836    
     37000   0.42119655    -7.9589084     -7.3271225      2.4859335      50218.233      36.893836      36.893836      36.893836    
     38000   0.4202727     -7.9562778     -7.3258777      2.4954756      50218.233      36.893836      36.893836      36.893836    
     39000   0.41775946    -7.9514662     -7.3248359      2.5308762      50218.233      36.893836      36.893836      36.893836    
     40000   0.42073259    -7.9513342     -7.3202443      2.536654       50218.233      36.893836      36.893836      36.893836    
     41000   0.42214209    -7.9557212     -7.3225171      2.4985901      50218.233      36.893836      36.893836      36.893836    
     42000   0.42015092    -7.9550759     -7.3248585      2.4932303      50218.233      36.893836      36.893836      36.893836    
     43000   0.41746296    -7.9481346     -7.321949       2.5557482      50218.233      36.893836      36.893836      36.893836    
     44000   0.41942086    -7.95644       -7.3273177      2.487491       50218.233      36.893836      36.893836      36.893836    
     45000   0.41993356    -7.9539995     -7.3241081      2.5126948      50218.233      36.893836      36.893836      36.893836    
     46000   0.42237319    -7.9573734     -7.3238226      2.4873999      50218.233      36.893836      36.893836      36.893836    
     47000   0.42099609    -7.957934      -7.3264488      2.4899977      50218.233      36.893836      36.893836      36.893836    
     48000   0.41683679    -7.9580401     -7.3327938      2.4870816      50218.233      36.893836      36.893836      36.893836    
     49000   0.42084662    -7.9560509     -7.3247899      2.4939373      50218.233      36.893836      36.893836      36.893836    
     50000   0.41835352    -7.960362      -7.3328406      2.4638945      50218.233      36.893836      36.893836      36.893836    
     51000   0.41986987    -7.9540452     -7.3242494      2.5151158      50218.233      36.893836      36.893836      36.893836    
     52000   0.41886675    -7.9598694     -7.3315782      2.4824734      50218.233      36.893836      36.893836      36.893836    
     53000   0.41835002    -7.956068      -7.3285519      2.508645       50218.233      36.893836      36.893836      36.893836    
     54000   0.41866514    -7.9551667     -7.3271779      2.4955377      50218.233      36.893836      36.893836      36.893836    
     55000   0.41972839    -7.9564052     -7.3268216      2.5072156      50218.233      36.893836      36.893836      36.893836    
     56000   0.42367773    -7.958223      -7.3227155      2.4821956      50218.233      36.893836      36.893836      36.893836    
     57000   0.42010189    -7.9557819     -7.325638       2.5018828      50218.233      36.893836      36.893836      36.893836    
     58000   0.42226916    -7.956247      -7.3228523      2.5031736      50218.233      36.893836      36.893836      36.893836    
     59000   0.41946931    -7.9599529     -7.3307579      2.4679593      50218.233      36.893836      36.893836      36.893836    
     60000   0.42043229    -7.9569271     -7.3262876      2.4910493      50218.233      36.893836      36.893836      36.893836    
     61000   0.42064194    -7.9556752     -7.3247213      2.5108975      50218.233      36.893836      36.893836      36.893836    
     62000   0.41884048    -7.9573368     -7.329085       2.4857864      50218.233      36.893836      36.893836      36.893836    
     63000   0.4204351     -7.9524305     -7.3217868      2.5315696      50218.233      36.893836      36.893836      36.893836    
     64000   0.42005131    -7.9516966     -7.3216286      2.5359327      50218.233      36.893836      36.893836      36.893836    
     65000   0.42152875    -7.9554726     -7.3231884      2.5101968      50218.233      36.893836      36.893836      36.893836    
     66000   0.418023      -7.9594384     -7.3324128      2.4688425      50218.233      36.893836      36.893836      36.893836    
     67000   0.41870874    -7.9538165     -7.3257623      2.5110252      50218.233      36.893836      36.893836      36.893836    
     68000   0.42091607    -7.9562699     -7.3249048      2.5030245      50218.233      36.893836      36.893836      36.893836    
     69000   0.41920437    -7.9554812     -7.3266836      2.5019623      50218.233      36.893836      36.893836      36.893836    
     70000   0.41862096    -7.9601673     -7.3322448      2.4687586      50218.233      36.893836      36.893836      36.893836    
     71000   0.41923829    -7.9553699     -7.3265214      2.5030097      50218.233      36.893836      36.893836      36.893836    
     72000   0.41980821    -7.9572341     -7.3275308      2.4893069      50218.233      36.893836      36.893836      36.893836    
     73000   0.42126135    -7.9555023     -7.3236193      2.5035444      50218.233      36.893836      36.893836      36.893836    
     74000   0.42028305    -7.9579276     -7.327512       2.4823603      50218.233      36.893836      36.893836      36.893836    
     75000   0.42004038    -7.9563264     -7.3262748      2.4997505      50218.233      36.893836      36.893836      36.893836    
     76000   0.42120025    -7.9551816     -7.3233902      2.5059714      50218.233      36.893836      36.893836      36.893836    
     77000   0.42053565    -7.9543563     -7.3235618      2.5164273      50218.233      36.893836      36.893836      36.893836    
     78000   0.41730036    -7.9563589     -7.3304172      2.4859957      50218.233      36.893836      36.893836      36.893836    
     79000   0.4190882     -7.9547439     -7.3261206      2.5084364      50218.233      36.893836      36.893836      36.893836    
     80000   0.42181879    -7.9555785     -7.3228593      2.50081        50218.233      36.893836      36.893836      36.893836    
     81000   0.42198527    -7.958615      -7.3256461      2.4916075      50218.233      36.893836      36.893836      36.893836    
     82000   0.42117566    -7.9541018     -7.3223473      2.5162679      50218.233      36.893836      36.893836      36.893836    
     83000   0.42250963    -7.9541403     -7.3203848      2.5199764      50218.233      36.893836      36.893836      36.893836    
     84000   0.41824       -7.9552083     -7.3278572      2.5044276      50218.233      36.893836      36.893836      36.893836    
     85000   0.42118044    -7.9562892     -7.3245275      2.4993519      50218.233      36.893836      36.893836      36.893836    
     86000   0.41965069    -7.9553108     -7.3258437      2.5028958      50218.233      36.893836      36.893836      36.893836    
     87000   0.41958405    -7.9579228     -7.3285557      2.4757329      50218.233      36.893836      36.893836      36.893836    
     88000   0.41806355    -7.9546326     -7.3275462      2.5106586      50218.233      36.893836      36.893836      36.893836    
     89000   0.42016415    -7.9559735     -7.3257362      2.4941558      50218.233      36.893836      36.893836      36.893836    
     90000   0.41806035    -7.9547792     -7.3276976      2.5131801      50218.233      36.893836      36.893836      36.893836    
     91000   0.42087703    -7.9582385     -7.3269319      2.4909983      50218.233      36.893836      36.893836      36.893836    
     92000   0.42014539    -7.9568298     -7.3266207      2.4942663      50218.233      36.893836      36.893836      36.893836    
     93000   0.42092253    -7.9590119     -7.3276371      2.4763651      50218.233      36.893836      36.893836      36.893836    
     94000   0.42050482    -7.9571827     -7.3264344      2.4976307      50218.233      36.893836      36.893836      36.893836    
     95000   0.4196709     -7.9546933     -7.3251959      2.5103444      50218.233      36.893836      36.893836      36.893836    
     96000   0.4176662     -7.9558702     -7.3293798      2.4951987      50218.233      36.893836      36.893836      36.893836    
     97000   0.41843322    -7.9590487     -7.3314078      2.4762099      50218.233      36.893836      36.893836      36.893836    
     98000   0.41932649    -7.9553577     -7.3263769      2.5004518      50218.233      36.893836      36.893836      36.893836    
     99000   0.42097942    -7.960547      -7.3290868      2.4642332      50218.233      36.893836      36.893836      36.893836    
    100000   0.41964764    -7.9542035     -7.324741       2.5107225      50218.233      36.893836      36.893836      36.893836    
    101000   0.41824949    -7.9578806     -7.3305152      2.4832412      50218.233      36.893836      36.893836      36.893836    
    102000   0.42004058    -7.9546527     -7.3246008      2.5145175      50218.233      36.893836      36.893836      36.893836    
    103000   0.41923908    -7.9575948     -7.3287452      2.4917011      50218.233      36.893836      36.893836      36.893836    
    104000   0.42159153    -7.9602786     -7.3279003      2.4731734      50218.233      36.893836      36.893836      36.893836    
    105000   0.42063342    -7.9593863     -7.3284451      2.476021       50218.233      36.893836      36.893836      36.893836    
    106000   0.41926405    -7.9567447     -7.3278575      2.4951191      50218.233      36.893836      36.893836      36.893836    
    107000   0.42023171    -7.9589797     -7.3286411      2.4805802      50218.233      36.893836      36.893836      36.893836    
    108000   0.42144829    -7.9581198     -7.3259563      2.4820391      50218.233      36.893836      36.893836      36.893836    
    109000   0.41660492    -7.9550672     -7.3301687      2.4985142      50218.233      36.893836      36.893836      36.893836    
    110000   0.41862978    -7.9556636     -7.3277278      2.5043534      50218.233      36.893836      36.893836      36.893836    
    111000   0.4193771     -7.9550924     -7.3260357      2.4972902      50218.233      36.893836      36.893836      36.893836    
    112000   0.41866846    -7.9534627     -7.3254689      2.5205406      50218.233      36.893836      36.893836      36.893836    
    113000   0.42044842    -7.9583063     -7.3276426      2.480236       50218.233      36.893836      36.893836      36.893836    
    114000   0.41895029    -7.9550993     -7.3266828      2.5005827      50218.233      36.893836      36.893836      36.893836    
    115000   0.4187438     -7.9539229     -7.3258161      2.5068708      50218.233      36.893836      36.893836      36.893836    
    116000   0.4167919     -7.9545035     -7.3293246      2.5046892      50218.233      36.893836      36.893836      36.893836    
    117000   0.41875521    -7.9567036     -7.3285797      2.4937193      50218.233      36.893836      36.893836      36.893836    
    118000   0.41817481    -7.9598963     -7.332643       2.4726118      50218.233      36.893836      36.893836      36.893836    
    119000   0.42102342    -7.9581021     -7.3265759      2.4902939      50218.233      36.893836      36.893836      36.893836    
    120000   0.41896042    -7.9543681     -7.3259364      2.5169445      50218.233      36.893836      36.893836      36.893836    
    121000   0.41981109    -7.9568769     -7.3271692      2.4879918      50218.233      36.893836      36.893836      36.893836    
    122000   0.42252974    -7.9535723     -7.3197867      2.5213808      50218.233      36.893836      36.893836      36.893836    
    123000   0.42105005    -7.9581025     -7.3265364      2.4937321      50218.233      36.893836      36.893836      36.893836    
    124000   0.42173647    -7.9529042     -7.3203085      2.5264781      50218.233      36.893836      36.893836      36.893836    
    125000   0.41871073    -7.9574341     -7.329377       2.4841368      50218.233      36.893836      36.893836      36.893836    
    126000   0.42119185    -7.9563282     -7.3245494      2.4978185      50218.233      36.893836      36.893836      36.893836    
    127000   0.42039928    -7.9564405     -7.3258506      2.4963647      50218.233      36.893836      36.893836      36.893836    
    128000   0.42077416    -7.9580719     -7.3269196      2.4913266      50218.233      36.893836      36.893836      36.893836    
    129000   0.42120837    -7.9543059     -7.3225024      2.5129182      50218.233      36.893836      36.893836      36.893836    
    130000   0.42037087    -7.9584555     -7.3279082      2.4810884      50218.233      36.893836      36.893836      36.893836    
    131000   0.41946576    -7.9548891     -7.3256994      2.5196216      50218.233      36.893836      36.893836      36.893836    
    132000   0.42150068    -7.9565287     -7.3242867      2.49305        50218.233      36.893836      36.893836      36.893836    
    133000   0.41782683    -7.9600962     -7.3333648      2.47035        50218.233      36.893836      36.893836      36.893836    
    134000   0.41880651    -7.9548573     -7.3266565      2.5061613      50218.233      36.893836      36.893836      36.893836    
    135000   0.42168273    -7.9573266     -7.3248115      2.4872888      50218.233      36.893836      36.893836      36.893836    
    136000   0.41969404    -7.9551155     -7.3255834      2.5106486      50218.233      36.893836      36.893836      36.893836    
    137000   0.4211915     -7.9587366     -7.3269584      2.4802416      50218.233      36.893836      36.893836      36.893836    
    138000   0.42007983    -7.9551807     -7.3250699      2.5055514      50218.233      36.893836      36.893836      36.893836    
    139000   0.41862751    -7.9591115     -7.3311791      2.4757616      50218.233      36.893836      36.893836      36.893836    
    140000   0.41971918    -7.9565949     -7.3270251      2.4939481      50218.233      36.893836      36.893836      36.893836    
    141000   0.42210433    -7.9590265     -7.325879       2.4779569      50218.233      36.893836      36.893836      36.893836    
    142000   0.41857848    -7.9560237     -7.3281649      2.5027253      50218.233      36.893836      36.893836      36.893836    
    143000   0.41953744    -7.954655      -7.3253578      2.5043511      50218.233      36.893836      36.893836      36.893836    
    144000   0.42198459    -7.9583694     -7.3254015      2.4847291      50218.233      36.893836      36.893836      36.893836    
    145000   0.41910791    -7.9592174     -7.3305645      2.4718874      50218.233      36.893836      36.893836      36.893836    
    146000   0.41880668    -7.9537499     -7.3255488      2.5168999      50218.233      36.893836      36.893836      36.893836    
    147000   0.42104102    -7.9561353     -7.3245828      2.4990637      50218.233      36.893836      36.893836      36.893836    
    148000   0.41855448    -7.9534663     -7.3256435      2.5154094      50218.233      36.893836      36.893836      36.893836    
    149000   0.42060858    -7.9556981     -7.3247943      2.4848215      50218.233      36.893836      36.893836      36.893836    
    150000   0.41981789    -7.9623526     -7.3326347      2.4508305      50218.233      36.893836      36.893836      36.893836    
    151000   0.42020989    -7.9589786     -7.3286727      2.469036       50218.233      36.893836      36.893836      36.893836    
    152000   0.42120349    -7.9555254     -7.3237291      2.5092291      50218.233      36.893836      36.893836      36.893836    
    153000   0.41785966    -7.954839      -7.3280584      2.5026201      50218.233      36.893836      36.893836      36.893836    
    154000   0.41774242    -7.9581054     -7.3315007      2.4869613      50218.233      36.893836      36.893836      36.893836    
    155000   0.41930111    -7.9569593     -7.3280166      2.4891931      50218.233      36.893836      36.893836      36.893836    
    156000   0.41863619    -7.9596453     -7.3316999      2.4642491      50218.233      36.893836      36.893836      36.893836    
    157000   0.42067264    -7.9516823     -7.3206823      2.5279667      50218.233      36.893836      36.893836      36.893836    
    158000   0.41876424    -7.9553761     -7.3272387      2.4972635      50218.233      36.893836      36.893836      36.893836    
    159000   0.42260197    -7.9526557     -7.3187618      2.5284729      50218.233      36.893836      36.893836      36.893836    
    160000   0.41988789    -7.956888      -7.3270651      2.4931383      50218.233      36.893836      36.893836      36.893836    
    161000   0.42103961    -7.9578178     -7.3262674      2.4898739      50218.233      36.893836      36.893836      36.893836    
    162000   0.41911076    -7.9565742     -7.327917       2.5027806      50218.233      36.893836      36.893836      36.893836    
    163000   0.41617908    -7.9576946     -7.3334349      2.4832304      50218.233      36.893836      36.893836      36.893836    
    164000   0.42223686    -7.9568797     -7.3235335      2.4895925      50218.233      36.893836      36.893836      36.893836    
    165000   0.41897919    -7.9566563     -7.3281964      2.4944588      50218.233      36.893836      36.893836      36.893836    
    166000   0.42162697    -7.9561542     -7.3237227      2.5070671      50218.233      36.893836      36.893836      36.893836    
    167000   0.42214322    -7.9581747     -7.3249689      2.4847679      50218.233      36.893836      36.893836      36.893836    
    168000   0.42136571    -7.955688      -7.3236484      2.4983837      50218.233      36.893836      36.893836      36.893836    
    169000   0.41933461    -7.9568223     -7.3278293      2.4924193      50218.233      36.893836      36.893836      36.893836    
    170000   0.41971886    -7.9522524     -7.3226831      2.5243179      50218.233      36.893836      36.893836      36.893836    
    171000   0.41899665    -7.9526537     -7.3241677      2.5244651      50218.233      36.893836      36.893836      36.893836    
    172000   0.41997905    -7.9563791     -7.3264195      2.4940854      50218.233      36.893836      36.893836      36.893836    
    173000   0.42001765    -7.9544798     -7.3244623      2.5114793      50218.233      36.893836      36.893836      36.893836    
    174000   0.42006293    -7.9605367     -7.3304513      2.4695745      50218.233      36.893836      36.893836      36.893836    
    175000   0.41897882    -7.9549168     -7.3264576      2.5011625      50218.233      36.893836      36.893836      36.893836    
    176000   0.42057101    -7.9542727     -7.3234252      2.512686       50218.233      36.893836      36.893836      36.893836    
    177000   0.41997882    -7.9515529     -7.3215936      2.5223891      50218.233      36.893836      36.893836      36.893836    
    178000   0.42198634    -7.9554461     -7.3224756      2.5133641      50218.233      36.893836      36.893836      36.893836    
    179000   0.42043448    -7.9544127     -7.3237699      2.5079825      50218.233      36.893836      36.893836      36.893836    
    180000   0.42026951    -7.9535509     -7.3231556      2.5222468      50218.233      36.893836      36.893836      36.893836    
    181000   0.42006231    -7.9585556     -7.3284711      2.4864043      50218.233      36.893836      36.893836      36.893836    
    182000   0.42034107    -7.9577606     -7.327258       2.483322       50218.233      36.893836      36.893836      36.893836    
    183000   0.41944443    -7.9565002     -7.3273425      2.4979571      50218.233      36.893836      36.893836      36.893836    
    184000   0.42064786    -7.9575433     -7.3265805      2.4780031      50218.233      36.893836      36.893836      36.893836    
    185000   0.41950204    -7.952907      -7.3236629      2.5207372      50218.233      36.893836      36.893836      36.893836    
    186000   0.422153      -7.9520556     -7.3188351      2.5326066      50218.233      36.893836      36.893836      36.893836    
    187000   0.4218161     -7.9561734     -7.3234582      2.5051668      50218.233      36.893836      36.893836      36.893836    
    188000   0.41995464    -7.9596879     -7.3297649      2.4751355      50218.233      36.893836      36.893836      36.893836    
    189000   0.42074606    -7.9552585     -7.3241484      2.5039583      50218.233      36.893836      36.893836      36.893836    
    190000   0.41995578    -7.955948      -7.3260233      2.4922856      50218.233      36.893836      36.893836      36.893836    
    191000   0.4223566     -7.9543418     -7.3208159      2.5171677      50218.233      36.893836      36.893836      36.893836    
    192000   0.42134286    -7.9582003     -7.326195       2.4767927      50218.233      36.893836      36.893836      36.893836    
    193000   0.42133255    -7.9586832     -7.3266933      2.4883227      50218.233      36.893836      36.893836      36.893836    
    194000   0.41941446    -7.9585626     -7.3294498      2.4715586      50218.233      36.893836      36.893836      36.893836    
    195000   0.42111754    -7.9586716     -7.3270043      2.4855816      50218.233      36.893836      36.893836      36.893836    
    196000   0.41993798    -7.9595197     -7.3296217      2.4879516      50218.233      36.893836      36.893836      36.893836    
    197000   0.41926225    -7.9558447     -7.3269603      2.4953844      50218.233      36.893836      36.893836      36.893836    
    198000   0.41843329    -7.9534791     -7.3258381      2.5201133      50218.233      36.893836      36.893836      36.893836    
    199000   0.41947778    -7.9586216     -7.3294139      2.4873686      50218.233      36.893836      36.893836      36.893836    
    200000   0.41822906    -7.9557979     -7.3284632      2.4980047      50218.233      36.893836      36.893836      36.893836    
    201000   0.42049603    -7.9590831     -7.328348       2.4662583      50218.233      36.893836      36.893836      36.893836    
    202000   0.42131464    -7.9581627     -7.3261998      2.4826489      50218.233      36.893836      36.893836      36.893836    
    203000   0.42021683    -7.959937      -7.3296207      2.4729372      50218.233      36.893836      36.893836      36.893836    
    204000   0.42047024    -7.9538674     -7.323171       2.5091505      50218.233      36.893836      36.893836      36.893836    
    205000   0.41988322    -7.9570533     -7.3272374      2.5004882      50218.233      36.893836      36.893836      36.893836    
    206000   0.41945248    -7.9574206     -7.3282508      2.483394       50218.233      36.893836      36.893836      36.893836    
    207000   0.4187384     -7.9577784     -7.3296798      2.4861795      50218.233      36.893836      36.893836      36.893836    
    208000   0.41955572    -7.9557491     -7.3264245      2.50021        50218.233      36.893836      36.893836      36.893836    
    209000   0.42080946    -7.9555652     -7.32436        2.5046002      50218.233      36.893836      36.893836      36.893836    
    210000   0.41815198    -7.9526534     -7.3254343      2.5191127      50218.233      36.893836      36.893836      36.893836    
    211000   0.42275101    -7.9551504     -7.3210329      2.5175321      50218.233      36.893836      36.893836      36.893836    
    212000   0.41968703    -7.9511162     -7.3215946      2.5332204      50218.233      36.893836      36.893836      36.893836    
    213000   0.42134481    -7.9581334     -7.3261252      2.4736263      50218.233      36.893836      36.893836      36.893836    
    214000   0.42080617    -7.9574335     -7.3262332      2.4873445      50218.233      36.893836      36.893836      36.893836    
    215000   0.41838602    -7.9562045     -7.3286344      2.5008681      50218.233      36.893836      36.893836      36.893836    
    216000   0.42357892    -7.9553898     -7.3200304      2.5094705      50218.233      36.893836      36.893836      36.893836    
    217000   0.41848841    -7.9545497     -7.326826       2.5057476      50218.233      36.893836      36.893836      36.893836    
    218000   0.41958334    -7.9584198     -7.3290538      2.4776028      50218.233      36.893836      36.893836      36.893836    
    219000   0.42394741    -7.9524205     -7.3165085      2.5342591      50218.233      36.893836      36.893836      36.893836    
    220000   0.41903259    -7.9556683     -7.3271283      2.5073547      50218.233      36.893836      36.893836      36.893836    
    221000   0.41838338    -7.9554367     -7.3278706      2.5021848      50218.233      36.893836      36.893836      36.893836    
    222000   0.41989951    -7.9565818     -7.3267415      2.4936088      50218.233      36.893836      36.893836      36.893836    
    223000   0.41980321    -7.954582      -7.3248862      2.5162633      50218.233      36.893836      36.893836      36.893836    
    224000   0.42016842    -7.9553054     -7.3250617      2.5016986      50218.233      36.893836      36.893836      36.893836    
    225000   0.41969107    -7.9558834     -7.3263558      2.4910982      50218.233      36.893836      36.893836      36.893836    
    226000   0.41850897    -7.9527308     -7.3249763      2.5113969      50218.233      36.893836      36.893836      36.893836    
    227000   0.42043992    -7.9551051     -7.3244542      2.5080029      50218.233      36.893836      36.893836      36.893836    
    228000   0.41973697    -7.9553269     -7.3257304      2.5120034      50218.233      36.893836      36.893836      36.893836    
    229000   0.42111687    -7.9552715     -7.3236052      2.5019174      50218.233      36.893836      36.893836      36.893836    
    230000   0.41899663    -7.9540297     -7.3255437      2.516864       50218.233      36.893836      36.893836      36.893836    
    231000   0.42152328    -7.9547575     -7.3224816      2.5089408      50218.233      36.893836      36.893836      36.893836    
    232000   0.42140527    -7.9560824     -7.3239834      2.4978355      50218.233      36.893836      36.893836      36.893836    
    233000   0.41990554    -7.9555695     -7.3257201      2.5021381      50218.233      36.893836      36.893836      36.893836    
    234000   0.41938549    -7.9566206     -7.3275513      2.4897275      50218.233      36.893836      36.893836      36.893836    
    235000   0.4180837     -7.9547477     -7.327631       2.505272       50218.233      36.893836      36.893836      36.893836    
    236000   0.41781732    -7.9563491     -7.3296321      2.4927994      50218.233      36.893836      36.893836      36.893836    
    237000   0.41963176    -7.9568558     -7.3274171      2.4949452      50218.233      36.893836      36.893836      36.893836    
    238000   0.42081369    -7.9537847     -7.3225731      2.5179964      50218.233      36.893836      36.893836      36.893836    
    239000   0.42017869    -7.9545816     -7.3243225      2.5110633      50218.233      36.893836      36.893836      36.893836    
    240000   0.42201973    -7.9570775     -7.3240569      2.4976262      50218.233      36.893836      36.893836      36.893836    
    241000   0.41969027    -7.9561635     -7.326637       2.4939694      50218.233      36.893836      36.893836      36.893836    
    242000   0.42355529    -7.9577031     -7.3223792      2.4976159      50218.233      36.893836      36.893836      36.893836    
    243000   0.42196461    -7.9564724     -7.3235345      2.4937164      50218.233      36.893836      36.893836      36.893836    
    244000   0.42073482    -7.959204      -7.3281108      2.4722184      50218.233      36.893836      36.893836      36.893836    
    245000   0.42030429    -7.9559046     -7.3254571      2.5007592      50218.233      36.893836      36.893836      36.893836    
    246000   0.41983624    -7.9548972     -7.3251518      2.5078242      50218.233      36.893836      36.893836      36.893836    
    247000   0.42156809    -7.9562506     -7.3239074      2.491383       50218.233      36.893836      36.893836      36.893836    
    248000   0.42079216    -7.9555026     -7.3243233      2.5007147      50218.233      36.893836      36.893836      36.893836    
    249000   0.4203108     -7.9565777     -7.3261205      2.4947501      50218.233      36.893836      36.893836      36.893836    
    250000   0.41943472    -7.9589266     -7.3297835      2.4806834      50218.233      36.893836      36.893836      36.893836    
    251000   0.42092563    -7.9587207     -7.3273413      2.4794897      50218.233      36.893836      36.893836      36.893836    
    252000   0.41826648    -7.9566271     -7.3292363      2.4886289      50218.233      36.893836      36.893836      36.893836    
    253000   0.41947561    -7.9572985     -7.328094       2.4895789      50218.233      36.893836      36.893836      36.893836    
    254000   0.42033069    -7.9572827     -7.3267957      2.4915378      50218.233      36.893836      36.893836      36.893836    
    255000   0.42089107    -7.9575686     -7.3262409      2.500822       50218.233      36.893836      36.893836      36.893836    
    256000   0.41929699    -7.95712       -7.3281835      2.4936638      50218.233      36.893836      36.893836      36.893836    
    257000   0.42020996    -7.9534179     -7.3231119      2.5156942      50218.233      36.893836      36.893836      36.893836    
    258000   0.41935035    -7.9577256     -7.328709       2.4868044      50218.233      36.893836      36.893836      36.893836    
    259000   0.41808299    -7.9542159     -7.3271003      2.5102149      50218.233      36.893836      36.893836      36.893836    
    260000   0.41862653    -7.9541246     -7.3261937      2.5208203      50218.233      36.893836      36.893836      36.893836    
    261000   0.41742093    -7.956395      -7.3302725      2.4948205      50218.233      36.893836      36.893836      36.893836    
    262000   0.41967397    -7.9564039     -7.3269019      2.4929373      50218.233      36.893836      36.893836      36.893836    
    263000   0.41811719    -7.9569506     -7.3297837      2.4852179      50218.233      36.893836      36.893836      36.893836    
    264000   0.42014072    -7.959472      -7.3292699      2.4810834      50218.233      36.893836      36.893836      36.893836    
    265000   0.4200089     -7.9563268     -7.3263224      2.4981603      50218.233      36.893836      36.893836      36.893836    
    266000   0.42079521    -7.9526494     -7.3214655      2.5220129      50218.233      36.893836      36.893836      36.893836    
    267000   0.41982957    -7.9548677     -7.3251323      2.5059279      50218.233      36.893836      36.893836      36.893836    
    268000   0.41871755    -7.9566917     -7.3286243      2.4946719      50218.233      36.893836      36.893836      36.893836    
    269000   0.42012065    -7.9572237     -7.3270517      2.4958966      50218.233      36.893836      36.893836      36.893836    
    270000   0.4205407     -7.9549023     -7.3241002      2.5136138      50218.233      36.893836      36.893836      36.893836    
    271000   0.42013899    -7.9557612     -7.3255617      2.4966299      50218.233      36.893836      36.893836      36.893836    
    272000   0.42138555    -7.9562304     -7.3241611      2.499277       50218.233      36.893836      36.893836      36.893836    
    273000   0.41851209    -7.9566361     -7.3288769      2.4982423      50218.233      36.893836      36.893836      36.893836    
    274000   0.41970685    -7.9554923     -7.325941       2.5069732      50218.233      36.893836      36.893836      36.893836    
    275000   0.42102655    -7.9589404     -7.3274096      2.4878222      50218.233      36.893836      36.893836      36.893836    
    276000   0.41797396    -7.9573697     -7.3304177      2.4897159      50218.233      36.893836      36.893836      36.893836    
    277000   0.41801189    -7.9570863     -7.3300774      2.4788934      50218.233      36.893836      36.893836      36.893836    
    278000   0.420519      -7.9573162     -7.3265467      2.4864842      50218.233      36.893836      36.893836      36.893836    
    279000   0.42068516    -7.9590622     -7.3280435      2.4806564      50218.233      36.893836      36.893836      36.893836    
    280000   0.42096489    -7.9563035     -7.3248652      2.4991541      50218.233      36.893836      36.893836      36.893836    
    281000   0.42245513    -7.9591589     -7.3254852      2.4695804      50218.233      36.893836      36.893836      36.893836    
    282000   0.42301644    -7.9530301     -7.3185145      2.5277274      50218.233      36.893836      36.893836      36.893836    
    283000   0.41966187    -7.9551842     -7.3257004      2.502635       50218.233      36.893836      36.893836      36.893836    
    284000   0.42072447    -7.9554145     -7.3243368      2.5034949      50218.233      36.893836      36.893836      36.893836    
    285000   0.41983467    -7.955737      -7.3259939      2.4859805      50218.233      36.893836      36.893836      36.893836    
    286000   0.41727152    -7.9577644     -7.331866       2.4870029      50218.233      36.893836      36.893836      36.893836    
    287000   0.42247794    -7.9600424     -7.3263345      2.4746907      50218.233      36.893836      36.893836      36.893836    
    288000   0.42019236    -7.9564897     -7.3262101      2.4969932      50218.233      36.893836      36.893836      36.893836    
    289000   0.41949235    -7.9576625     -7.3284329      2.4854988      50218.233      36.893836      36.893836      36.893836    
    290000   0.42191543    -7.957088      -7.3242239      2.4832534      50218.233      36.893836      36.893836      36.893836    
    291000   0.42138924    -7.9549291     -7.3228542      2.5008822      50218.233      36.893836      36.893836      36.893836    
    292000   0.42084305    -7.9551178     -7.3238622      2.514484       50218.233      36.893836      36.893836      36.893836    
    293000   0.41869553    -7.9565137     -7.3284793      2.4940364      50218.233      36.893836      36.893836      36.893836    
    294000   0.42348605    -7.9558824     -7.3206624      2.5103896      50218.233      36.893836      36.893836      36.893836    
    295000   0.42117452    -7.9597877     -7.3280349      2.4616626      50218.233      36.893836      36.893836      36.893836    
    296000   0.41977765    -7.9567103     -7.3270528      2.4991757      50218.233      36.893836      36.893836      36.893836    
    297000   0.42118626    -7.9558227     -7.3240522      2.5038118      50218.233      36.893836      36.893836      36.893836    
    298000   0.42154977    -7.9622404     -7.3299248      2.4631801      50218.233      36.893836      36.893836      36.893836    
    299000   0.42089548    -7.9612622     -7.3299279      2.4623446      50218.233      36.893836      36.893836      36.893836    
    300000   0.42055347    -7.9573851     -7.3265639      2.4911293      50218.233      36.893836      36.893836      36.893836    
    301000   0.42183647    -7.9594368     -7.3266911      2.4634754      50218.233      36.893836      36.893836      36.893836    
    302000   0.42048282    -7.9611016     -7.3303864      2.46073        50218.233      36.893836      36.893836      36.893836    
    303000   0.42047067    -7.9584307     -7.3277336      2.4747591      50218.233      36.893836      36.893836      36.893836    
    304000   0.42117353    -7.9563514     -7.3246001      2.5053245      50218.233      36.893836      36.893836      36.893836    
    305000   0.42018354    -7.9551941     -7.3249278      2.502685       50218.233      36.893836      36.893836      36.893836    
    306000   0.42078323    -7.9544008     -7.323235       2.5152821      50218.233      36.893836      36.893836      36.893836    
    307000   0.41960114    -7.9556163     -7.3262236      2.5018586      50218.233      36.893836      36.893836      36.893836    
    308000   0.41943495    -7.9582872     -7.3291437      2.4744913      50218.233      36.893836      36.893836      36.893836    
    309000   0.42261865    -7.9562105     -7.3222915      2.4913878      50218.233      36.893836      36.893836      36.893836    
    310000   0.41954961    -7.9593934     -7.3300779      2.4706026      50218.233      36.893836      36.893836      36.893836    
    311000   0.42131794    -7.9580586     -7.3260907      2.4803844      50218.233      36.893836      36.893836      36.893836    
    312000   0.42176617    -7.9569069     -7.3242666      2.4945725      50218.233      36.893836      36.893836      36.893836    
    313000   0.41895223    -7.9539455     -7.325526       2.5193254      50218.233      36.893836      36.893836      36.893836    
    314000   0.42108681    -7.9554905     -7.3238693      2.5014478      50218.233      36.893836      36.893836      36.893836    
    315000   0.42059608    -7.9610771     -7.3301919      2.4674994      50218.233      36.893836      36.893836      36.893836    
    316000   0.4194628     -7.9536907     -7.3245055      2.5246877      50218.233      36.893836      36.893836      36.893836    
    317000   0.42041194    -7.9556605     -7.3250515      2.5077226      50218.233      36.893836      36.893836      36.893836    
    318000   0.42109127    -7.9550513     -7.3234234      2.5077961      50218.233      36.893836      36.893836      36.893836    
    319000   0.42218182    -7.9548286     -7.3215649      2.5160283      50218.233      36.893836      36.893836      36.893836    
    320000   0.42227676    -7.9533747     -7.3199686      2.5267277      50218.233      36.893836      36.893836      36.893836    
    321000   0.41957086    -7.9558659     -7.3265186      2.5087119      50218.233      36.893836      36.893836      36.893836    
    322000   0.42049022    -7.9531322     -7.3224059      2.5194588      50218.233      36.893836      36.893836      36.893836    
    323000   0.42033123    -7.9572867     -7.3267989      2.4990397      50218.233      36.893836      36.893836      36.893836    
    324000   0.41894338    -7.9537861     -7.3253799      2.519597       50218.233      36.893836      36.893836      36.893836    
    325000   0.41916533    -7.9563538     -7.3276147      2.5010433      50218.233      36.893836      36.893836      36.893836    
    326000   0.41863248    -7.9572182     -7.3292785      2.4838444      50218.233      36.893836      36.893836      36.893836    
    327000   0.4193187     -7.955894      -7.3269249      2.51108        50218.233      36.893836      36.893836      36.893836    
    328000   0.42086552    -7.9557224     -7.3244331      2.5098056      50218.233      36.893836      36.893836      36.893836    
    329000   0.41898606    -7.9568912     -7.328421       2.494859       50218.233      36.893836      36.893836      36.893836    
    330000   0.42107092    -7.9581377     -7.3265403      2.4819948      50218.233      36.893836      36.893836      36.893836    
    331000   0.41964311    -7.9549362     -7.3254805      2.4999189      50218.233      36.893836      36.893836      36.893836    
    332000   0.41806042    -7.9565809     -7.3294992      2.4936341      50218.233      36.893836      36.893836      36.893836    
    333000   0.42101231    -7.9569323     -7.3254228      2.4982653      50218.233      36.893836      36.893836      36.893836    
    334000   0.41667384    -7.9548096     -7.3298077      2.5114619      50218.233      36.893836      36.893836      36.893836    
    335000   0.42162274    -7.9576802     -7.3252551      2.4895527      50218.233      36.893836      36.893836      36.893836    
    336000   0.42262479    -7.9578011     -7.3238729      2.4909088      50218.233      36.893836      36.893836      36.893836    
    337000   0.42132226    -7.9587506     -7.3267762      2.4870624      50218.233      36.893836      36.893836      36.893836    
    338000   0.41788973    -7.9578102     -7.3309845      2.4730201      50218.233      36.893836      36.893836      36.893836    
    339000   0.42022283    -7.956257      -7.3259318      2.4867158      50218.233      36.893836      36.893836      36.893836    
    340000   0.42003169    -7.9572327     -7.3271941      2.4876575      50218.233      36.893836      36.893836      36.893836    
    341000   0.41861454    -7.9547099     -7.326797       2.5095764      50218.233      36.893836      36.893836      36.893836    
    342000   0.42034706    -7.9600916     -7.3295799      2.4627587      50218.233      36.893836      36.893836      36.893836    
    343000   0.42160145    -7.9576365     -7.3252433      2.4880418      50218.233      36.893836      36.893836      36.893836    
    344000   0.41929322    -7.9569439     -7.328013       2.48623        50218.233      36.893836      36.893836      36.893836    
    345000   0.41980611    -7.959491      -7.3297908      2.4759867      50218.233      36.893836      36.893836      36.893836    
    346000   0.4201324     -7.954965      -7.3247754      2.5196324      50218.233      36.893836      36.893836      36.893836    
    347000   0.41941024    -7.9581673     -7.3290608      2.4746922      50218.233      36.893836      36.893836      36.893836    
    348000   0.41936859    -7.9559834     -7.3269394      2.5007684      50218.233      36.893836      36.893836      36.893836    
    349000   0.42114462    -7.9550366     -7.3233286      2.5103889      50218.233      36.893836      36.893836      36.893836    
    350000   0.41938901    -7.957189      -7.3281145      2.4785739      50218.233      36.893836      36.893836      36.893836    
    351000   0.42120356    -7.9588921     -7.3270957      2.4753532      50218.233      36.893836      36.893836      36.893836    
    352000   0.4184261     -7.9579768     -7.3303466      2.4805337      50218.233      36.893836      36.893836      36.893836    
    353000   0.4185128     -7.9567569     -7.3289967      2.4947099      50218.233      36.893836      36.893836      36.893836    
    354000   0.41962124    -7.9593609     -7.329938       2.4727032      50218.233      36.893836      36.893836      36.893836    
    355000   0.42102243    -7.960759      -7.3292344      2.4623454      50218.233      36.893836      36.893836      36.893836    
    356000   0.42093196    -7.9579484     -7.3265594      2.4850233      50218.233      36.893836      36.893836      36.893836    
    357000   0.42037654    -7.9556907     -7.3251349      2.5054316      50218.233      36.893836      36.893836      36.893836    
    358000   0.41975079    -7.9564652     -7.3268479      2.4908504      50218.233      36.893836      36.893836      36.893836    
    359000   0.42028906    -7.9609528     -7.3305281      2.4681139      50218.233      36.893836      36.893836      36.893836    
    360000   0.41951043    -7.9563847     -7.327128       2.5015806      50218.233      36.893836      36.893836      36.893836    
    361000   0.41904666    -7.9569878     -7.3284267      2.4815629      50218.233      36.893836      36.893836      36.893836    
    362000   0.42210312    -7.9527701     -7.3196244      2.5338346      50218.233      36.893836      36.893836      36.893836    
    363000   0.4186187     -7.9589867     -7.3310675      2.4838933      50218.233      36.893836      36.893836      36.893836    
    364000   0.41854728    -7.9580743     -7.3302623      2.4844095      50218.233      36.893836      36.893836      36.893836    
    365000   0.41941783    -7.9557782     -7.3266604      2.5068267      50218.233      36.893836      36.893836      36.893836    
    366000   0.41912638    -7.9552306     -7.32655        2.503949       50218.233      36.893836      36.893836      36.893836    
    367000   0.42128341    -7.9538445     -7.3219283      2.5173926      50218.233      36.893836      36.893836      36.893836    
    368000   0.41770319    -7.9547627     -7.3282169      2.4984236      50218.233      36.893836      36.893836      36.893836    
    369000   0.42012674    -7.958188      -7.3280069      2.4847663      50218.233      36.893836      36.893836      36.893836    
    370000   0.41970663    -7.9553017     -7.3257507      2.4995039      50218.233      36.893836      36.893836      36.893836    
    371000   0.41866629    -7.9565955     -7.328605       2.4866729      50218.233      36.893836      36.893836      36.893836    
    372000   0.41941739    -7.9545132     -7.3253961      2.5109974      50218.233      36.893836      36.893836      36.893836    
    373000   0.41962602    -7.95966       -7.33023        2.4728462      50218.233      36.893836      36.893836      36.893836    
    374000   0.41958244    -7.9523921     -7.3230274      2.5379574      50218.233      36.893836      36.893836      36.893836    
    375000   0.41943333    -7.9548366     -7.3256956      2.5040779      50218.233      36.893836      36.893836      36.893836    
    376000   0.41762125    -7.960166      -7.333743       2.4676121      50218.233      36.893836      36.893836      36.893836    
    377000   0.41844961    -7.9555878     -7.3279223      2.5070793      50218.233      36.893836      36.893836      36.893836    
    378000   0.4184567     -7.9560339     -7.3283578      2.4932691      50218.233      36.893836      36.893836      36.893836    
    379000   0.42030363    -7.9556804     -7.3252339      2.5002187      50218.233      36.893836      36.893836      36.893836    
    380000   0.42001439    -7.9559588     -7.3259462      2.5029283      50218.233      36.893836      36.893836      36.893836    
    381000   0.42019727    -7.9550434     -7.3247565      2.5148705      50218.233      36.893836      36.893836      36.893836    
    382000   0.41955089    -7.9567617     -7.3274443      2.4925205      50218.233      36.893836      36.893836      36.893836    
    383000   0.42095696    -7.9550128     -7.3235864      2.504434       50218.233      36.893836      36.893836      36.893836    
    384000   0.42306653    -7.9541553     -7.3195645      2.5188404      50218.233      36.893836      36.893836      36.893836    
    385000   0.4193523     -7.9571227     -7.3281032      2.4907724      50218.233      36.893836      36.893836      36.893836    
    386000   0.41989447    -7.9592964     -7.3294637      2.4849159      50218.233      36.893836      36.893836      36.893836    
    387000   0.41906958    -7.9594245     -7.330829       2.4721246      50218.233      36.893836      36.893836      36.893836    
    388000   0.41936453    -7.9577145     -7.3286767      2.4902486      50218.233      36.893836      36.893836      36.893836    
    389000   0.42174237    -7.9575366     -7.3249321      2.4924254      50218.233      36.893836      36.893836      36.893836    
    390000   0.42017564    -7.9573696     -7.3271151      2.4907061      50218.233      36.893836      36.893836      36.893836    
    391000   0.42052767    -7.9611368     -7.3303543      2.4742616      50218.233      36.893836      36.893836      36.893836    
    392000   0.41957452    -7.9565844     -7.3272316      2.4904932      50218.233      36.893836      36.893836      36.893836    
    393000   0.41904751    -7.9580892     -7.3295269      2.4899416      50218.233      36.893836      36.893836      36.893836    
    394000   0.41863433    -7.9579368     -7.3299942      2.4825002      50218.233      36.893836      36.893836      36.893836    
    395000   0.41915592    -7.9564412     -7.3277163      2.4929722      50218.233      36.893836      36.893836      36.893836    
    396000   0.42144668    -7.9565574     -7.3243964      2.4913187      50218.233      36.893836      36.893836      36.893836    
    397000   0.42137299    -7.9558302     -7.3237797      2.5034064      50218.233      36.893836      36.893836      36.893836    
    398000   0.4186851     -7.9587387     -7.33072        2.4861105      50218.233      36.893836      36.893836      36.893836    
    399000   0.41884164    -7.9602367     -7.3319832      2.4687697      50218.233      36.893836      36.893836      36.893836    
    400000   0.42059605    -7.9561452     -7.3252601      2.5002279      50218.233      36.893836      36.893836      36.893836    
    401000   0.41987737    -7.9586301     -7.328823       2.4736601      50218.233      36.893836      36.893836      36.893836    
    402000   0.41993402    -7.9586329     -7.3287409      2.4823514      50218.233      36.893836      36.893836      36.893836    
    403000   0.4200241     -7.9550131     -7.3249859      2.5014845      50218.233      36.893836      36.893836      36.893836    
    404000   0.41917316    -7.9567831     -7.3280323      2.4961068      50218.233      36.893836      36.893836      36.893836    
    405000   0.42041649    -7.9556694     -7.3250537      2.5092559      50218.233      36.893836      36.893836      36.893836    
    406000   0.4176019     -7.9578117     -7.3314178      2.477079       50218.233      36.893836      36.893836      36.893836    
    407000   0.42257766    -7.9571697     -7.3233122      2.496537       50218.233      36.893836      36.893836      36.893836    
    408000   0.4176529     -7.956233      -7.3297625      2.4978395      50218.233      36.893836      36.893836      36.893836    
    409000   0.42085554    -7.9587023     -7.3274279      2.4841029      50218.233      36.893836      36.893836      36.893836    
    410000   0.42076194    -7.9538156     -7.3226817      2.5274352      50218.233      36.893836      36.893836      36.893836    
    411000   0.42050613    -7.9534581     -7.3227079      2.5207984      50218.233      36.893836      36.893836      36.893836    
    412000   0.41809527    -7.9567574     -7.3296234      2.4865724      50218.233      36.893836      36.893836      36.893836    
    413000   0.41866332    -7.9537636     -7.3257775      2.521812       50218.233      36.893836      36.893836      36.893836    
    414000   0.41982993    -7.957532      -7.327796       2.4810519      50218.233      36.893836      36.893836      36.893836    
    415000   0.42049936    -7.9580563     -7.3273163      2.4837315      50218.233      36.893836      36.893836      36.893836    
    416000   0.41994255    -7.9563559     -7.3264511      2.4931285      50218.233      36.893836      36.893836      36.893836    
    417000   0.42306408    -7.9581556     -7.3235686      2.4876143      50218.233      36.893836      36.893836      36.893836    
    418000   0.41781851    -7.9548241     -7.3281052      2.5095973      50218.233      36.893836      36.893836      36.893836    
    419000   0.41935954    -7.9575409     -7.3285106      2.4799983      50218.233      36.893836      36.893836      36.893836    
    420000   0.41885879    -7.9564781     -7.3281989      2.4958829      50218.233      36.893836      36.893836      36.893836    
    421000   0.42109901    -7.9569042     -7.3252647      2.4937203      50218.233      36.893836      36.893836      36.893836    
    422000   0.4180851     -7.9572544     -7.3301357      2.4814596      50218.233      36.893836      36.893836      36.893836    
    423000   0.42029431    -7.9565686     -7.3261361      2.5023317      50218.233      36.893836      36.893836      36.893836    
    424000   0.42012963    -7.9576906     -7.3275051      2.4899209      50218.233      36.893836      36.893836      36.893836    
    425000   0.42130955    -7.9533375     -7.3213821      2.533064       50218.233      36.893836      36.893836      36.893836    
    426000   0.4219563     -7.9576529     -7.3247274      2.4838287      50218.233      36.893836      36.893836      36.893836    
    427000   0.42139743    -7.9582456     -7.3261585      2.4771716      50218.233      36.893836      36.893836      36.893836    
    428000   0.42009529    -7.9545642     -7.3244302      2.5059004      50218.233      36.893836      36.893836      36.893836    
    429000   0.42221433    -7.9563125     -7.323          2.4923086      50218.233      36.893836      36.893836      36.893836    
    430000   0.42109439    -7.9563474     -7.3247147      2.5003788      50218.233      36.893836      36.893836      36.893836    
    431000   0.42140809    -7.9544361     -7.322333       2.5041063      50218.233      36.893836      36.893836      36.893836    
    432000   0.41920711    -7.9580296     -7.3292279      2.4808846      50218.233      36.893836      36.893836      36.893836    
    433000   0.42059523    -7.9564348     -7.325551       2.4936455      50218.233      36.893836      36.893836      36.893836    
    434000   0.41975424    -7.9587595     -7.329137       2.4698478      50218.233      36.893836      36.893836      36.893836    
    435000   0.41891699    -7.955712      -7.3273454      2.494629       50218.233      36.893836      36.893836      36.893836    
    436000   0.41993471    -7.9566389     -7.3267458      2.4999519      50218.233      36.893836      36.893836      36.893836    
    437000   0.42036487    -7.9604        -7.3298617      2.4609457      50218.233      36.893836      36.893836      36.893836    
    438000   0.42135935    -7.9593175     -7.3272875      2.4833146      50218.233      36.893836      36.893836      36.893836    
    439000   0.41909273    -7.9547545     -7.3261244      2.5025394      50218.233      36.893836      36.893836      36.893836    
    440000   0.42019762    -7.9592474     -7.32896        2.4768176      50218.233      36.893836      36.893836      36.893836    
    441000   0.4175672     -7.9577097     -7.3313678      2.4858955      50218.233      36.893836      36.893836      36.893836    
    442000   0.4198647     -7.9558618     -7.3260737      2.5107868      50218.233      36.893836      36.893836      36.893836    
    443000   0.42068186    -7.9597214     -7.3287076      2.4759551      50218.233      36.893836      36.893836      36.893836    
    444000   0.42131446    -7.9580195     -7.3260568      2.4789537      50218.233      36.893836      36.893836      36.893836    
    445000   0.42073953    -7.9575625     -7.3264622      2.486461       50218.233      36.893836      36.893836      36.893836    
    446000   0.41979462    -7.9543872     -7.3247043      2.5038428      50218.233      36.893836      36.893836      36.893836    
    447000   0.41942019    -7.9597746     -7.3306533      2.4699685      50218.233      36.893836      36.893836      36.893836    
    448000   0.42030486    -7.9575238     -7.3270755      2.4842066      50218.233      36.893836      36.893836      36.893836    
    449000   0.41942884    -7.958628      -7.3294937      2.4750317      50218.233      36.893836      36.893836      36.893836    
    450000   0.42083099    -7.9553456     -7.3241081      2.5067721      50218.233      36.893836      36.893836      36.893836    
    451000   0.41979125    -7.9550124     -7.3253344      2.5075779      50218.233      36.893836      36.893836      36.893836    
    452000   0.42182197    -7.9540486     -7.3213246      2.5198264      50218.233      36.893836      36.893836      36.893836    
    453000   0.42036768    -7.9564638     -7.3259212      2.5030758      50218.233      36.893836      36.893836      36.893836    
    454000   0.42101655    -7.9566989     -7.325183       2.4974547      50218.233      36.893836      36.893836      36.893836    
    455000   0.42093383    -7.9584753     -7.3270836      2.4815621      50218.233      36.893836      36.893836      36.893836    
    456000   0.41913436    -7.9560079     -7.3273153      2.4979236      50218.233      36.893836      36.893836      36.893836    
    457000   0.41874578    -7.9556426     -7.3275329      2.5010929      50218.233      36.893836      36.893836      36.893836    
    458000   0.41984594    -7.9540115     -7.3242516      2.5116161      50218.233      36.893836      36.893836      36.893836    
    459000   0.4201211     -7.9582251     -7.3280524      2.4788484      50218.233      36.893836      36.893836      36.893836    
    460000   0.41868261    -7.9578173     -7.3298024      2.4832986      50218.233      36.893836      36.893836      36.893836    
    461000   0.42092826    -7.9572343     -7.3258509      2.4921305      50218.233      36.893836      36.893836      36.893836    
    462000   0.42081747    -7.9549251     -7.3237079      2.5179615      50218.233      36.893836      36.893836      36.893836    
    463000   0.42156181    -7.9580635     -7.3257297      2.4842193      50218.233      36.893836      36.893836      36.893836    
    464000   0.41891425    -7.9576911     -7.3293286      2.4826982      50218.233      36.893836      36.893836      36.893836    
    465000   0.41960891    -7.9569915     -7.3275871      2.4987842      50218.233      36.893836      36.893836      36.893836    
    466000   0.41628441    -7.9567853     -7.3323676      2.492704       50218.233      36.893836      36.893836      36.893836    
    467000   0.41997485    -7.9577866     -7.3278333      2.4981126      50218.233      36.893836      36.893836      36.893836    
    468000   0.41861145    -7.9600463     -7.332138       2.4724594      50218.233      36.893836      36.893836      36.893836    
    469000   0.41895835    -7.952495      -7.3240665      2.5266992      50218.233      36.893836      36.893836      36.893836    
    470000   0.41790391    -7.9558094     -7.3289625      2.4925831      50218.233      36.893836      36.893836      36.893836    
    471000   0.41872548    -7.9572994     -7.3292201      2.4851647      50218.233      36.893836      36.893836      36.893836    
    472000   0.42072037    -7.955275      -7.3242034      2.5100036      50218.233      36.893836      36.893836      36.893836    
    473000   0.42028733    -7.9570102     -7.3265882      2.4896554      50218.233      36.893836      36.893836      36.893836    
    474000   0.42129052    -7.9572252     -7.3252984      2.4849854      50218.233      36.893836      36.893836      36.893836    
    475000   0.42112628    -7.9549977     -7.3233173      2.5089594      50218.233      36.893836      36.893836      36.893836    
    476000   0.42132721    -7.9581315     -7.3261497      2.488956       50218.233      36.893836      36.893836      36.893836    
    477000   0.42118993    -7.953111      -7.3213351      2.5231474      50218.233      36.893836      36.893836      36.893836    
    478000   0.42205103    -7.9585785     -7.3255109      2.481373       50218.233      36.893836      36.893836      36.893836    
    479000   0.41979162    -7.9571472     -7.3274687      2.4951835      50218.233      36.893836      36.893836      36.893836    
    480000   0.41856321    -7.9566279     -7.328792       2.4869051      50218.233      36.893836      36.893836      36.893836    
    481000   0.41682831    -7.9590234     -7.3337898      2.4661903      50218.233      36.893836      36.893836      36.893836    
    482000   0.42116076    -7.9562446     -7.3245124      2.4975762      50218.233      36.893836      36.893836      36.893836    
    483000   0.42304688    -7.957875      -7.3233137      2.4900597      50218.233      36.893836      36.893836      36.893836    
    484000   0.41857159    -7.9575973     -7.3297489      2.4823718      50218.233      36.893836      36.893836      36.893836    
    485000   0.41992244    -7.9588611     -7.3289864      2.4770049      50218.233      36.893836      36.893836      36.893836    
    486000   0.4197836     -7.9589858     -7.3293194      2.4725725      50218.233      36.893836      36.893836      36.893836    
    487000   0.41901386    -7.9570465     -7.3285346      2.5000526      50218.233      36.893836      36.893836      36.893836    
    488000   0.41792711    -7.9583045     -7.3314227      2.4805962      50218.233      36.893836      36.893836      36.893836    
    489000   0.42053477    -7.9579883     -7.3271952      2.4831275      50218.233      36.893836      36.893836      36.893836    
    490000   0.42017056    -7.9565924     -7.3263455      2.4968707      50218.233      36.893836      36.893836      36.893836    
    491000   0.41978989    -7.9591842     -7.3295083      2.4712669      50218.233      36.893836      36.893836      36.893836    
    492000   0.41976692    -7.9557892     -7.3261477      2.5129049      50218.233      36.893836      36.893836      36.893836    
    493000   0.41989464    -7.955515      -7.325682       2.5019659      50218.233      36.893836      36.893836      36.893836    
    494000   0.41841266    -7.9555257     -7.3279157      2.5006456      50218.233      36.893836      36.893836      36.893836    
    495000   0.41966956    -7.9567227     -7.3272273      2.4924448      50218.233      36.893836      36.893836      36.893836    
    496000   0.41773463    -7.9552337     -7.3286407      2.5048169      50218.233      36.893836      36.893836      36.893836    
    497000   0.41866994    -7.9592462     -7.3312502      2.4666716      50218.233      36.893836      36.893836      36.893836    
    498000   0.41873131    -7.9601637     -7.3320757      2.4622537      50218.233      36.893836      36.893836      36.893836    
    499000   0.42065157    -7.9530299     -7.3220615      2.5184429      50218.233      36.893836      36.893836      36.893836    
    500000   0.41920366    -7.9576202     -7.3288237      2.4906982      50218.233      36.893836      36.893836      36.893836    
    501000   0.41890509    -7.954392      -7.3260433      2.5116172      50218.233      36.893836      36.893836      36.893836    
    502000   0.42074415    -7.957589      -7.3264818      2.4767725      50218.233      36.893836      36.893836      36.893836    
    503000   0.42183362    -7.9588572     -7.3261158      2.4762828      50218.233      36.893836      36.893836      36.893836    
    504000   0.41837355    -7.9559651     -7.3284137      2.4991751      50218.233      36.893836      36.893836      36.893836    
    505000   0.41835082    -7.955516      -7.3279987      2.4997834      50218.233      36.893836      36.893836      36.893836    
    506000   0.42312552    -7.959525      -7.3248458      2.4817141      50218.233      36.893836      36.893836      36.893836    
    507000   0.42290896    -7.9572174     -7.322863       2.4912476      50218.233      36.893836      36.893836      36.893836    
    508000   0.42084085    -7.9569065     -7.3256542      2.4874726      50218.233      36.893836      36.893836      36.893836    
    509000   0.41882448    -7.9580719     -7.3298441      2.4809971      50218.233      36.893836      36.893836      36.893836    
    510000   0.4201564     -7.9559304     -7.3257047      2.503624       50218.233      36.893836      36.893836      36.893836    
    511000   0.41712632    -7.9569316     -7.331251       2.4935934      50218.233      36.893836      36.893836      36.893836    
    512000   0.4197668     -7.9550615     -7.3254203      2.5002755      50218.233      36.893836      36.893836      36.893836    
    513000   0.42180251    -7.9576703     -7.3249755      2.4840224      50218.233      36.893836      36.893836      36.893836    
    514000   0.42075211    -7.9583405     -7.3272213      2.4883715      50218.233      36.893836      36.893836      36.893836    
    515000   0.4210227     -7.9544175     -7.3228925      2.5128272      50218.233      36.893836      36.893836      36.893836    
    516000   0.42047277    -7.9579344     -7.3272342      2.4962106      50218.233      36.893836      36.893836      36.893836    
    517000   0.41998633    -7.9536454     -7.3236749      2.5105947      50218.233      36.893836      36.893836      36.893836    
    518000   0.41865794    -7.9553438     -7.3273658      2.5067372      50218.233      36.893836      36.893836      36.893836    
    519000   0.42017843    -7.9594865     -7.3292278      2.4759071      50218.233      36.893836      36.893836      36.893836    
    520000   0.419964      -7.9529892     -7.3230521      2.5266014      50218.233      36.893836      36.893836      36.893836    
    521000   0.42024223    -7.9552858     -7.3249314      2.5048738      50218.233      36.893836      36.893836      36.893836    
    522000   0.42072643    -7.9554982     -7.3244175      2.5119654      50218.233      36.893836      36.893836      36.893836    
    523000   0.42103362    -7.9590847     -7.3275433      2.4770822      50218.233      36.893836      36.893836      36.893836    
    524000   0.42127077    -7.9577467     -7.3258495      2.4863911      50218.233      36.893836      36.893836      36.893836    
    525000   0.41896697    -7.9548437     -7.3264022      2.502674       50218.233      36.893836      36.893836      36.893836    
    526000   0.41971246    -7.9530427     -7.323483       2.5233044      50218.233      36.893836      36.893836      36.893836    
    527000   0.42168692    -7.9591604     -7.3266391      2.4828667      50218.233      36.893836      36.893836      36.893836    
    528000   0.41937765    -7.9565907     -7.3275331      2.4986976      50218.233      36.893836      36.893836      36.893836    
    529000   0.41938223    -7.956348      -7.3272836      2.4937133      50218.233      36.893836      36.893836      36.893836    
    530000   0.42168801    -7.9590294     -7.3265063      2.4717752      50218.233      36.893836      36.893836      36.893836    
    531000   0.42099567    -7.9570388     -7.3255543      2.4927737      50218.233      36.893836      36.893836      36.893836    
    532000   0.42031247    -7.957081      -7.3266212      2.4919876      50218.233      36.893836      36.893836      36.893836    
    533000   0.42214376    -7.957951      -7.3247444      2.4930808      50218.233      36.893836      36.893836      36.893836    
    534000   0.42001264    -7.9597042     -7.3296942      2.4783128      50218.233      36.893836      36.893836      36.893836    
    535000   0.41967953    -7.9587472     -7.3292369      2.474727       50218.233      36.893836      36.893836      36.893836    
    536000   0.42228975    -7.9594145     -7.3259889      2.4811592      50218.233      36.893836      36.893836      36.893836    
    537000   0.42162146    -7.9564513     -7.3240281      2.5006367      50218.233      36.893836      36.893836      36.893836    
    538000   0.42064435    -7.9580993     -7.3271418      2.4853183      50218.233      36.893836      36.893836      36.893836    
    539000   0.42202588    -7.9595509     -7.3265211      2.4822253      50218.233      36.893836      36.893836      36.893836    
    540000   0.41926044    -7.9551957     -7.326314       2.5099925      50218.233      36.893836      36.893836      36.893836    
    541000   0.41846993    -7.957599      -7.329903       2.4812819      50218.233      36.893836      36.893836      36.893836    
    542000   0.41766357    -7.9567895     -7.330303       2.4926859      50218.233      36.893836      36.893836      36.893836    
    543000   0.41965245    -7.958249      -7.3287793      2.4758136      50218.233      36.893836      36.893836      36.893836    
    544000   0.42093805    -7.9563113     -7.3249132      2.4955063      50218.233      36.893836      36.893836      36.893836    
    545000   0.41993326    -7.9584609     -7.3285699      2.4801424      50218.233      36.893836      36.893836      36.893836    
    546000   0.42043851    -7.9580535     -7.3274047      2.482574       50218.233      36.893836      36.893836      36.893836    
    547000   0.41871405    -7.9626963     -7.3346342      2.4457959      50218.233      36.893836      36.893836      36.893836    
    548000   0.41999599    -7.9592528     -7.3292678      2.4723679      50218.233      36.893836      36.893836      36.893836    
    549000   0.41997016    -7.9583841     -7.3284378      2.4771262      50218.233      36.893836      36.893836      36.893836    
    550000   0.42082675    -7.9566925     -7.3254614      2.4927425      50218.233      36.893836      36.893836      36.893836    
    551000   0.4207933     -7.9586954     -7.3275144      2.4763888      50218.233      36.893836      36.893836      36.893836    
    552000   0.42085508    -7.9536017     -7.3223281      2.5220085      50218.233      36.893836      36.893836      36.893836    
    553000   0.42071826    -7.961627      -7.3305586      2.4577747      50218.233      36.893836      36.893836      36.893836    
    554000   0.42001238    -7.9597426     -7.329733       2.4713739      50218.233      36.893836      36.893836      36.893836    
    555000   0.42044662    -7.9575088     -7.3268478      2.4935181      50218.233      36.893836      36.893836      36.893836    
    556000   0.41949668    -7.955339      -7.326103       2.5089509      50218.233      36.893836      36.893836      36.893836    
    557000   0.42185853    -7.9584867     -7.3257079      2.4821877      50218.233      36.893836      36.893836      36.893836    
    558000   0.42076604    -7.9585446     -7.3274045      2.4841297      50218.233      36.893836      36.893836      36.893836    
    559000   0.41792466    -7.95619       -7.329312       2.5036985      50218.233      36.893836      36.893836      36.893836    
    560000   0.42064872    -7.9559858     -7.3250217      2.5074127      50218.233      36.893836      36.893836      36.893836    
    561000   0.42006813    -7.9567913     -7.3266981      2.4906395      50218.233      36.893836      36.893836      36.893836    
    562000   0.42131093    -7.9577765     -7.3258191      2.4817957      50218.233      36.893836      36.893836      36.893836    
    563000   0.41689232    -7.9561482     -7.3308186      2.4938223      50218.233      36.893836      36.893836      36.893836    
    564000   0.42144343    -7.9547984     -7.3226423      2.5135885      50218.233      36.893836      36.893836      36.893836    
    565000   0.41824614    -7.9550606     -7.3277003      2.4988615      50218.233      36.893836      36.893836      36.893836    
    566000   0.4201681     -7.9564655     -7.3262223      2.4941447      50218.233      36.893836      36.893836      36.893836    
    567000   0.41951251    -7.9524934     -7.3232336      2.5282945      50218.233      36.893836      36.893836      36.893836    
    568000   0.41958307    -7.959275      -7.3299094      2.4757373      50218.233      36.893836      36.893836      36.893836    
    569000   0.42182468    -7.9560342     -7.3233062      2.5029396      50218.233      36.893836      36.893836      36.893836    
    570000   0.4202483     -7.9562082     -7.3258447      2.4934707      50218.233      36.893836      36.893836      36.893836    
    571000   0.4171239     -7.9556432     -7.3299662      2.5109387      50218.233      36.893836      36.893836      36.893836    
    572000   0.42047558    -7.953697      -7.3229926      2.5157975      50218.233      36.893836      36.893836      36.893836    
    573000   0.42008684    -7.9599017     -7.3297804      2.4643952      50218.233      36.893836      36.893836      36.893836    
    574000   0.42169878    -7.9533418     -7.3208026      2.5235811      50218.233      36.893836      36.893836      36.893836    
    575000   0.42007606    -7.9566365     -7.3265314      2.4982358      50218.233      36.893836      36.893836      36.893836    
    576000   0.41871736    -7.9566229     -7.3285558      2.5007396      50218.233      36.893836      36.893836      36.893836    
    577000   0.42037461    -7.9569407     -7.3263878      2.4874774      50218.233      36.893836      36.893836      36.893836    
    578000   0.42191761    -7.9558665     -7.3229991      2.49561        50218.233      36.893836      36.893836      36.893836    
    579000   0.42127016    -7.9567675     -7.3248712      2.4863597      50218.233      36.893836      36.893836      36.893836    
    580000   0.42067911    -7.9560751     -7.3250655      2.4885358      50218.233      36.893836      36.893836      36.893836    
    581000   0.41696854    -7.9564159     -7.330972       2.4912832      50218.233      36.893836      36.893836      36.893836    
    582000   0.41840657    -7.9579673     -7.3303664      2.4827111      50218.233      36.893836      36.893836      36.893836    
    583000   0.41831011    -7.9547152     -7.327259       2.5077962      50218.233      36.893836      36.893836      36.893836    
    584000   0.42055272    -7.953842      -7.3230219      2.5204027      50218.233      36.893836      36.893836      36.893836    
    585000   0.4187445     -7.9576959     -7.3295881      2.493969       50218.233      36.893836      36.893836      36.893836    
    586000   0.4209664     -7.9605795     -7.3291389      2.4706544      50218.233      36.893836      36.893836      36.893836    
    587000   0.41835931    -7.955288      -7.3277579      2.4947281      50218.233      36.893836      36.893836      36.893836    
    588000   0.41764639    -7.9556709     -7.3292102      2.4860516      50218.233      36.893836      36.893836      36.893836    
    589000   0.41863952    -7.956273      -7.3283227      2.5003905      50218.233      36.893836      36.893836      36.893836    
    590000   0.42107727    -7.9540912     -7.3224842      2.5167433      50218.233      36.893836      36.893836      36.893836    
    591000   0.42109824    -7.9579605     -7.3263222      2.4840154      50218.233      36.893836      36.893836      36.893836    
    592000   0.42021431    -7.957337      -7.3270245      2.4864617      50218.233      36.893836      36.893836      36.893836    
    593000   0.41987335    -7.9540641     -7.3242631      2.5186871      50218.233      36.893836      36.893836      36.893836    
    594000   0.42053817    -7.9573676     -7.3265694      2.4892346      50218.233      36.893836      36.893836      36.893836    
    595000   0.41943283    -7.9580162     -7.3288759      2.4777308      50218.233      36.893836      36.893836      36.893836    
    596000   0.42108467    -7.959095      -7.327477       2.4764739      50218.233      36.893836      36.893836      36.893836    
    597000   0.42103612    -7.9553259     -7.3237807      2.4993854      50218.233      36.893836      36.893836      36.893836    
    598000   0.41939511    -7.9579977     -7.328914       2.4962708      50218.233      36.893836      36.893836      36.893836    
    599000   0.41760298    -7.9556725     -7.329277       2.4936695      50218.233      36.893836      36.893836      36.893836    
    600000   0.41972959    -7.9564811     -7.3268957      2.4961662      50218.233      36.893836      36.893836      36.893836    
    601000   0.41843505    -7.9619303     -7.3342866      2.4511753      50218.233      36.893836      36.893836      36.893836    
    602000   0.42174579    -7.9577028     -7.3250931      2.478963       50218.233      36.893836      36.893836      36.893836    
    603000   0.42065095    -7.9565312     -7.3255637      2.4880566      50218.233      36.893836      36.893836      36.893836    
    604000   0.41840324    -7.9573267     -7.3297307      2.4790368      50218.233      36.893836      36.893836      36.893836    
    605000   0.42143968    -7.9591429     -7.3269924      2.4781167      50218.233      36.893836      36.893836      36.893836    
    606000   0.41754636    -7.9561367     -7.329826       2.4822846      50218.233      36.893836      36.893836      36.893836    
    607000   0.41914205    -7.9583099     -7.3296057      2.4778121      50218.233      36.893836      36.893836      36.893836    
    608000   0.41987227    -7.9570874     -7.327288       2.497398       50218.233      36.893836      36.893836      36.893836    
    609000   0.41954278    -7.9563636     -7.3270583      2.4913552      50218.233      36.893836      36.893836      36.893836    
    610000   0.42038319    -7.9527884     -7.3222226      2.5282021      50218.233      36.893836      36.893836      36.893836    
    611000   0.42235577    -7.9589974     -7.3254727      2.4862885      50218.233      36.893836      36.893836      36.893836    
    612000   0.42025837    -7.9575933     -7.3272147      2.4937298      50218.233      36.893836      36.893836      36.893836    
    613000   0.42079744    -7.9597953     -7.3286081      2.4639269      50218.233      36.893836      36.893836      36.893836    
    614000   0.42050836    -7.9554884     -7.3247349      2.4953201      50218.233      36.893836      36.893836      36.893836    
    615000   0.4192498     -7.9556881     -7.3268223      2.4997471      50218.233      36.893836      36.893836      36.893836    
    616000   0.41845962    -7.956728      -7.3290475      2.4941594      50218.233      36.893836      36.893836      36.893836    
    617000   0.41950148    -7.955531      -7.3262878      2.4986545      50218.233      36.893836      36.893836      36.893836    
    618000   0.42138937    -7.9535767     -7.3215016      2.5276816      50218.233      36.893836      36.893836      36.893836    
    619000   0.42050696    -7.957065      -7.3263135      2.4955885      50218.233      36.893836      36.893836      36.893836    
    620000   0.42062794    -7.9578152     -7.3268822      2.48125        50218.233      36.893836      36.893836      36.893836    
    621000   0.41979811    -7.9576588     -7.3279706      2.4914626      50218.233      36.893836      36.893836      36.893836    
    622000   0.41944459    -7.9581372     -7.3289793      2.4822363      50218.233      36.893836      36.893836      36.893836    
    623000   0.42091329    -7.9562146     -7.3248536      2.507392       50218.233      36.893836      36.893836      36.893836    
    624000   0.42175653    -7.9585641     -7.3259383      2.4801976      50218.233      36.893836      36.893836      36.893836    
    625000   0.41876251    -7.9543581     -7.3262233      2.5168342      50218.233      36.893836      36.893836      36.893836    
    626000   0.4220791     -7.9568085     -7.3236989      2.5003339      50218.233      36.893836      36.893836      36.893836    
    627000   0.42122688    -7.9533613     -7.3215299      2.5157086      50218.233      36.893836      36.893836      36.893836    
    628000   0.41951988    -7.9564861     -7.3272152      2.497717       50218.233      36.893836      36.893836      36.893836    
    629000   0.42130158    -7.9564322     -7.3244889      2.4986438      50218.233      36.893836      36.893836      36.893836    
    630000   0.42154912    -7.9569854     -7.3246707      2.4935253      50218.233      36.893836      36.893836      36.893836    
    631000   0.42080468    -7.9547777     -7.3235796      2.5128638      50218.233      36.893836      36.893836      36.893836    
    632000   0.42076038    -7.9583221     -7.3271905      2.4894289      50218.233      36.893836      36.893836      36.893836    
    633000   0.42147081    -7.9560479     -7.3238506      2.5123147      50218.233      36.893836      36.893836      36.893836    
    634000   0.41991051    -7.9561032     -7.3262464      2.4975598      50218.233      36.893836      36.893836      36.893836    
    635000   0.41900408    -7.9540191     -7.3255219      2.5142658      50218.233      36.893836      36.893836      36.893836    
    636000   0.42032159    -7.9537192     -7.3232457      2.5205923      50218.233      36.893836      36.893836      36.893836    
    637000   0.42014457    -7.9610354     -7.3308275      2.4597892      50218.233      36.893836      36.893836      36.893836    
    638000   0.41945202    -7.9559846     -7.3268155      2.4912698      50218.233      36.893836      36.893836      36.893836    
    639000   0.42059298    -7.9539194     -7.3230389      2.5233901      50218.233      36.893836      36.893836      36.893836    
    640000   0.41916143    -7.9535025     -7.3247693      2.5210128      50218.233      36.893836      36.893836      36.893836    
    641000   0.42107039    -7.9563962     -7.3247996      2.4979993      50218.233      36.893836      36.893836      36.893836    
    642000   0.41948643    -7.9562046     -7.326984       2.5040285      50218.233      36.893836      36.893836      36.893836    
    643000   0.42065187    -7.9540641     -7.3230953      2.5154967      50218.233      36.893836      36.893836      36.893836    
    644000   0.4207791     -7.9570306     -7.325871       2.4950037      50218.233      36.893836      36.893836      36.893836    
    645000   0.42182337    -7.9555814     -7.3228553      2.5056763      50218.233      36.893836      36.893836      36.893836    
    646000   0.41823348    -7.9599578     -7.3326165      2.4681061      50218.233      36.893836      36.893836      36.893836    
    647000   0.42094834    -7.9593674     -7.3279539      2.4681361      50218.233      36.893836      36.893836      36.893836    
    648000   0.420638      -7.9587484     -7.3278004      2.4909177      50218.233      36.893836      36.893836      36.893836    
    649000   0.42044563    -7.960031      -7.3293715      2.472663       50218.233      36.893836      36.893836      36.893836    
    650000   0.42069942    -7.9596794     -7.3286393      2.4797978      50218.233      36.893836      36.893836      36.893836    
    651000   0.41982264    -7.9571534     -7.3274284      2.4928859      50218.233      36.893836      36.893836      36.893836    
    652000   0.41868428    -7.9572827     -7.3292652      2.4839664      50218.233      36.893836      36.893836      36.893836    
    653000   0.41883389    -7.9557653     -7.3275234      2.4976673      50218.233      36.893836      36.893836      36.893836    
    654000   0.42022966    -7.9623506     -7.3320151      2.455685       50218.233      36.893836      36.893836      36.893836    
    655000   0.41995576    -7.9571917     -7.327267       2.4889949      50218.233      36.893836      36.893836      36.893836    
    656000   0.42050941    -7.9539222     -7.323167       2.5098717      50218.233      36.893836      36.893836      36.893836    
    657000   0.42191271    -7.9591091     -7.326249       2.4818203      50218.233      36.893836      36.893836      36.893836    
    658000   0.41807571    -7.9587177     -7.3316131      2.4790523      50218.233      36.893836      36.893836      36.893836    
    659000   0.42133204    -7.9563548     -7.3243657      2.4979198      50218.233      36.893836      36.893836      36.893836    
    660000   0.41889305    -7.9612015     -7.3328708      2.4595521      50218.233      36.893836      36.893836      36.893836    
    661000   0.42136916    -7.9564315     -7.3243868      2.5116413      50218.233      36.893836      36.893836      36.893836    
    662000   0.42013049    -7.9559044     -7.3257176      2.5000163      50218.233      36.893836      36.893836      36.893836    
    663000   0.41932685    -7.9535654     -7.324584       2.527476       50218.233      36.893836      36.893836      36.893836    
    664000   0.41795618    -7.9560927     -7.3291673      2.4976035      50218.233      36.893836      36.893836      36.893836    
    665000   0.41730164    -7.954066      -7.3281225      2.5101832      50218.233      36.893836      36.893836      36.893836    
    666000   0.42203514    -7.9571182     -7.3240745      2.5008188      50218.233      36.893836      36.893836      36.893836    
    667000   0.41978522    -7.9581765     -7.3285076      2.4847463      50218.233      36.893836      36.893836      36.893836    
    668000   0.42229602    -7.9536973     -7.3202623      2.5288234      50218.233      36.893836      36.893836      36.893836    
    669000   0.4195621     -7.9589184     -7.3295842      2.4797146      50218.233      36.893836      36.893836      36.893836    
    670000   0.41985847    -7.9609701     -7.3311913      2.4585744      50218.233      36.893836      36.893836      36.893836    
    671000   0.42144963    -7.9554332     -7.3232678      2.5000112      50218.233      36.893836      36.893836      36.893836    
    672000   0.42134312    -7.9561679     -7.3241622      2.5003527      50218.233      36.893836      36.893836      36.893836    
    673000   0.42014486    -7.9568554     -7.3266471      2.5000904      50218.233      36.893836      36.893836      36.893836    
    674000   0.41992259    -7.956878      -7.3270031      2.4908679      50218.233      36.893836      36.893836      36.893836    
    675000   0.41948024    -7.9562733     -7.3270619      2.4962718      50218.233      36.893836      36.893836      36.893836    
    676000   0.42112193    -7.9578067     -7.3261328      2.4860014      50218.233      36.893836      36.893836      36.893836    
    677000   0.41982224    -7.9577776     -7.3280532      2.4870712      50218.233      36.893836      36.893836      36.893836    
    678000   0.41814743    -7.9573077     -7.3300955      2.4921123      50218.233      36.893836      36.893836      36.893836    
    679000   0.41949       -7.9548698     -7.3256438      2.5045573      50218.233      36.893836      36.893836      36.893836    
    680000   0.4186511     -7.9527669     -7.3247992      2.5180707      50218.233      36.893836      36.893836      36.893836    
    681000   0.41994618    -7.9554193     -7.325509       2.5040116      50218.233      36.893836      36.893836      36.893836    
    682000   0.42000591    -7.9542377     -7.3242378      2.5048315      50218.233      36.893836      36.893836      36.893836    
    683000   0.41825047    -7.9537073     -7.3263405      2.5119679      50218.233      36.893836      36.893836      36.893836    
    684000   0.41667322    -7.9562791     -7.3312782      2.5059736      50218.233      36.893836      36.893836      36.893836    
    685000   0.41778709    -7.9568406     -7.3301689      2.4990078      50218.233      36.893836      36.893836      36.893836    
    686000   0.42075235    -7.9548773     -7.3237578      2.5038147      50218.233      36.893836      36.893836      36.893836    
    687000   0.42017353    -7.9526946     -7.3224433      2.5197966      50218.233      36.893836      36.893836      36.893836    
    688000   0.41813856    -7.9595065     -7.3323076      2.4685671      50218.233      36.893836      36.893836      36.893836    
    689000   0.41802015    -7.954511      -7.3274897      2.5129847      50218.233      36.893836      36.893836      36.893836    
    690000   0.41933084    -7.9550338     -7.3260465      2.5086879      50218.233      36.893836      36.893836      36.893836    
    691000   0.419873      -7.9599211     -7.3301206      2.4738651      50218.233      36.893836      36.893836      36.893836    
    692000   0.41949993    -7.9555166     -7.3262757      2.5190334      50218.233      36.893836      36.893836      36.893836    
    693000   0.4180436     -7.9586789     -7.3316224      2.4790189      50218.233      36.893836      36.893836      36.893836    
    694000   0.42109853    -7.9570158     -7.325377       2.5000358      50218.233      36.893836      36.893836      36.893836    
    695000   0.42227281    -7.9582249     -7.3248247      2.4916604      50218.233      36.893836      36.893836      36.893836    
    696000   0.4193349     -7.9571701     -7.3281767      2.4813986      50218.233      36.893836      36.893836      36.893836    
    697000   0.42195259    -7.9553683     -7.3224485      2.5115764      50218.233      36.893836      36.893836      36.893836    
    698000   0.41749889    -7.9586375     -7.3323981      2.4733452      50218.233      36.893836      36.893836      36.893836    
    699000   0.41946814    -7.9576923     -7.3284991      2.4832922      50218.233      36.893836      36.893836      36.893836    
    700000   0.41871962    -7.9597219     -7.3316514      2.4636431      50218.233      36.893836      36.893836      36.893836    
    701000   0.42148432    -7.9596531     -7.3274357      2.4704833      50218.233      36.893836      36.893836      36.893836    
    702000   0.41909617    -7.9593966     -7.3307613      2.4703863      50218.233      36.893836      36.893836      36.893836    
    703000   0.41929956    -7.955445      -7.3265046      2.5044243      50218.233      36.893836      36.893836      36.893836    
    704000   0.42154429    -7.9555618     -7.3232543      2.5046832      50218.233      36.893836      36.893836      36.893836    
    705000   0.41941979    -7.9594412     -7.3303205      2.4756262      50218.233      36.893836      36.893836      36.893836    
    706000   0.41912745    -7.9564056     -7.3277234      2.4897823      50218.233      36.893836      36.893836      36.893836    
    707000   0.41784533    -7.9573962     -7.3306371      2.4881026      50218.233      36.893836      36.893836      36.893836    
    708000   0.41963047    -7.9591564     -7.3297196      2.4625543      50218.233      36.893836      36.893836      36.893836    
    709000   0.42177167    -7.9561706     -7.3235221      2.4948567      50218.233      36.893836      36.893836      36.893836    
    710000   0.42035439    -7.9572705     -7.3267479      2.4917992      50218.233      36.893836      36.893836      36.893836    
    711000   0.42072928    -7.9501145     -7.3190296      2.5465277      50218.233      36.893836      36.893836      36.893836    
    712000   0.42054427    -7.9591664     -7.328359       2.4860949      50218.233      36.893836      36.893836      36.893836    
    713000   0.42040031    -7.9567935     -7.326202       2.4946569      50218.233      36.893836      36.893836      36.893836    
    714000   0.42021981    -7.9580817     -7.327761       2.4827422      50218.233      36.893836      36.893836      36.893836    
    715000   0.41890274    -7.9598183     -7.3314732      2.4680518      50218.233      36.893836      36.893836      36.893836    
    716000   0.41983853    -7.9578835     -7.3281346      2.4982362      50218.233      36.893836      36.893836      36.893836    
    717000   0.42140469    -7.9550741     -7.3229761      2.4991965      50218.233      36.893836      36.893836      36.893836    
    718000   0.4194406     -7.9539267     -7.3247747      2.5129379      50218.233      36.893836      36.893836      36.893836    
    719000   0.42035076    -7.9535437     -7.3230265      2.5159103      50218.233      36.893836      36.893836      36.893836    
    720000   0.41990848    -7.9586173     -7.3287635      2.4889726      50218.233      36.893836      36.893836      36.893836    
    721000   0.42122314    -7.9557697     -7.323944       2.5122874      50218.233      36.893836      36.893836      36.893836    
    722000   0.41846825    -7.9534532     -7.3257597      2.5317001      50218.233      36.893836      36.893836      36.893836    
    723000   0.41912887    -7.9562742     -7.3275899      2.4965976      50218.233      36.893836      36.893836      36.893836    
    724000   0.41903213    -7.9517108     -7.3231715      2.5331567      50218.233      36.893836      36.893836      36.893836    
    725000   0.42007783    -7.9548439     -7.3247361      2.5126155      50218.233      36.893836      36.893836      36.893836    
    726000   0.41885676    -7.958477      -7.3302008      2.4825474      50218.233      36.893836      36.893836      36.893836    
    727000   0.42006781    -7.9597908     -7.329698       2.4824495      50218.233      36.893836      36.893836      36.893836    
    728000   0.42060864    -7.9549591     -7.3240552      2.5159877      50218.233      36.893836      36.893836      36.893836    
    729000   0.42043555    -7.9544315     -7.3237871      2.5033353      50218.233      36.893836      36.893836      36.893836    
    730000   0.42189918    -7.9584118     -7.325572       2.4921063      50218.233      36.893836      36.893836      36.893836    
    731000   0.41980244    -7.9548953     -7.3252006      2.5193938      50218.233      36.893836      36.893836      36.893836    
    732000   0.42123028    -7.9552734     -7.323437       2.5237159      50218.233      36.893836      36.893836      36.893836    
    733000   0.42094768    -7.9590589     -7.3276464      2.487093       50218.233      36.893836      36.893836      36.893836    
    734000   0.42008016    -7.9574791     -7.3273678      2.4907672      50218.233      36.893836      36.893836      36.893836    
    735000   0.41742811    -7.9562111     -7.3300779      2.4996482      50218.233      36.893836      36.893836      36.893836    
    736000   0.41845133    -7.9552726     -7.3276045      2.5078237      50218.233      36.893836      36.893836      36.893836    
    737000   0.42089867    -7.9565463     -7.3252072      2.4882578      50218.233      36.893836      36.893836      36.893836    
    738000   0.42142039    -7.9522147     -7.3200931      2.5414496      50218.233      36.893836      36.893836      36.893836    
    739000   0.42013379    -7.9571245     -7.3269328      2.4858039      50218.233      36.893836      36.893836      36.893836    
    740000   0.41959632    -7.955511      -7.3261254      2.4970958      50218.233      36.893836      36.893836      36.893836    
    741000   0.41918718    -7.961395      -7.3326232      2.4575454      50218.233      36.893836      36.893836      36.893836    
    742000   0.41913355    -7.9552694     -7.326578       2.5014342      50218.233      36.893836      36.893836      36.893836    
    743000   0.42089383    -7.9574112     -7.3260795      2.494302       50218.233      36.893836      36.893836      36.893836    
    744000   0.41974592    -7.9561527     -7.3265428      2.500134       50218.233      36.893836      36.893836      36.893836    
    745000   0.41797395    -7.9573011     -7.3303491      2.4817989      50218.233      36.893836      36.893836      36.893836    
    746000   0.41899807    -7.9584852     -7.3299971      2.4692294      50218.233      36.893836      36.893836      36.893836    
    747000   0.42051642    -7.9590949     -7.3283292      2.4828856      50218.233      36.893836      36.893836      36.893836    
    748000   0.41902256    -7.957095      -7.32857        2.4857431      50218.233      36.893836      36.893836      36.893836    
    749000   0.4209262     -7.9589418     -7.3275615      2.4677585      50218.233      36.893836      36.893836      36.893836    
    750000   0.41895197    -7.9598503     -7.3314313      2.4756416      50218.233      36.893836      36.893836      36.893836    
    751000   0.41948172    -7.9580317     -7.3288181      2.4827858      50218.233      36.893836      36.893836      36.893836    
    752000   0.42019695    -7.9577509     -7.3274644      2.4888003      50218.233      36.893836      36.893836      36.893836    
    753000   0.41951422    -7.9575799     -7.3283176      2.489404       50218.233      36.893836      36.893836      36.893836    
    754000   0.41991196    -7.9562464     -7.3263874      2.4954223      50218.233      36.893836      36.893836      36.893836    
    755000   0.42121351    -7.9611999     -7.3293886      2.4592325      50218.233      36.893836      36.893836      36.893836    
    756000   0.41956767    -7.9575147     -7.3281722      2.4789355      50218.233      36.893836      36.893836      36.893836    
    757000   0.42082142    -7.9604835     -7.3292604      2.4629244      50218.233      36.893836      36.893836      36.893836    
    758000   0.42014037    -7.9578381     -7.3276365      2.4799486      50218.233      36.893836      36.893836      36.893836    
    759000   0.42160383    -7.9567219     -7.3243252      2.4953931      50218.233      36.893836      36.893836      36.893836    
    760000   0.41913463    -7.9575575     -7.3288645      2.4927623      50218.233      36.893836      36.893836      36.893836    
    761000   0.42108666    -7.9571319     -7.3255109      2.5045241      50218.233      36.893836      36.893836      36.893836    
    762000   0.42050474    -7.9548327     -7.3240846      2.5191086      50218.233      36.893836      36.893836      36.893836    
    763000   0.42109768    -7.9562039     -7.3245664      2.5039417      50218.233      36.893836      36.893836      36.893836    
    764000   0.42062149    -7.9591488     -7.3282256      2.4760046      50218.233      36.893836      36.893836      36.893836    
    765000   0.41997819    -7.9563031     -7.3263448      2.5031309      50218.233      36.893836      36.893836      36.893836    
    766000   0.41941376    -7.9556643     -7.3265526      2.5112643      50218.233      36.893836      36.893836      36.893836    
    767000   0.42156271    -7.9540641     -7.321729       2.5163756      50218.233      36.893836      36.893836      36.893836    
    768000   0.42132845    -7.954077      -7.3220933      2.5106142      50218.233      36.893836      36.893836      36.893836    
    769000   0.42065101    -7.9543943     -7.3234268      2.5092885      50218.233      36.893836      36.893836      36.893836    
    770000   0.4218171     -7.9571962     -7.3244795      2.4912634      50218.233      36.893836      36.893836      36.893836    
    771000   0.41769228    -7.9534653     -7.3269358      2.5118609      50218.233      36.893836      36.893836      36.893836    
    772000   0.41887044    -7.9536584     -7.3253617      2.5052643      50218.233      36.893836      36.893836      36.893836    
    773000   0.41900333    -7.9571672     -7.3286711      2.4889711      50218.233      36.893836      36.893836      36.893836    
    774000   0.41921384    -7.9558117     -7.3269999      2.4900994      50218.233      36.893836      36.893836      36.893836    
    775000   0.41914739    -7.9562182     -7.3275061      2.4911052      50218.233      36.893836      36.893836      36.893836    
    776000   0.42047399    -7.9579445     -7.3272425      2.4915846      50218.233      36.893836      36.893836      36.893836    
    777000   0.41848478    -7.9566559     -7.3289377      2.4977018      50218.233      36.893836      36.893836      36.893836    
    778000   0.42154765    -7.9560383     -7.3237258      2.5075145      50218.233      36.893836      36.893836      36.893836    
    779000   0.41980281    -7.9554965     -7.3258013      2.5032057      50218.233      36.893836      36.893836      36.893836    
    780000   0.41931505    -7.9548529     -7.3258892      2.5001258      50218.233      36.893836      36.893836      36.893836    
    781000   0.4179454     -7.9540424     -7.3271332      2.5171693      50218.233      36.893836      36.893836      36.893836    
    782000   0.41731639    -7.9565845     -7.3306188      2.4781181      50218.233      36.893836      36.893836      36.893836    
    783000   0.42107308    -7.9560741     -7.3244735      2.5019253      50218.233      36.893836      36.893836      36.893836    
    784000   0.41779898    -7.9560095     -7.32932        2.4999368      50218.233      36.893836      36.893836      36.893836    
    785000   0.41847333    -7.9567432     -7.3290421      2.4921766      50218.233      36.893836      36.893836      36.893836    
    786000   0.42063452    -7.9602179     -7.3292751      2.4765027      50218.233      36.893836      36.893836      36.893836    
    787000   0.41953448    -7.9574784     -7.3281856      2.4944586      50218.233      36.893836      36.893836      36.893836    
    788000   0.4212277     -7.9565263     -7.3246937      2.5054741      50218.233      36.893836      36.893836      36.893836    
    789000   0.42108979    -7.9568823     -7.3252566      2.4991433      50218.233      36.893836      36.893836      36.893836    
    790000   0.41801551    -7.9559282     -7.3289139      2.4951386      50218.233      36.893836      36.893836      36.893836    
    791000   0.42092415    -7.9560928     -7.3247156      2.4990814      50218.233      36.893836      36.893836      36.893836    
    792000   0.4196406     -7.9553653     -7.3259133      2.5024292      50218.233      36.893836      36.893836      36.893836    
    793000   0.42223739    -7.9558276     -7.3224805      2.4912875      50218.233      36.893836      36.893836      36.893836    
    794000   0.4195812     -7.9555759     -7.326213       2.4988649      50218.233      36.893836      36.893836      36.893836    
    795000   0.42152968    -7.9574494     -7.3251638      2.4901942      50218.233      36.893836      36.893836      36.893836    
    796000   0.4192651     -7.9574695     -7.3285808      2.4870116      50218.233      36.893836      36.893836      36.893836    
    797000   0.41986819    -7.9569945     -7.3272012      2.4921258      50218.233      36.893836      36.893836      36.893836    
    798000   0.41882679    -7.9543865     -7.3261553      2.5037286      50218.233      36.893836      36.893836      36.893836    
    799000   0.41904795    -7.958865      -7.330302       2.4789966      50218.233      36.893836      36.893836      36.893836    
    800000   0.41741752    -7.9576274     -7.33151        2.484898       50218.233      36.893836      36.893836      36.893836    
    801000   0.41919952    -7.9570895     -7.3282992      2.4850378      50218.233      36.893836      36.893836      36.893836    
    802000   0.41998125    -7.9626865     -7.3327236      2.4449062      50218.233      36.893836      36.893836      36.893836    
    803000   0.41967596    -7.9588093     -7.3293043      2.4655901      50218.233      36.893836      36.893836      36.893836    
    804000   0.42082341    -7.958106      -7.3268799      2.4831911      50218.233      36.893836      36.893836      36.893836    
    805000   0.42036086    -7.9575367     -7.3270044      2.4918149      50218.233      36.893836      36.893836      36.893836    
    806000   0.42011744    -7.9577417     -7.3275745      2.490602       50218.233      36.893836      36.893836      36.893836    
    807000   0.42074658    -7.9570657     -7.3259548      2.4873046      50218.233      36.893836      36.893836      36.893836    
    808000   0.41975612    -7.9578965     -7.3282713      2.4884754      50218.233      36.893836      36.893836      36.893836    
    809000   0.42212222    -7.9570997     -7.3239254      2.5028817      50218.233      36.893836      36.893836      36.893836    
    810000   0.42030379    -7.9599579     -7.3295112      2.4709151      50218.233      36.893836      36.893836      36.893836    
    811000   0.42011231    -7.9546539     -7.3244944      2.5031188      50218.233      36.893836      36.893836      36.893836    
    812000   0.41926407    -7.9606385     -7.3317513      2.4574047      50218.233      36.893836      36.893836      36.893836    
    813000   0.41866047    -7.9592559     -7.3312741      2.4704807      50218.233      36.893836      36.893836      36.893836    
    814000   0.41925279    -7.9576143     -7.3287441      2.4883205      50218.233      36.893836      36.893836      36.893836    
    815000   0.41994382    -7.9568273     -7.3269205      2.4930456      50218.233      36.893836      36.893836      36.893836    
    816000   0.42271721    -7.9521882     -7.3181214      2.5335597      50218.233      36.893836      36.893836      36.893836    
    817000   0.42233507    -7.9548448     -7.3213513      2.5061397      50218.233      36.893836      36.893836      36.893836    
    818000   0.41991196    -7.9558092     -7.3259502      2.5024445      50218.233      36.893836      36.893836      36.893836    
    819000   0.42124117    -7.9551282     -7.3232755      2.5034372      50218.233      36.893836      36.893836      36.893836    
    820000   0.41947303    -7.9565191     -7.3273185      2.4995613      50218.233      36.893836      36.893836      36.893836    
    821000   0.41828217    -7.9539693     -7.326555       2.5070843      50218.233      36.893836      36.893836      36.893836    
    822000   0.41942465    -7.955273      -7.3261449      2.5019642      50218.233      36.893836      36.893836      36.893836    
    823000   0.421151      -7.9568698     -7.3251523      2.4873351      50218.233      36.893836      36.893836      36.893836    
    824000   0.41963377    -7.953874      -7.3244323      2.515197       50218.233      36.893836      36.893836      36.893836    
    825000   0.41871382    -7.9547901     -7.3267283      2.5119282      50218.233      36.893836      36.893836      36.893836    
    826000   0.42023197    -7.9544211     -7.3240821      2.5153313      50218.233      36.893836      36.893836      36.893836    
    827000   0.42113018    -7.9577775     -7.3260912      2.4910123      50218.233      36.893836      36.893836      36.893836    
    828000   0.4159993     -7.9566786     -7.3326885      2.4863506      50218.233      36.893836      36.893836      36.893836    
    829000   0.42080905    -7.9574914     -7.3262868      2.4877828      50218.233      36.893836      36.893836      36.893836    
    830000   0.41843717    -7.957603      -7.3299561      2.4893723      50218.233      36.893836      36.893836      36.893836    
    831000   0.41743211    -7.953739      -7.3275997      2.5121468      50218.233      36.893836      36.893836      36.893836    
    832000   0.42064466    -7.956287      -7.325329       2.5068448      50218.233      36.893836      36.893836      36.893836    
    833000   0.41836567    -7.9564509     -7.3289114      2.504463       50218.233      36.893836      36.893836      36.893836    
    834000   0.42087864    -7.9574257     -7.3261167      2.4918023      50218.233      36.893836      36.893836      36.893836    
    835000   0.42061524    -7.9553919     -7.324478       2.495504       50218.233      36.893836      36.893836      36.893836    
    836000   0.42091233    -7.9564195     -7.32506        2.4985617      50218.233      36.893836      36.893836      36.893836    
    837000   0.42014055    -7.9562805     -7.3260786      2.4946787      50218.233      36.893836      36.893836      36.893836    
    838000   0.42057021    -7.9559251     -7.3250787      2.4924992      50218.233      36.893836      36.893836      36.893836    
    839000   0.41581112    -7.9544398     -7.330732       2.5049904      50218.233      36.893836      36.893836      36.893836    
    840000   0.41855126    -7.9554916     -7.3276736      2.4868196      50218.233      36.893836      36.893836      36.893836    
    841000   0.41987491    -7.9558464     -7.326043       2.4920548      50218.233      36.893836      36.893836      36.893836    
    842000   0.42089961    -7.9565834     -7.3252429      2.4888088      50218.233      36.893836      36.893836      36.893836    
    843000   0.41936719    -7.9587663     -7.3297245      2.4752744      50218.233      36.893836      36.893836      36.893836    
    844000   0.41723063    -7.9556016     -7.3297646      2.4958763      50218.233      36.893836      36.893836      36.893836    
    845000   0.41954115    -7.9560077     -7.326705       2.4852866      50218.233      36.893836      36.893836      36.893836    
    846000   0.41718699    -7.9584121     -7.3326405      2.4757546      50218.233      36.893836      36.893836      36.893836    
    847000   0.41961995    -7.9584168     -7.3289958      2.4774306      50218.233      36.893836      36.893836      36.893836    
    848000   0.42260315    -7.9565231     -7.3226274      2.502842       50218.233      36.893836      36.893836      36.893836    
    849000   0.42058545    -7.9570266     -7.3261574      2.4903612      50218.233      36.893836      36.893836      36.893836    
    850000   0.42004214    -7.9565123     -7.3264581      2.4957577      50218.233      36.893836      36.893836      36.893836    
    851000   0.42185554    -7.9558269     -7.3230526      2.493219       50218.233      36.893836      36.893836      36.893836    
    852000   0.41950454    -7.9562494     -7.3270015      2.4940784      50218.233      36.893836      36.893836      36.893836    
    853000   0.42277886    -7.9592589     -7.3250996      2.4825156      50218.233      36.893836      36.893836      36.893836    
    854000   0.41835649    -7.9522222     -7.3246964      2.5278385      50218.233      36.893836      36.893836      36.893836    
    855000   0.41994009    -7.958025      -7.3281238      2.4844651      50218.233      36.893836      36.893836      36.893836    
    856000   0.42074285    -7.9587723     -7.327667       2.478516       50218.233      36.893836      36.893836      36.893836    
    857000   0.42146246    -7.9571448     -7.3249601      2.4857567      50218.233      36.893836      36.893836      36.893836    
    858000   0.41831263    -7.9576798     -7.3302198      2.4820631      50218.233      36.893836      36.893836      36.893836    
    859000   0.42127645    -7.9603436     -7.3284379      2.4699937      50218.233      36.893836      36.893836      36.893836    
    860000   0.41957331    -7.9535415     -7.3241905      2.5230419      50218.233      36.893836      36.893836      36.893836    
    861000   0.41793501    -7.9577355     -7.3308419      2.4796794      50218.233      36.893836      36.893836      36.893836    
    862000   0.42192512    -7.9546524     -7.3217737      2.4993934      50218.233      36.893836      36.893836      36.893836    
    863000   0.42115986    -7.9593372     -7.3276064      2.4750169      50218.233      36.893836      36.893836      36.893836    
    864000   0.42170228    -7.9557713     -7.3232268      2.5055506      50218.233      36.893836      36.893836      36.893836    
    865000   0.42022269    -7.9542227     -7.3238976      2.5070835      50218.233      36.893836      36.893836      36.893836    
    866000   0.41809031    -7.9556729     -7.3285464      2.495695       50218.233      36.893836      36.893836      36.893836    
    867000   0.41986417    -7.9559322     -7.3261449      2.4979415      50218.233      36.893836      36.893836      36.893836    
    868000   0.42100366    -7.9556809     -7.3241844      2.4983645      50218.233      36.893836      36.893836      36.893836    
    869000   0.41882932    -7.9571854     -7.3289504      2.4881341      50218.233      36.893836      36.893836      36.893836    
    870000   0.4198272     -7.9553058     -7.325574       2.5000902      50218.233      36.893836      36.893836      36.893836    
    871000   0.42163602    -7.9540582     -7.3216132      2.5165245      50218.233      36.893836      36.893836      36.893836    
    872000   0.42217296    -7.9546657     -7.3214153      2.5102843      50218.233      36.893836      36.893836      36.893836    
    873000   0.42302765    -7.9555776     -7.3210451      2.517822       50218.233      36.893836      36.893836      36.893836    
    874000   0.4207527     -7.9584996     -7.3273795      2.4807365      50218.233      36.893836      36.893836      36.893836    
    875000   0.4202332     -7.954542      -7.3242011      2.5124192      50218.233      36.893836      36.893836      36.893836    
    876000   0.41815974    -7.9557248     -7.3284941      2.5030298      50218.233      36.893836      36.893836      36.893836    
    877000   0.42124532    -7.9571792     -7.3253203      2.4952938      50218.233      36.893836      36.893836      36.893836    
    878000   0.41901994    -7.9563093     -7.3277883      2.4931197      50218.233      36.893836      36.893836      36.893836    
    879000   0.41854494    -7.9569566     -7.3291481      2.4934536      50218.233      36.893836      36.893836      36.893836    
    880000   0.42037181    -7.9525773     -7.3220286      2.5184772      50218.233      36.893836      36.893836      36.893836    
    881000   0.42176232    -7.9528602     -7.3202257      2.5112849      50218.233      36.893836      36.893836      36.893836    
    882000   0.42084102    -7.9574396     -7.326187       2.4890339      50218.233      36.893836      36.893836      36.893836    
    883000   0.41881441    -7.9570288     -7.3288161      2.4799016      50218.233      36.893836      36.893836      36.893836    
    884000   0.41936306    -7.9561687     -7.3271331      2.4945898      50218.233      36.893836      36.893836      36.893836    
    885000   0.41890907    -7.9562007     -7.3278461      2.4953962      50218.233      36.893836      36.893836      36.893836    
    886000   0.41970979    -7.9587228     -7.329167       2.4771388      50218.233      36.893836      36.893836      36.893836    
    887000   0.42089575    -7.9580758     -7.3267412      2.4847105      50218.233      36.893836      36.893836      36.893836    
    888000   0.41947201    -7.9546567     -7.3254576      2.5054266      50218.233      36.893836      36.893836      36.893836    
    889000   0.41965884    -7.9574044     -7.3279251      2.4956714      50218.233      36.893836      36.893836      36.893836    
    890000   0.4200002     -7.957362      -7.3273707      2.4950638      50218.233      36.893836      36.893836      36.893836    
    891000   0.42095687    -7.957195      -7.3257687      2.4907185      50218.233      36.893836      36.893836      36.893836    
    892000   0.41861874    -7.9565593     -7.3286401      2.5010539      50218.233      36.893836      36.893836      36.893836    
    893000   0.41986503    -7.956074      -7.3262855      2.4965885      50218.233      36.893836      36.893836      36.893836    
    894000   0.41826575    -7.9542711     -7.3268814      2.511165       50218.233      36.893836      36.893836      36.893836    
    895000   0.41954642    -7.9581326     -7.3288219      2.4789454      50218.233      36.893836      36.893836      36.893836    
    896000   0.42012563    -7.9569517     -7.3267722      2.4858519      50218.233      36.893836      36.893836      36.893836    
    897000   0.41938711    -7.9548941     -7.3258224      2.5089841      50218.233      36.893836      36.893836      36.893836    
    898000   0.42119141    -7.9539337     -7.3221556      2.5075881      50218.233      36.893836      36.893836      36.893836    
    899000   0.41967826    -7.9617953     -7.3322868      2.4634535      50218.233      36.893836      36.893836      36.893836    
    900000   0.42029571    -7.9570346     -7.3266         2.490423       50218.233      36.893836      36.893836      36.893836    
    901000   0.42101604    -7.9592075     -7.3276925      2.4750727      50218.233      36.893836      36.893836      36.893836    
    902000   0.41929989    -7.9558861     -7.3269452      2.4981637      50218.233      36.893836      36.893836      36.893836    
    903000   0.41897207    -7.9618203     -7.3333711      2.4431805      50218.233      36.893836      36.893836      36.893836    
    904000   0.41890573    -7.9529337     -7.324584       2.5203216      50218.233      36.893836      36.893836      36.893836    
    905000   0.41783309    -7.9558952     -7.3291544      2.4952715      50218.233      36.893836      36.893836      36.893836    
    906000   0.41948378    -7.9592345     -7.3300178      2.483325       50218.233      36.893836      36.893836      36.893836    
    907000   0.41913025    -7.9584874     -7.3298009      2.4871842      50218.233      36.893836      36.893836      36.893836    
    908000   0.42210114    -7.9566146     -7.3234719      2.49264        50218.233      36.893836      36.893836      36.893836    
    909000   0.4191832     -7.9590458     -7.3302799      2.4817924      50218.233      36.893836      36.893836      36.893836    
    910000   0.42041734    -7.9539919     -7.3233748      2.5162807      50218.233      36.893836      36.893836      36.893836    
    911000   0.41983024    -7.9555229     -7.3257864      2.4997614      50218.233      36.893836      36.893836      36.893836    
    912000   0.42006062    -7.9565176     -7.3264356      2.5011537      50218.233      36.893836      36.893836      36.893836    
    913000   0.42040002    -7.9561655     -7.3255744      2.5031087      50218.233      36.893836      36.893836      36.893836    
    914000   0.42054034    -7.9583088     -7.3275072      2.4860018      50218.233      36.893836      36.893836      36.893836    
    915000   0.41977464    -7.9559092     -7.3262562      2.5067898      50218.233      36.893836      36.893836      36.893836    
    916000   0.42081858    -7.9567637     -7.3255449      2.4938827      50218.233      36.893836      36.893836      36.893836    
    917000   0.42074885    -7.957795      -7.3266807      2.4814836      50218.233      36.893836      36.893836      36.893836    
    918000   0.42070814    -7.9563248     -7.3252716      2.4998928      50218.233      36.893836      36.893836      36.893836    
    919000   0.41885169    -7.9514549     -7.3231863      2.5264166      50218.233      36.893836      36.893836      36.893836    
    920000   0.41840571    -7.959555      -7.3319554      2.4744644      50218.233      36.893836      36.893836      36.893836    
    921000   0.41901904    -7.9566108     -7.3280912      2.493991       50218.233      36.893836      36.893836      36.893836    
    922000   0.41804224    -7.9554188     -7.3283643      2.5001028      50218.233      36.893836      36.893836      36.893836    
    923000   0.42030481    -7.9560348     -7.3255866      2.5003114      50218.233      36.893836      36.893836      36.893836    
    924000   0.42042511    -7.95587       -7.3252413      2.5136779      50218.233      36.893836      36.893836      36.893836    
    925000   0.41934999    -7.9578296     -7.3288136      2.482859       50218.233      36.893836      36.893836      36.893836    
    926000   0.4185936     -7.9587517     -7.3308703      2.4733215      50218.233      36.893836      36.893836      36.893836    
    927000   0.41898726    -7.9581161     -7.3296442      2.4879267      50218.233      36.893836      36.893836      36.893836    
    928000   0.42047155    -7.9565333     -7.3258349      2.4957077      50218.233      36.893836      36.893836      36.893836    
    929000   0.42097852    -7.9588804     -7.3274216      2.4751902      50218.233      36.893836      36.893836      36.893836    
    930000   0.41884344    -7.9553662     -7.32711        2.5000005      50218.233      36.893836      36.893836      36.893836    
    931000   0.41985715    -7.9555115     -7.3257347      2.5090859      50218.233      36.893836      36.893836      36.893836    
    932000   0.42240662    -7.9569115     -7.3233106      2.4889363      50218.233      36.893836      36.893836      36.893836    
    933000   0.42064694    -7.9546284     -7.323667       2.5196994      50218.233      36.893836      36.893836      36.893836    
    934000   0.42036002    -7.9565839     -7.3260529      2.4914416      50218.233      36.893836      36.893836      36.893836    
    935000   0.42091358    -7.9578449     -7.3264835      2.4886339      50218.233      36.893836      36.893836      36.893836    
    936000   0.42008779    -7.9559677     -7.325845       2.5018737      50218.233      36.893836      36.893836      36.893836    
    937000   0.41841849    -7.9598148     -7.332196       2.459867       50218.233      36.893836      36.893836      36.893836    
    938000   0.42098545    -7.9536034     -7.3221342      2.5202291      50218.233      36.893836      36.893836      36.893836    
    939000   0.41917398    -7.9556525     -7.3269004      2.5099364      50218.233      36.893836      36.893836      36.893836    
    940000   0.41738974    -7.9559855     -7.3299098      2.4838554      50218.233      36.893836      36.893836      36.893836    
    941000   0.42254759    -7.9542632     -7.3204508      2.5084374      50218.233      36.893836      36.893836      36.893836    
    942000   0.41755911    -7.9574748     -7.3311451      2.4772936      50218.233      36.893836      36.893836      36.893836    
    943000   0.41969329    -7.9556886     -7.3261576      2.5043642      50218.233      36.893836      36.893836      36.893836    
    944000   0.41871489    -7.9583514     -7.330288       2.4793035      50218.233      36.893836      36.893836      36.893836    
    945000   0.42164981    -7.963262      -7.3307963      2.4515564      50218.233      36.893836      36.893836      36.893836    
    946000   0.42063134    -7.9617557     -7.3308176      2.4530698      50218.233      36.893836      36.893836      36.893836    
    947000   0.42125791    -7.9578161     -7.3259382      2.4996601      50218.233      36.893836      36.893836      36.893836    
    948000   0.41937857    -7.9564321     -7.3273732      2.4867759      50218.233      36.893836      36.893836      36.893836    
    949000   0.41729074    -7.9548382     -7.328911       2.5083166      50218.233      36.893836      36.893836      36.893836    
    950000   0.42023856    -7.9597572     -7.3294083      2.474689       50218.233      36.893836      36.893836      36.893836    
    951000   0.41749728    -7.9575417     -7.3313047      2.4828963      50218.233      36.893836      36.893836      36.893836    
    952000   0.4204542     -7.9574053     -7.3267329      2.4927302      50218.233      36.893836      36.893836      36.893836    
    953000   0.41781947    -7.9604055     -7.3336852      2.463723       50218.233      36.893836      36.893836      36.893836    
    954000   0.42268634    -7.9569167     -7.3228963      2.490383       50218.233      36.893836      36.893836      36.893836    
    955000   0.42095391    -7.9541401     -7.3227182      2.5141089      50218.233      36.893836      36.893836      36.893836    
    956000   0.41970741    -7.9595142     -7.329962       2.4709848      50218.233      36.893836      36.893836      36.893836    
    957000   0.42090833    -7.9576297     -7.3262762      2.4870439      50218.233      36.893836      36.893836      36.893836    
    958000   0.42104032    -7.9551775     -7.323626       2.5132714      50218.233      36.893836      36.893836      36.893836    
    959000   0.42095238    -7.9559304     -7.3245108      2.5046964      50218.233      36.893836      36.893836      36.893836    
    960000   0.41825591    -7.9544356     -7.3270607      2.5049147      50218.233      36.893836      36.893836      36.893836    
    961000   0.41985269    -7.9582867     -7.3285166      2.4785695      50218.233      36.893836      36.893836      36.893836    
    962000   0.42081772    -7.9544741     -7.3232565      2.51048        50218.233      36.893836      36.893836      36.893836    
    963000   0.41862341    -7.9580616     -7.3301354      2.4842844      50218.233      36.893836      36.893836      36.893836    
    964000   0.42016787    -7.9578157     -7.3275729      2.4850619      50218.233      36.893836      36.893836      36.893836    
    965000   0.41796896    -7.9584575     -7.331513       2.4796754      50218.233      36.893836      36.893836      36.893836    
    966000   0.42010872    -7.9534939     -7.3233397      2.528424       50218.233      36.893836      36.893836      36.893836    
    967000   0.41992998    -7.958784      -7.328898       2.4721518      50218.233      36.893836      36.893836      36.893836    
    968000   0.41837145    -7.9561622     -7.328614       2.5049313      50218.233      36.893836      36.893836      36.893836    
    969000   0.4183904     -7.9573903     -7.3298137      2.4928264      50218.233      36.893836      36.893836      36.893836    
    970000   0.42042979    -7.9576443     -7.3270086      2.4895892      50218.233      36.893836      36.893836      36.893836    
    971000   0.42015239    -7.9563092     -7.3260895      2.4995175      50218.233      36.893836      36.893836      36.893836    
    972000   0.42123507    -7.9549248     -7.3230811      2.5106211      50218.233      36.893836      36.893836      36.893836    
    973000   0.41864612    -7.9557263     -7.327766       2.5029959      50218.233      36.893836      36.893836      36.893836    
    974000   0.4205711     -7.9581947     -7.3273471      2.4807094      50218.233      36.893836      36.893836      36.893836    
    975000   0.41950603    -7.9543773     -7.3251272      2.5091781      50218.233      36.893836      36.893836      36.893836    
    976000   0.4186159     -7.9559731     -7.3280582      2.5078476      50218.233      36.893836      36.893836      36.893836    
    977000   0.41810045    -7.9576847     -7.3305429      2.4865672      50218.233      36.893836      36.893836      36.893836    
    978000   0.41990815    -7.9540859     -7.3242326      2.5169942      50218.233      36.893836      36.893836      36.893836    
    979000   0.4189917     -7.9555447     -7.3270661      2.512527       50218.233      36.893836      36.893836      36.893836    
    980000   0.41964343    -7.9570668     -7.3276106      2.493647       50218.233      36.893836      36.893836      36.893836    
    981000   0.41923832    -7.9526471     -7.3237985      2.5338596      50218.233      36.893836      36.893836      36.893836    
    982000   0.42196502    -7.9518515     -7.318913       2.5408309      50218.233      36.893836      36.893836      36.893836    
    983000   0.41845112    -7.9557806     -7.3281128      2.4974792      50218.233      36.893836      36.893836      36.893836    
    984000   0.42200477    -7.9612811     -7.3282829      2.4615071      50218.233      36.893836      36.893836      36.893836    
    985000   0.42083499    -7.9557168     -7.3244733      2.4998716      50218.233      36.893836      36.893836      36.893836    
    986000   0.4193986     -7.9535882     -7.3244993      2.5218209      50218.233      36.893836      36.893836      36.893836    
    987000   0.42226226    -7.9575922     -7.3242078      2.4906128      50218.233      36.893836      36.893836      36.893836    
    988000   0.41867697    -7.9533473     -7.3253408      2.5137427      50218.233      36.893836      36.893836      36.893836    
    989000   0.41986669    -7.9553759     -7.3255848      2.4972716      50218.233      36.893836      36.893836      36.893836    
    990000   0.42119483    -7.9586325     -7.3268493      2.4802174      50218.233      36.893836      36.893836      36.893836    
    991000   0.41833988    -7.9534945     -7.3259936      2.5105496      50218.233      36.893836      36.893836      36.893836    
    992000   0.4202241     -7.9576857     -7.3273585      2.4893084      50218.233      36.893836      36.893836      36.893836    
    993000   0.4199573     -7.9603679     -7.3304409      2.4703402      50218.233      36.893836      36.893836      36.893836    
    994000   0.42054782    -7.955376      -7.3245632      2.5008595      50218.233      36.893836      36.893836      36.893836    
    995000   0.42101933    -7.9566563     -7.3251362      2.4953259      50218.233      36.893836      36.893836      36.893836    
    996000   0.41955089    -7.9582867     -7.3289694      2.4903041      50218.233      36.893836      36.893836      36.893836    
    997000   0.42043332    -7.9611804     -7.3305394      2.455383       50218.233      36.893836      36.893836      36.893836    
    998000   0.41852539    -7.9565379     -7.3287587      2.4941666      50218.233      36.893836      36.893836      36.893836    
    999000   0.41822613    -7.95834       -7.3310097      2.4781488      50218.233      36.893836      36.893836      36.893836    
   1000000   0.41904226    -7.9572814     -7.328727       2.4842861      50218.233      36.893836      36.893836      36.893836    
Loop time of 1568.26 on 4 procs for 1000000 steps with 70304 atoms

Performance: 550927.455 tau/day, 637.648 timesteps/s, 44.829 Matom-step/s
95.9% CPU use with 4 MPI tasks x 1 OpenMP threads

MPI task timing breakdown:
Section |  min time  |  avg time  |  max time  |%varavg| %total
---------------------------------------------------------------
Pair    | 430.9      | 573.01     | 724.37     | 455.7 | 36.54
Neigh   | 5.9123     | 6.1856     | 6.5829     |   9.9 |  0.39
Comm    | 232.61     | 235.4      | 237.16     |  11.3 | 15.01
Output  | 0.20451    | 0.21181    | 0.22481    |   1.7 |  0.01
Modify  | 517.7      | 668.42     | 809.93     | 420.5 | 42.62
Other   |            | 85.04      |            |       |  5.42

Nlocal:          17576 ave       17631 max       17538 min
Histogram: 2 0 0 0 0 1 0 0 0 1
Nghost:        16819.8 ave       16865 max       16791 min
Histogram: 1 1 0 1 0 0 0 0 0 1
Neighs:              0 ave           0 max           0 min
Histogram: 4 0 0 0 0 0 0 0 0 0

Total # of neighbors = 0
Ave neighs/atom = 0
Neighbor list builds = 197050
Dangerous builds = 0
clear
OMP_NUM_THREADS environment is not set. Defaulting to 1 thread. (src/comm.cpp:98)
  using 1 OpenMP thread(s) per MPI task
package gpu 0
jump dms400.lmp

variable T equal 400
# T = 1000* (temp in LJ unit)
variable f equal 1000
log log.${T}
log log.400
