variable TLJ equal (${T}/1000)
variable TLJ equal (600/1000)
variable NCyle equal 10
variable iStep equal (${f})
variable iStep equal (1000)
variable dumpStep equal (${f}*100)
variable dumpStep equal (1000*100)
variable runStep equal (${f}*100*${NCyle})
variable runStep equal (1000*100*${NCyle})
variable runStep equal (1000*100*10)

units       lj
atom_style  atomic
dimension 3
boundary     p p p
pair_style  lj/cut 2.5
read_data  ../data/T${T}.dat
read_data  ../data/T600.dat
Reading data file ...
  orthogonal box = (0.97250269 0.97250269 0.97250269) to (37.866338 37.866338 37.866338)
  1 by 2 by 2 MPI processor grid
  reading atoms ...
  70304 atoms
  reading velocities ...
  70304 velocities
  read_data CPU = 0.234 seconds
change_box all triclinic
Changing box ...
  triclinic box = (0.97250269 0.97250269 0.97250269) to (37.866338 37.866338 37.866338) with tilt (0 0 0)
mass 1 1
mass 2 1
pair_modify shift yes
pair_coeff  1 1 1 1
pair_coeff  1 2 1.5 0.8
pair_coeff  2 2 0.5 0.88


timestep 0.01
thermo ${iStep}
thermo 1000
reset_timestep 0
thermo_style custom step temp pe etotal press vol lx ly lz
fix             1 all nvt temp ${TLJ}  ${TLJ}  0.1
fix             1 all nvt temp 0.6  ${TLJ}  0.1
fix             1 all nvt temp 0.6  0.6  0.1
thermo_modify flush yes

fix dsf all deform 1 xy  wiggle 0.5  ${f}   units box
fix dsf all deform 1 xy  wiggle 0.5  1000   units box
fix ps1 all ave/time 1 1 ${iStep} c_thermo_press[1] c_thermo_press[2]  c_thermo_press[3] c_thermo_press[4]  c_thermo_press[5] c_thermo_press[6]  file  stress.${T}
fix ps1 all ave/time 1 1 1000 c_thermo_press[1] c_thermo_press[2]  c_thermo_press[3] c_thermo_press[4]  c_thermo_press[5] c_thermo_press[6]  file  stress.${T}
fix ps1 all ave/time 1 1 1000 c_thermo_press[1] c_thermo_press[2]  c_thermo_press[3] c_thermo_press[4]  c_thermo_press[5] c_thermo_press[6]  file  stress.600
dump            1 all custom ${dumpStep} dump.${T} id type x y z
dump            1 all custom 100000 dump.${T} id type x y z
dump            1 all custom 100000 dump.600 id type x y z
dump_modify 1 sort id
fix nodrift all momentum 1  linear 1 1 1
fix com_seed all recenter INIT INIT INIT shift all
run ${runStep}
run 1000000
Generated 0 of 1 mixed pair_coeff terms from geometric mixing rule
Per MPI rank memory allocation (min/avg/max) = 8.613 | 8.614 | 8.615 Mbytes
   Step          Temp          PotEng         TotEng         Press          Volume           Lx             Ly             Lz      
         0   0.60242536    -7.6060936     -6.7024684      5.3390346      50218.233      36.893836      36.893836      36.893836    
      1000   0.59969273    -7.5998365     -6.7003103      5.3753521      50218.233      36.893836      36.893836      36.893836    
      2000   0.60151798    -7.5996036     -6.6973395      5.3777993      50218.233      36.893836      36.893836      36.893836    
      3000   0.60247204    -7.5970384     -6.6933432      5.4007732      50218.233      36.893836      36.893836      36.893836    
      4000   0.59935802    -7.5985331     -6.6995089      5.3784109      50218.233      36.893836      36.893836      36.893836    
      5000   0.59523814    -7.5962724     -6.7034279      5.3999564      50218.233      36.893836      36.893836      36.893836    
      6000   0.60205436    -7.5911176     -6.6880489      5.4390332      50218.233      36.893836      36.893836      36.893836    
      7000   0.60178214    -7.5917051     -6.6890448      5.4386521      50218.233      36.893836      36.893836      36.893836    
      8000   0.60131873    -7.5918942     -6.6899289      5.4345036      50218.233      36.893836      36.893836      36.893836    
      9000   0.60230098    -7.5914253     -6.6879867      5.4533363      50218.233      36.893836      36.893836      36.893836    
     10000   0.59604784    -7.5938478     -6.6997888      5.4274925      50218.233      36.893836      36.893836      36.893836    
     11000   0.60314655    -7.5932063     -6.6884994      5.433157       50218.233      36.893836      36.893836      36.893836    
     12000   0.59766575    -7.5987586     -6.7022727      5.3896382      50218.233      36.893836      36.893836      36.893836    
     13000   0.59979844    -7.5916257     -6.6919408      5.4590148      50218.233      36.893836      36.893836      36.893836    
     14000   0.59795494    -7.589771      -6.6928514      5.4599877      50218.233      36.893836      36.893836      36.893836    
     15000   0.60234695    -7.5901352     -6.6866276      5.4448998      50218.233      36.893836      36.893836      36.893836    
     16000   0.60174454    -7.5909221     -6.6883182      5.4453474      50218.233      36.893836      36.893836      36.893836    
     17000   0.59967469    -7.5933012     -6.693802       5.4340337      50218.233      36.893836      36.893836      36.893836    
     18000   0.59923067    -7.5930765     -6.6942433      5.4264959      50218.233      36.893836      36.893836      36.893836    
     19000   0.59946384    -7.5939566     -6.6947736      5.4119637      50218.233      36.893836      36.893836      36.893836    
     20000   0.59948301    -7.5957643     -6.6965526      5.4089171      50218.233      36.893836      36.893836      36.893836    
     21000   0.59894177    -7.5997117     -6.7013119      5.3901693      50218.233      36.893836      36.893836      36.893836    
     22000   0.60088634    -7.5958035     -6.6944868      5.4124299      50218.233      36.893836      36.893836      36.893836    
     23000   0.5981159     -7.5981777     -6.7010167      5.392321       50218.233      36.893836      36.893836      36.893836    
     24000   0.59978074    -7.5947222     -6.6950638      5.4121852      50218.233      36.893836      36.893836      36.893836    
     25000   0.59889635    -7.5996468     -6.7013151      5.3852989      50218.233      36.893836      36.893836      36.893836    
     26000   0.59809078    -7.5982753     -6.7011519      5.4067794      50218.233      36.893836      36.893836      36.893836    
     27000   0.60232526    -7.5994043     -6.6959292      5.3855054      50218.233      36.893836      36.893836      36.893836    
     28000   0.59782189    -7.6016739     -6.7049538      5.3785643      50218.233      36.893836      36.893836      36.893836    
     29000   0.5997399     -7.5987355     -6.6991385      5.3885827      50218.233      36.893836      36.893836      36.893836    
     30000   0.59754234    -7.5972012     -6.7009004      5.3994712      50218.233      36.893836      36.893836      36.893836    
     31000   0.60125454    -7.5956461     -6.6937771      5.4142339      50218.233      36.893836      36.893836      36.893836    
     32000   0.59993779    -7.5908536     -6.6909598      5.4447879      50218.233      36.893836      36.893836      36.893836    
     33000   0.59953464    -7.5979334     -6.6986442      5.3948507      50218.233      36.893836      36.893836      36.893836    
     34000   0.59883793    -7.5938354     -6.6955913      5.4170234      50218.233      36.893836      36.893836      36.893836    
     35000   0.5999557     -7.5961495     -6.6962287      5.3968682      50218.233      36.893836      36.893836      36.893836    
     36000   0.59906794    -7.602206      -6.7036169      5.3619179      50218.233      36.893836      36.893836      36.893836    
     37000   0.60127845    -7.6024544     -6.7005495      5.3702466      50218.233      36.893836      36.893836      36.893836    
     38000   0.60188224    -7.5958648     -6.6930543      5.4094027      50218.233      36.893836      36.893836      36.893836    
     39000   0.60004158    -7.6020082     -6.7019586      5.3668041      50218.233      36.893836      36.893836      36.893836    
     40000   0.60194916    -7.5953497     -6.6924388      5.4102828      50218.233      36.893836      36.893836      36.893836    
     41000   0.60003496    -7.5947666     -6.694727       5.4165334      50218.233      36.893836      36.893836      36.893836    
     42000   0.6006094     -7.6021378     -6.7012366      5.3686566      50218.233      36.893836      36.893836      36.893836    
     43000   0.59759603    -7.5985084     -6.7021271      5.3759575      50218.233      36.893836      36.893836      36.893836    
     44000   0.59970172    -7.5973619     -6.6978221      5.4064527      50218.233      36.893836      36.893836      36.893836    
     45000   0.60006548    -7.5942861     -6.6942007      5.418972       50218.233      36.893836      36.893836      36.893836    
     46000   0.60243284    -7.5985439     -6.6949075      5.3907411      50218.233      36.893836      36.893836      36.893836    
     47000   0.60249341    -7.5926812     -6.6889539      5.4465655      50218.233      36.893836      36.893836      36.893836    
     48000   0.60072977    -7.5945955     -6.6935137      5.4266943      50218.233      36.893836      36.893836      36.893836    
     49000   0.60094473    -7.5985165     -6.6971123      5.3836136      50218.233      36.893836      36.893836      36.893836    
     50000   0.59968724    -7.5967967     -6.6972786      5.3909414      50218.233      36.893836      36.893836      36.893836    
     51000   0.59768944    -7.6037016     -6.7071802      5.3489136      50218.233      36.893836      36.893836      36.893836    
     52000   0.59991286    -7.6014867     -6.7016302      5.3670963      50218.233      36.893836      36.893836      36.893836    
     53000   0.59673058    -7.6013544     -6.7062713      5.3652252      50218.233      36.893836      36.893836      36.893836    
     54000   0.59797876    -7.5965508     -6.6995954      5.402711       50218.233      36.893836      36.893836      36.893836    
     55000   0.60313645    -7.5915343     -6.6868425      5.4626652      50218.233      36.893836      36.893836      36.893836    
     56000   0.59831781    -7.5984976     -6.7010337      5.385588       50218.233      36.893836      36.893836      36.893836    
     57000   0.59974067    -7.6002324     -6.7006342      5.3769741      50218.233      36.893836      36.893836      36.893836    
     58000   0.59942986    -7.6006126     -6.7014806      5.3841442      50218.233      36.893836      36.893836      36.893836    
     59000   0.60108888    -7.6066356     -6.7050151      5.3318508      50218.233      36.893836      36.893836      36.893836    
     60000   0.59790562    -7.5930241     -6.6961784      5.4102043      50218.233      36.893836      36.893836      36.893836    
     61000   0.60033747    -7.5940355     -6.6935421      5.4238337      50218.233      36.893836      36.893836      36.893836    
     62000   0.59817643    -7.5995046     -6.7022527      5.3838934      50218.233      36.893836      36.893836      36.893836    
     63000   0.60138189    -7.5992179     -6.6971579      5.3934818      50218.233      36.893836      36.893836      36.893836    
     64000   0.60051685    -7.591775      -6.6910125      5.4330692      50218.233      36.893836      36.893836      36.893836    
     65000   0.60301157    -7.5954692     -6.6909647      5.4088312      50218.233      36.893836      36.893836      36.893836    
     66000   0.60096313    -7.5968891     -6.6954573      5.4182204      50218.233      36.893836      36.893836      36.893836    
     67000   0.60190177    -7.595812      -6.6929722      5.4232641      50218.233      36.893836      36.893836      36.893836    
     68000   0.59676885    -7.5908505     -6.6957099      5.4357618      50218.233      36.893836      36.893836      36.893836    
     69000   0.59919233    -7.5958192     -6.6970435      5.4156451      50218.233      36.893836      36.893836      36.893836    
     70000   0.60160189    -7.599359      -6.696969       5.3846317      50218.233      36.893836      36.893836      36.893836    
     71000   0.59857185    -7.5916104     -6.6937654      5.4418876      50218.233      36.893836      36.893836      36.893836    
     72000   0.6003255     -7.5992887     -6.6988133      5.3783884      50218.233      36.893836      36.893836      36.893836    
     73000   0.5980983     -7.5940441     -6.6969094      5.4333371      50218.233      36.893836      36.893836      36.893836    
     74000   0.6016588     -7.5952064     -6.6927311      5.4167031      50218.233      36.893836      36.893836      36.893836    
     75000   0.60084164    -7.5983727     -6.6971231      5.3826564      50218.233      36.893836      36.893836      36.893836    
     76000   0.59737471    -7.5954731     -6.6994238      5.4052869      50218.233      36.893836      36.893836      36.893836    
     77000   0.59904401    -7.5991087     -6.7005555      5.3896231      50218.233      36.893836      36.893836      36.893836    
     78000   0.59646544    -7.5922159     -6.6975304      5.4285876      50218.233      36.893836      36.893836      36.893836    
     79000   0.60005512    -7.5961558     -6.696086       5.3960852      50218.233      36.893836      36.893836      36.893836    
     80000   0.60088274    -7.5963675     -6.6950562      5.4080733      50218.233      36.893836      36.893836      36.893836    
     81000   0.60068407    -7.5957652     -6.6947519      5.416466       50218.233      36.893836      36.893836      36.893836    
     82000   0.60263863    -7.5995697     -6.6956246      5.3832548      50218.233      36.893836      36.893836      36.893836    
     83000   0.60073597    -7.5979318     -6.6968407      5.3969698      50218.233      36.893836      36.893836      36.893836    
     84000   0.60183811    -7.5963378     -6.6935935      5.392408       50218.233      36.893836      36.893836      36.893836    
     85000   0.60055986    -7.5984014     -6.6975744      5.3951624      50218.233      36.893836      36.893836      36.893836    
     86000   0.60094891    -7.5992192     -6.6978086      5.3811892      50218.233      36.893836      36.893836      36.893836    
     87000   0.60252204    -7.6012944     -6.6975242      5.3783976      50218.233      36.893836      36.893836      36.893836    
     88000   0.59901523    -7.6007585     -6.7022484      5.3722334      50218.233      36.893836      36.893836      36.893836    
     89000   0.59865452    -7.5987124     -6.7007434      5.3906483      50218.233      36.893836      36.893836      36.893836    
     90000   0.6007496     -7.5984712     -6.6973596      5.3829587      50218.233      36.893836      36.893836      36.893836    
     91000   0.5976306     -7.6013571     -6.7049239      5.365469       50218.233      36.893836      36.893836      36.893836    
     92000   0.59878897    -7.6014769     -6.7033062      5.3527067      50218.233      36.893836      36.893836      36.893836    
     93000   0.59663172    -7.5995242     -6.7045894      5.3750283      50218.233      36.893836      36.893836      36.893836    
     94000   0.59980261    -7.5941122     -6.6944211      5.4164046      50218.233      36.893836      36.893836      36.893836    
     95000   0.59778714    -7.5969384     -6.7002705      5.3962949      50218.233      36.893836      36.893836      36.893836    
     96000   0.59774128    -7.5964507     -6.6998515      5.4083381      50218.233      36.893836      36.893836      36.893836    
     97000   0.59943278    -7.6012863     -6.7021499      5.3654103      50218.233      36.893836      36.893836      36.893836    
     98000   0.59824371    -7.5975196     -6.7001668      5.3918637      50218.233      36.893836      36.893836      36.893836    
     99000   0.60108607    -7.5943765     -6.6927603      5.4119949      50218.233      36.893836      36.893836      36.893836    
    100000   0.59739896    -7.5939701     -6.6978844      5.4134551      50218.233      36.893836      36.893836      36.893836    
    101000   0.60105504    -7.5939505     -6.6923808      5.4227236      50218.233      36.893836      36.893836      36.893836    
    102000   0.60298906    -7.5969232     -6.6924524      5.4007936      50218.233      36.893836      36.893836      36.893836    
    103000   0.60016756    -7.6010794     -6.7008408      5.3693832      50218.233      36.893836      36.893836      36.893836    
    104000   0.60199644    -7.6000482     -6.6970664      5.3945715      50218.233      36.893836      36.893836      36.893836    
    105000   0.5975505     -7.60151       -6.705197       5.3618572      50218.233      36.893836      36.893836      36.893836    
    106000   0.59823582    -7.59744       -6.700099       5.3849023      50218.233      36.893836      36.893836      36.893836    
    107000   0.60014197    -7.5990516     -6.6988514      5.3878759      50218.233      36.893836      36.893836      36.893836    
    108000   0.60099234    -7.5939016     -6.6924259      5.4327931      50218.233      36.893836      36.893836      36.893836    
    109000   0.60313113    -7.5927954     -6.6881116      5.4362578      50218.233      36.893836      36.893836      36.893836    
    110000   0.5967274     -7.59564       -6.7005616      5.4012569      50218.233      36.893836      36.893836      36.893836    
    111000   0.59877072    -7.5941919     -6.6960486      5.4126041      50218.233      36.893836      36.893836      36.893836    
    112000   0.59900869    -7.6000166     -6.7015163      5.3663915      50218.233      36.893836      36.893836      36.893836    
    113000   0.60169519    -7.5990467     -6.6965168      5.3902661      50218.233      36.893836      36.893836      36.893836    
    114000   0.59942046    -7.5990576     -6.6999397      5.3786901      50218.233      36.893836      36.893836      36.893836    
    115000   0.60334956    -7.5984236     -6.6934122      5.3863215      50218.233      36.893836      36.893836      36.893836    
    116000   0.60154238    -7.6003858     -6.698085       5.3730041      50218.233      36.893836      36.893836      36.893836    
    117000   0.60205734    -7.5936889     -6.6906158      5.4263192      50218.233      36.893836      36.893836      36.893836    
    118000   0.59980504    -7.5964683     -6.6967736      5.4044586      50218.233      36.893836      36.893836      36.893836    
    119000   0.59989258    -7.5972249     -6.6973988      5.395559       50218.233      36.893836      36.893836      36.893836    
    120000   0.5974199     -7.5939759     -6.6978588      5.4224417      50218.233      36.893836      36.893836      36.893836    
    121000   0.60187253    -7.5967849     -6.693989       5.4101498      50218.233      36.893836      36.893836      36.893836    
    122000   0.60030831    -7.597622      -6.6971724      5.3938406      50218.233      36.893836      36.893836      36.893836    
    123000   0.6000051     -7.597657      -6.6976622      5.3967167      50218.233      36.893836      36.893836      36.893836    
    124000   0.60108056    -7.5996805     -6.6980725      5.3810579      50218.233      36.893836      36.893836      36.893836    
    125000   0.6011831     -7.5954275     -6.6936657      5.4219962      50218.233      36.893836      36.893836      36.893836    
    126000   0.59783066    -7.5941972     -6.697464       5.424241       50218.233      36.893836      36.893836      36.893836    
    127000   0.59850733    -7.5965059     -6.6987577      5.3919159      50218.233      36.893836      36.893836      36.893836    
    128000   0.60006987    -7.5941894     -6.6940974      5.4345084      50218.233      36.893836      36.893836      36.893836    
    129000   0.5996472     -7.5980811     -6.6986231      5.3920558      50218.233      36.893836      36.893836      36.893836    
    130000   0.59885668    -7.5918647     -6.6935925      5.4321242      50218.233      36.893836      36.893836      36.893836    
    131000   0.6012935     -7.5933159     -6.6913884      5.426125       50218.233      36.893836      36.893836      36.893836    
    132000   0.60197611    -7.5945627     -6.6916114      5.4322612      50218.233      36.893836      36.893836      36.893836    
    133000   0.59950725    -7.5934225     -6.6941745      5.4310332      50218.233      36.893836      36.893836      36.893836    
    134000   0.60141954    -7.5940742     -6.6919577      5.4341177      50218.233      36.893836      36.893836      36.893836    
    135000   0.60110011    -7.5967361     -6.6950988      5.3960169      50218.233      36.893836      36.893836      36.893836    
    136000   0.60081663    -7.5974802     -6.6962681      5.403928       50218.233      36.893836      36.893836      36.893836    
    137000   0.601345      -7.5932512     -6.6912465      5.4283484      50218.233      36.893836      36.893836      36.893836    
    138000   0.60185357    -7.5982454     -6.6954779      5.4064432      50218.233      36.893836      36.893836      36.893836    
    139000   0.59898066    -7.5974924     -6.6990342      5.3935747      50218.233      36.893836      36.893836      36.893836    
    140000   0.60177338    -7.6016891     -6.6990418      5.3667229      50218.233      36.893836      36.893836      36.893836    
    141000   0.59939092    -7.5952845     -6.6962109      5.4137859      50218.233      36.893836      36.893836      36.893836    
    142000   0.59853132    -7.5990259     -6.7012417      5.3926765      50218.233      36.893836      36.893836      36.893836    
    143000   0.59930331    -7.6027057     -6.7037635      5.3502387      50218.233      36.893836      36.893836      36.893836    
    144000   0.59870729    -7.594613      -6.6965648      5.413291       50218.233      36.893836      36.893836      36.893836    
    145000   0.59834133    -7.5931733     -6.6956741      5.4514943      50218.233      36.893836      36.893836      36.893836    
    146000   0.60031744    -7.590962      -6.6904987      5.4467281      50218.233      36.893836      36.893836      36.893836    
    147000   0.60028605    -7.5983513     -6.6979351      5.4009741      50218.233      36.893836      36.893836      36.893836    
    148000   0.59963491    -7.594808      -6.6953685      5.4016463      50218.233      36.893836      36.893836      36.893836    
    149000   0.60135816    -7.5974701     -6.6954457      5.405822       50218.233      36.893836      36.893836      36.893836    
    150000   0.60096386    -7.6011313     -6.6996983      5.3602564      50218.233      36.893836      36.893836      36.893836    
    151000   0.59999869    -7.5967452     -6.6967599      5.4075524      50218.233      36.893836      36.893836      36.893836    
    152000   0.59795755    -7.5956309     -6.6987073      5.4182839      50218.233      36.893836      36.893836      36.893836    
    153000   0.59985916    -7.5934238     -6.6936479      5.4479866      50218.233      36.893836      36.893836      36.893836    
    154000   0.6025551     -7.6014171     -6.6975973      5.3857576      50218.233      36.893836      36.893836      36.893836    
    155000   0.60147581    -7.6002034     -6.6980025      5.3914927      50218.233      36.893836      36.893836      36.893836    
    156000   0.60045895    -7.5993211     -6.6986455      5.3778951      50218.233      36.893836      36.893836      36.893836    
    157000   0.59991867    -7.5988203     -6.6989551      5.3872504      50218.233      36.893836      36.893836      36.893836    
    158000   0.60151506    -7.5992623     -6.6970025      5.376712       50218.233      36.893836      36.893836      36.893836    
    159000   0.59750881    -7.5934662     -6.6972157      5.4211856      50218.233      36.893836      36.893836      36.893836    
    160000   0.60001737    -7.5926538     -6.6926405      5.4322536      50218.233      36.893836      36.893836      36.893836    
    161000   0.59544859    -7.598712      -6.7055518      5.3903925      50218.233      36.893836      36.893836      36.893836    
    162000   0.59761604    -7.5928603     -6.696449       5.4327553      50218.233      36.893836      36.893836      36.893836    
    163000   0.5981484     -7.5942962     -6.6970863      5.4148278      50218.233      36.893836      36.893836      36.893836    
    164000   0.59863711    -7.5956197     -6.6976768      5.4075235      50218.233      36.893836      36.893836      36.893836    
    165000   0.59916554    -7.5936985     -6.694963       5.4297236      50218.233      36.893836      36.893836      36.893836    
    166000   0.59664914    -7.5965961     -6.7016351      5.4027163      50218.233      36.893836      36.893836      36.893836    
    167000   0.59938558    -7.5963448     -6.6972792      5.4027856      50218.233      36.893836      36.893836      36.893836    
    168000   0.60135591    -7.5932333     -6.6912122      5.4292372      50218.233      36.893836      36.893836      36.893836    
    169000   0.60221049    -7.5980274     -6.6947245      5.4016406      50218.233      36.893836      36.893836      36.893836    
    170000   0.60078207    -7.5970076     -6.6958473      5.4051752      50218.233      36.893836      36.893836      36.893836    
    171000   0.59993324    -7.6001501     -6.700263       5.3781321      50218.233      36.893836      36.893836      36.893836    
    172000   0.60149189    -7.5951968     -6.6929718      5.429139       50218.233      36.893836      36.893836      36.893836    
    173000   0.60127702    -7.596741      -6.6948383      5.4108226      50218.233      36.893836      36.893836      36.893836    
    174000   0.59877851    -7.5977533     -6.6995983      5.3975165      50218.233      36.893836      36.893836      36.893836    
    175000   0.5998781     -7.598263      -6.6984586      5.3878136      50218.233      36.893836      36.893836      36.893836    
    176000   0.59990908    -7.5959271     -6.6960763      5.4169056      50218.233      36.893836      36.893836      36.893836    
    177000   0.5980453     -7.6001426     -6.7030874      5.3844552      50218.233      36.893836      36.893836      36.893836    
    178000   0.59555887    -7.6046946     -6.711369       5.3351415      50218.233      36.893836      36.893836      36.893836    
    179000   0.59866953    -7.6023125     -6.704321       5.3652242      50218.233      36.893836      36.893836      36.893836    
    180000   0.59711893    -7.6033945     -6.7077289      5.351613       50218.233      36.893836      36.893836      36.893836    
    181000   0.59732429    -7.5982016     -6.7022279      5.3761896      50218.233      36.893836      36.893836      36.893836    
    182000   0.59816826    -7.5951018     -6.6978622      5.4182413      50218.233      36.893836      36.893836      36.893836    
    183000   0.60083373    -7.5972312     -6.6959935      5.4017387      50218.233      36.893836      36.893836      36.893836    
    184000   0.60383626    -7.5987915     -6.69305        5.3936585      50218.233      36.893836      36.893836      36.893836    
    185000   0.59854452    -7.6007692     -6.7029651      5.3662256      50218.233      36.893836      36.893836      36.893836    
    186000   0.59775858    -7.5996878     -6.7030627      5.3784493      50218.233      36.893836      36.893836      36.893836    
    187000   0.59890684    -7.5967003     -6.6983528      5.3908966      50218.233      36.893836      36.893836      36.893836    
    188000   0.60035341    -7.6014383     -6.700921       5.367183       50218.233      36.893836      36.893836      36.893836    
    189000   0.60119703    -7.6007098     -6.698927       5.3798251      50218.233      36.893836      36.893836      36.893836    
    190000   0.60144492    -7.5967075     -6.694553       5.4080534      50218.233      36.893836      36.893836      36.893836    
    191000   0.60192893    -7.6015619     -6.6986814      5.3723669      50218.233      36.893836      36.893836      36.893836    
    192000   0.60173355    -7.5928201     -6.6902326      5.4262962      50218.233      36.893836      36.893836      36.893836    
    193000   0.59688124    -7.5998812     -6.7045721      5.3723863      50218.233      36.893836      36.893836      36.893836    
    194000   0.60048659    -7.6020417     -6.7013246      5.363474       50218.233      36.893836      36.893836      36.893836    
    195000   0.60035577    -7.5986751     -6.6981543      5.3965178      50218.233      36.893836      36.893836      36.893836    
    196000   0.59902882    -7.5992438     -6.7007133      5.3901092      50218.233      36.893836      36.893836      36.893836    
    197000   0.60261825    -7.5975708     -6.6936562      5.4068625      50218.233      36.893836      36.893836      36.893836    
    198000   0.60335514    -7.5966624     -6.6916425      5.4083638      50218.233      36.893836      36.893836      36.893836    
    199000   0.60156802    -7.5978696     -6.6955304      5.3808759      50218.233      36.893836      36.893836      36.893836    
    200000   0.60239696    -7.5985214     -6.6949388      5.3864941      50218.233      36.893836      36.893836      36.893836    
    201000   0.59494832    -7.5939018     -6.701492       5.4105349      50218.233      36.893836      36.893836      36.893836    
    202000   0.60107408    -7.6004885     -6.6988902      5.3728212      50218.233      36.893836      36.893836      36.893836    
    203000   0.60020741    -7.5964414     -6.6961431      5.4001664      50218.233      36.893836      36.893836      36.893836    
    204000   0.60157742    -7.5924721     -6.6901188      5.4409211      50218.233      36.893836      36.893836      36.893836    
    205000   0.59912358    -7.5970258     -6.6983532      5.3980497      50218.233      36.893836      36.893836      36.893836    
    206000   0.59935209    -7.5936348     -6.6946194      5.4261031      50218.233      36.893836      36.893836      36.893836    
    207000   0.60104043    -7.5925721     -6.6910242      5.4303862      50218.233      36.893836      36.893836      36.893836    
    208000   0.5980985     -7.596506      -6.699371       5.4122223      50218.233      36.893836      36.893836      36.893836    
    209000   0.59984655    -7.5909975     -6.6912404      5.453724       50218.233      36.893836      36.893836      36.893836    
    210000   0.59983499    -7.5906914     -6.6909517      5.4649436      50218.233      36.893836      36.893836      36.893836    
    211000   0.60357974    -7.5913018     -6.6859451      5.4510779      50218.233      36.893836      36.893836      36.893836    
    212000   0.59898198    -7.5943487     -6.6958885      5.4232376      50218.233      36.893836      36.893836      36.893836    
    213000   0.6021954     -7.5919733     -6.688693       5.4417804      50218.233      36.893836      36.893836      36.893836    
    214000   0.59988457    -7.5956413     -6.6958272      5.4093872      50218.233      36.893836      36.893836      36.893836    
    215000   0.60151266    -7.594458      -6.6922019      5.4218067      50218.233      36.893836      36.893836      36.893836    
    216000   0.60199597    -7.5910013     -6.6880202      5.4547468      50218.233      36.893836      36.893836      36.893836    
    217000   0.60249659    -7.5955631     -6.691831       5.4261116      50218.233      36.893836      36.893836      36.893836    
    218000   0.60196307    -7.592839      -6.6899073      5.4435698      50218.233      36.893836      36.893836      36.893836    
    219000   0.5971121     -7.5998831     -6.7042277      5.3848788      50218.233      36.893836      36.893836      36.893836    
    220000   0.60117302    -7.5957181     -6.6939714      5.413346       50218.233      36.893836      36.893836      36.893836    
    221000   0.59991551    -7.5911649     -6.6913044      5.4490323      50218.233      36.893836      36.893836      36.893836    
    222000   0.59937237    -7.5949737     -6.6959279      5.4163627      50218.233      36.893836      36.893836      36.893836    
    223000   0.59889587    -7.5886346     -6.6903036      5.4552547      50218.233      36.893836      36.893836      36.893836    
    224000   0.59970387    -7.5920785     -6.6925355      5.4274975      50218.233      36.893836      36.893836      36.893836    
    225000   0.60089153    -7.5921079     -6.6907834      5.4317953      50218.233      36.893836      36.893836      36.893836    
    226000   0.60115902    -7.5966916     -6.6949659      5.4003927      50218.233      36.893836      36.893836      36.893836    
    227000   0.59894786    -7.588603      -6.690194       5.4509454      50218.233      36.893836      36.893836      36.893836    
    228000   0.60124532    -7.5977585     -6.6959034      5.3978491      50218.233      36.893836      36.893836      36.893836    
    229000   0.59778924    -7.5952317     -6.6985606      5.4005022      50218.233      36.893836      36.893836      36.893836    
    230000   0.60036617    -7.5908267     -6.6902902      5.4328623      50218.233      36.893836      36.893836      36.893836    
    231000   0.60167423    -7.5980722     -6.6955737      5.396591       50218.233      36.893836      36.893836      36.893836    
    232000   0.59914652    -7.5892539     -6.6905469      5.4515875      50218.233      36.893836      36.893836      36.893836    
    233000   0.60187538    -7.5972566     -6.6944563      5.4022312      50218.233      36.893836      36.893836      36.893836    
    234000   0.60182799    -7.5961794     -6.6934503      5.3976952      50218.233      36.893836      36.893836      36.893836    
    235000   0.60161094    -7.5915969     -6.6891933      5.4413891      50218.233      36.893836      36.893836      36.893836    
    236000   0.59871657    -7.5934266     -6.6953645      5.4288908      50218.233      36.893836      36.893836      36.893836    
    237000   0.59916649    -7.5899035     -6.6911665      5.4373322      50218.233      36.893836      36.893836      36.893836    
    238000   0.5981524     -7.5915321     -6.6943163      5.4360757      50218.233      36.893836      36.893836      36.893836    
    239000   0.59964128    -7.595993      -6.6965439      5.3992427      50218.233      36.893836      36.893836      36.893836    
    240000   0.60014586    -7.5962979     -6.6960919      5.4062924      50218.233      36.893836      36.893836      36.893836    
    241000   0.60208116    -7.5936815     -6.6905726      5.4418767      50218.233      36.893836      36.893836      36.893836    
    242000   0.60117535    -7.5977924     -6.6960422      5.3951175      50218.233      36.893836      36.893836      36.893836    
    243000   0.5991195     -7.592134      -6.6934675      5.4296964      50218.233      36.893836      36.893836      36.893836    
    244000   0.59905642    -7.5979508     -6.699379       5.3882431      50218.233      36.893836      36.893836      36.893836    
    245000   0.59795301    -7.5938783     -6.6969615      5.4182067      50218.233      36.893836      36.893836      36.893836    
    246000   0.59985581    -7.5964094     -6.6966385      5.4027437      50218.233      36.893836      36.893836      36.893836    
    247000   0.59884374    -7.5976016     -6.6993488      5.3991806      50218.233      36.893836      36.893836      36.893836    
    248000   0.60051638    -7.5940603     -6.6932985      5.4206622      50218.233      36.893836      36.893836      36.893836    
    249000   0.60203973    -7.5965948     -6.6935481      5.4060358      50218.233      36.893836      36.893836      36.893836    
    250000   0.60210685    -7.5998193     -6.6966719      5.373697       50218.233      36.893836      36.893836      36.893836    
    251000   0.59979323    -7.5983568     -6.6986797      5.3876948      50218.233      36.893836      36.893836      36.893836    
    252000   0.59962098    -7.5984279     -6.6990092      5.3869913      50218.233      36.893836      36.893836      36.893836    
    253000   0.5997664     -7.5971526     -6.6975158      5.4069471      50218.233      36.893836      36.893836      36.893836    
    254000   0.59905154    -7.5934707     -6.6949062      5.4201754      50218.233      36.893836      36.893836      36.893836    
    255000   0.60207131    -7.5880952     -6.6850011      5.4753536      50218.233      36.893836      36.893836      36.893836    
    256000   0.59681952    -7.5993946     -6.704178       5.3658437      50218.233      36.893836      36.893836      36.893836    
    257000   0.59771525    -7.5947138     -6.6981537      5.4106057      50218.233      36.893836      36.893836      36.893836    
    258000   0.60081257    -7.5927465     -6.6915405      5.4361648      50218.233      36.893836      36.893836      36.893836    
    259000   0.59702507    -7.5932522     -6.6977273      5.4219689      50218.233      36.893836      36.893836      36.893836    
    260000   0.60015531    -7.5943726     -6.6941525      5.4261988      50218.233      36.893836      36.893836      36.893836    
    261000   0.602414      -7.594658      -6.6910499      5.4326366      50218.233      36.893836      36.893836      36.893836    
    262000   0.59826047    -7.5938819     -6.696504       5.4281424      50218.233      36.893836      36.893836      36.893836    
    263000   0.60106949    -7.5986752     -6.6970838      5.3862004      50218.233      36.893836      36.893836      36.893836    
    264000   0.60133371    -7.596808      -6.6948203      5.4061997      50218.233      36.893836      36.893836      36.893836    
    265000   0.59979719    -7.5931185     -6.6934355      5.4265142      50218.233      36.893836      36.893836      36.893836    
    266000   0.60190345    -7.5947083     -6.691866       5.4171475      50218.233      36.893836      36.893836      36.893836    
    267000   0.60226237    -7.5926447     -6.689264       5.4494001      50218.233      36.893836      36.893836      36.893836    
    268000   0.5984552     -7.590088      -6.692418       5.4435286      50218.233      36.893836      36.893836      36.893836    
    269000   0.59828976    -7.5919607     -6.6945388      5.4346719      50218.233      36.893836      36.893836      36.893836    
    270000   0.59878274    -7.5937777     -6.6956163      5.4220816      50218.233      36.893836      36.893836      36.893836    
    271000   0.59792552    -7.5930706     -6.6961951      5.4345342      50218.233      36.893836      36.893836      36.893836    
    272000   0.6006542     -7.5997731     -6.6988046      5.392044       50218.233      36.893836      36.893836      36.893836    
    273000   0.60043549    -7.5979233     -6.6972829      5.3979707      50218.233      36.893836      36.893836      36.893836    
    274000   0.59425846    -7.5923209     -6.7009459      5.4356633      50218.233      36.893836      36.893836      36.893836    
    275000   0.60000285    -7.5909361     -6.6909446      5.457859       50218.233      36.893836      36.893836      36.893836    
    276000   0.60149316    -7.5906355     -6.6884086      5.4736883      50218.233      36.893836      36.893836      36.893836    
    277000   0.59743392    -7.5934193     -6.6972811      5.4188868      50218.233      36.893836      36.893836      36.893836    
    278000   0.59865123    -7.5889551     -6.690991       5.4563503      50218.233      36.893836      36.893836      36.893836    
    279000   0.59922607    -7.5992119     -6.7003856      5.3810976      50218.233      36.893836      36.893836      36.893836    
    280000   0.59978719    -7.5921728     -6.6925048      5.436524       50218.233      36.893836      36.893836      36.893836    
    281000   0.59863795    -7.5895417     -6.6915975      5.4464726      50218.233      36.893836      36.893836      36.893836    
    282000   0.60095305    -7.5936235     -6.6922067      5.4335059      50218.233      36.893836      36.893836      36.893836    
    283000   0.59907462    -7.5875949     -6.6889958      5.4762977      50218.233      36.893836      36.893836      36.893836    
    284000   0.59887813    -7.5923635     -6.6940591      5.4354304      50218.233      36.893836      36.893836      36.893836    
    285000   0.60068278    -7.5852364     -6.6842251      5.4824565      50218.233      36.893836      36.893836      36.893836    
    286000   0.60145386    -7.592981      -6.6908131      5.4443371      50218.233      36.893836      36.893836      36.893836    
    287000   0.60040863    -7.5948779     -6.6942778      5.4181068      50218.233      36.893836      36.893836      36.893836    
    288000   0.59557857    -7.5988124     -6.7054573      5.3821242      50218.233      36.893836      36.893836      36.893836    
    289000   0.60094298    -7.5943345     -6.6929328      5.423117       50218.233      36.893836      36.893836      36.893836    
    290000   0.59995777    -7.5905553     -6.6906315      5.4493059      50218.233      36.893836      36.893836      36.893836    
    291000   0.6012155     -7.5983332     -6.6965228      5.3943668      50218.233      36.893836      36.893836      36.893836    
    292000   0.60171444    -7.5966359     -6.6940771      5.4032846      50218.233      36.893836      36.893836      36.893836    
    293000   0.60145047    -7.5906772     -6.6885144      5.443574       50218.233      36.893836      36.893836      36.893836    
    294000   0.60090106    -7.587246      -6.6859072      5.4755786      50218.233      36.893836      36.893836      36.893836    
    295000   0.60085561    -7.5904739     -6.6892033      5.4372441      50218.233      36.893836      36.893836      36.893836    
    296000   0.60122495    -7.5934884     -6.6916638      5.4264427      50218.233      36.893836      36.893836      36.893836    
    297000   0.59946509    -7.5938018     -6.6946169      5.4133403      50218.233      36.893836      36.893836      36.893836    
    298000   0.60140113    -7.5958884     -6.6937995      5.4102733      50218.233      36.893836      36.893836      36.893836    
    299000   0.59912212    -7.5893219     -6.6906515      5.4544799      50218.233      36.893836      36.893836      36.893836    
    300000   0.59989538    -7.5929758     -6.6931455      5.4273212      50218.233      36.893836      36.893836      36.893836    
    301000   0.60057125    -7.5939986     -6.6931545      5.4178528      50218.233      36.893836      36.893836      36.893836    
    302000   0.59869727    -7.5906194     -6.6925863      5.4569645      50218.233      36.893836      36.893836      36.893836    
    303000   0.60022369    -7.5940375     -6.6937148      5.4287115      50218.233      36.893836      36.893836      36.893836    
    304000   0.60068685    -7.5926204     -6.6916029      5.4328895      50218.233      36.893836      36.893836      36.893836    
    305000   0.59827736    -7.5961217     -6.6987185      5.3989497      50218.233      36.893836      36.893836      36.893836    
    306000   0.59939969    -7.592375      -6.6932883      5.4354793      50218.233      36.893836      36.893836      36.893836    
    307000   0.59915843    -7.593824      -6.6950991      5.4217888      50218.233      36.893836      36.893836      36.893836    
    308000   0.59744872    -7.5907754     -6.6946151      5.4373586      50218.233      36.893836      36.893836      36.893836    
    309000   0.60307798    -7.5909016     -6.6862974      5.4436845      50218.233      36.893836      36.893836      36.893836    
    310000   0.602654      -7.5945802     -6.6906121      5.4104249      50218.233      36.893836      36.893836      36.893836    
    311000   0.60143736    -7.5968293     -6.6946861      5.3912465      50218.233      36.893836      36.893836      36.893836    
    312000   0.59806825    -7.5958079     -6.6987183      5.3943395      50218.233      36.893836      36.893836      36.893836    
    313000   0.59530143    -7.5973533     -6.7044138      5.3923117      50218.233      36.893836      36.893836      36.893836    
    314000   0.60049049    -7.5944096     -6.6936867      5.4204081      50218.233      36.893836      36.893836      36.893836    
    315000   0.60309118    -7.588276      -6.6836521      5.4578591      50218.233      36.893836      36.893836      36.893836    
    316000   0.60138956    -7.5956314     -6.6935599      5.4085378      50218.233      36.893836      36.893836      36.893836    
    317000   0.59961578    -7.594247      -6.6948361      5.419942       50218.233      36.893836      36.893836      36.893836    
    318000   0.59803823    -7.5926188     -6.6955742      5.4337096      50218.233      36.893836      36.893836      36.893836    
    319000   0.59983661    -7.5921127     -6.6923706      5.4389972      50218.233      36.893836      36.893836      36.893836    
    320000   0.60039883    -7.593814      -6.6932286      5.4252484      50218.233      36.893836      36.893836      36.893836    
    321000   0.59478504    -7.5981283     -6.7059635      5.3782444      50218.233      36.893836      36.893836      36.893836    
    322000   0.60114392    -7.5939651     -6.6922621      5.4299484      50218.233      36.893836      36.893836      36.893836    
    323000   0.59708564    -7.5896768     -6.6940611      5.4488227      50218.233      36.893836      36.893836      36.893836    
    324000   0.59616498    -7.5941206     -6.6998859      5.4117323      50218.233      36.893836      36.893836      36.893836    
    325000   0.59763278    -7.5910067     -6.6945702      5.4429321      50218.233      36.893836      36.893836      36.893836    
    326000   0.60085375    -7.5949141     -6.6936462      5.4104826      50218.233      36.893836      36.893836      36.893836    
    327000   0.59679789    -7.5936349     -6.6984508      5.4233295      50218.233      36.893836      36.893836      36.893836    
    328000   0.60110198    -7.5952791     -6.6936389      5.407175       50218.233      36.893836      36.893836      36.893836    
    329000   0.59969669    -7.5955122     -6.69598        5.3945264      50218.233      36.893836      36.893836      36.893836    
    330000   0.59847344    -7.5942514     -6.696554       5.4158676      50218.233      36.893836      36.893836      36.893836    
    331000   0.60195286    -7.5933381     -6.6904217      5.4256389      50218.233      36.893836      36.893836      36.893836    
    332000   0.59810096    -7.5920115     -6.6948728      5.4320486      50218.233      36.893836      36.893836      36.893836    
    333000   0.59940024    -7.588358      -6.6892704      5.4632243      50218.233      36.893836      36.893836      36.893836    
    334000   0.59872227    -7.5933786     -6.695308       5.4210292      50218.233      36.893836      36.893836      36.893836    
    335000   0.60219859    -7.5912351     -6.68795        5.438344       50218.233      36.893836      36.893836      36.893836    
    336000   0.60147573    -7.5892873     -6.6870866      5.4485066      50218.233      36.893836      36.893836      36.893836    
    337000   0.60032261    -7.5949283     -6.6944572      5.4118716      50218.233      36.893836      36.893836      36.893836    
    338000   0.60349679    -7.5908467     -6.6856144      5.4443061      50218.233      36.893836      36.893836      36.893836    
    339000   0.59842427    -7.5924921     -6.6948685      5.4246269      50218.233      36.893836      36.893836      36.893836    
    340000   0.60014231    -7.5944058     -6.6942051      5.4227199      50218.233      36.893836      36.893836      36.893836    
    341000   0.60164846    -7.5976475     -6.6951877      5.4043122      50218.233      36.893836      36.893836      36.893836    
    342000   0.60285304    -7.5904263     -6.6861596      5.4522811      50218.233      36.893836      36.893836      36.893836    
    343000   0.59965094    -7.5895166     -6.690053       5.4508248      50218.233      36.893836      36.893836      36.893836    
    344000   0.59854089    -7.598583      -6.7007845      5.3869223      50218.233      36.893836      36.893836      36.893836    
    345000   0.59852342    -7.5927701     -6.6949977      5.4246052      50218.233      36.893836      36.893836      36.893836    
    346000   0.60280616    -7.5957898     -6.6915935      5.4231449      50218.233      36.893836      36.893836      36.893836    
    347000   0.60359438    -7.5967157     -6.691337       5.4114029      50218.233      36.893836      36.893836      36.893836    
    348000   0.60111136    -7.5960399     -6.6943856      5.3972472      50218.233      36.893836      36.893836      36.893836    
    349000   0.60098681    -7.5982611     -6.6967937      5.3985367      50218.233      36.893836      36.893836      36.893836    
    350000   0.59974437    -7.5964498     -6.696846       5.416961       50218.233      36.893836      36.893836      36.893836    
    351000   0.59952719    -7.5924777     -6.6931997      5.4526922      50218.233      36.893836      36.893836      36.893836    
    352000   0.60007081    -7.5939638     -6.6938704      5.4187494      50218.233      36.893836      36.893836      36.893836    
    353000   0.59781538    -7.5922495     -6.6955392      5.4399104      50218.233      36.893836      36.893836      36.893836    
    354000   0.60114226    -7.5928965     -6.6911959      5.4278547      50218.233      36.893836      36.893836      36.893836    
    355000   0.59923431    -7.5932095     -6.6943708      5.432476       50218.233      36.893836      36.893836      36.893836    
    356000   0.59911023    -7.5978142     -6.6991616      5.4047814      50218.233      36.893836      36.893836      36.893836    
    357000   0.59694999    -7.5961803     -6.700768       5.3994791      50218.233      36.893836      36.893836      36.893836    
    358000   0.59946355    -7.5961751     -6.6969926      5.4083254      50218.233      36.893836      36.893836      36.893836    
    359000   0.59813386    -7.5980632     -6.7008752      5.3993632      50218.233      36.893836      36.893836      36.893836    
    360000   0.60314487    -7.5947482     -6.6900437      5.4353961      50218.233      36.893836      36.893836      36.893836    
    361000   0.59967578    -7.5916203     -6.6921194      5.43524        50218.233      36.893836      36.893836      36.893836    
    362000   0.60076609    -7.5939157     -6.6927794      5.4338292      50218.233      36.893836      36.893836      36.893836    
    363000   0.59969355    -7.5949165     -6.695389       5.4139652      50218.233      36.893836      36.893836      36.893836    
    364000   0.59822451    -7.5952835     -6.6979595      5.4230122      50218.233      36.893836      36.893836      36.893836    
    365000   0.60036223    -7.5923806     -6.6918501      5.4476584      50218.233      36.893836      36.893836      36.893836    
    366000   0.6016361     -7.5956723     -6.693231       5.4081949      50218.233      36.893836      36.893836      36.893836    
    367000   0.59895168    -7.5927532     -6.6943384      5.4401345      50218.233      36.893836      36.893836      36.893836    
    368000   0.59645402    -7.595868      -6.7011997      5.409881       50218.233      36.893836      36.893836      36.893836    
    369000   0.59981114    -7.594939      -6.695235       5.4159818      50218.233      36.893836      36.893836      36.893836    
    370000   0.5984169     -7.6007666     -6.703154       5.3753599      50218.233      36.893836      36.893836      36.893836    
    371000   0.59856629    -7.5938945     -6.6960579      5.4152984      50218.233      36.893836      36.893836      36.893836    
    372000   0.59959242    -7.5916112     -6.6922354      5.4420149      50218.233      36.893836      36.893836      36.893836    
    373000   0.60208469    -7.598428      -6.6953138      5.3948452      50218.233      36.893836      36.893836      36.893836    
    374000   0.60248665    -7.5963354     -6.6926183      5.3956454      50218.233      36.893836      36.893836      36.893836    
    375000   0.59837855    -7.5953863     -6.6978313      5.403993       50218.233      36.893836      36.893836      36.893836    
    376000   0.59951448    -7.5895085     -6.6902495      5.4646169      50218.233      36.893836      36.893836      36.893836    
    377000   0.60016306    -7.5972704     -6.6970386      5.4033013      50218.233      36.893836      36.893836      36.893836    
    378000   0.60248639    -7.5942766     -6.6905599      5.4230712      50218.233      36.893836      36.893836      36.893836    
    379000   0.59673286    -7.5923709     -6.6972844      5.4260646      50218.233      36.893836      36.893836      36.893836    
    380000   0.59983064    -7.5966908     -6.6969576      5.4044146      50218.233      36.893836      36.893836      36.893836    
    381000   0.59898496    -7.5911331     -6.6926685      5.4432706      50218.233      36.893836      36.893836      36.893836    
    382000   0.60086127    -7.5911587     -6.6898796      5.4452924      50218.233      36.893836      36.893836      36.893836    
    383000   0.60053205    -7.5926972     -6.6919119      5.428928       50218.233      36.893836      36.893836      36.893836    
    384000   0.59986689    -7.5941911     -6.6944036      5.4222653      50218.233      36.893836      36.893836      36.893836    
    385000   0.60019825    -7.5927752     -6.6924906      5.4354388      50218.233      36.893836      36.893836      36.893836    
    386000   0.60291741    -7.5981635     -6.6938003      5.403226       50218.233      36.893836      36.893836      36.893836    
    387000   0.60077422    -7.5927503     -6.6916018      5.4313704      50218.233      36.893836      36.893836      36.893836    
    388000   0.59772545    -7.5984499     -6.7018745      5.3872815      50218.233      36.893836      36.893836      36.893836    
    389000   0.59869603    -7.594494      -6.6964628      5.4231672      50218.233      36.893836      36.893836      36.893836    
    390000   0.60048994    -7.5888672     -6.6881451      5.4653266      50218.233      36.893836      36.893836      36.893836    
    391000   0.59893212    -7.587423      -6.6890376      5.487564       50218.233      36.893836      36.893836      36.893836    
    392000   0.60118967    -7.5860853     -6.6843136      5.492772       50218.233      36.893836      36.893836      36.893836    
    393000   0.60064351    -7.5930944     -6.6921419      5.4334249      50218.233      36.893836      36.893836      36.893836    
    394000   0.60119278    -7.5905093     -6.688733       5.4645829      50218.233      36.893836      36.893836      36.893836    
    395000   0.59981344    -7.5871676     -6.6874602      5.4934679      50218.233      36.893836      36.893836      36.893836    
    396000   0.59748119    -7.5897063     -6.6934972      5.4519488      50218.233      36.893836      36.893836      36.893836    
    397000   0.5992434     -7.594364      -6.6955117      5.4167379      50218.233      36.893836      36.893836      36.893836    
    398000   0.60358455    -7.5892678     -6.6839038      5.4576867      50218.233      36.893836      36.893836      36.893836    
    399000   0.59992081    -7.5944891     -6.6946207      5.4226985      50218.233      36.893836      36.893836      36.893836    
    400000   0.59990706    -7.5926368     -6.692789       5.4501197      50218.233      36.893836      36.893836      36.893836    
    401000   0.60205103    -7.5939118     -6.6908481      5.432761       50218.233      36.893836      36.893836      36.893836    
    402000   0.59907076    -7.5926825     -6.6940891      5.4309736      50218.233      36.893836      36.893836      36.893836    
    403000   0.60111979    -7.5954324     -6.6937655      5.4181         50218.233      36.893836      36.893836      36.893836    
    404000   0.59939967    -7.595088      -6.6960013      5.4357767      50218.233      36.893836      36.893836      36.893836    
    405000   0.60310417    -7.5921447     -6.6875013      5.4510015      50218.233      36.893836      36.893836      36.893836    
    406000   0.59589983    -7.592586      -6.6987489      5.4387211      50218.233      36.893836      36.893836      36.893836    
    407000   0.59960822    -7.5893191     -6.6899195      5.4606914      50218.233      36.893836      36.893836      36.893836    
    408000   0.5970389     -7.5910299     -6.6954843      5.4483357      50218.233      36.893836      36.893836      36.893836    
    409000   0.59899316    -7.5929716     -6.6944946      5.4292783      50218.233      36.893836      36.893836      36.893836    
    410000   0.59908942    -7.592816      -6.6941947      5.4293049      50218.233      36.893836      36.893836      36.893836    
    411000   0.60135541    -7.5886909     -6.6866706      5.4799357      50218.233      36.893836      36.893836      36.893836    
    412000   0.59883382    -7.59915       -6.700912       5.3850541      50218.233      36.893836      36.893836      36.893836    
    413000   0.59879708    -7.5975345     -6.6993517      5.3877087      50218.233      36.893836      36.893836      36.893836    
    414000   0.59700942    -7.5901674     -6.694666       5.4588712      50218.233      36.893836      36.893836      36.893836    
    415000   0.60020904    -7.5953767     -6.6950759      5.4187288      50218.233      36.893836      36.893836      36.893836    
    416000   0.59897356    -7.5945915     -6.6961439      5.4287661      50218.233      36.893836      36.893836      36.893836    
    417000   0.60138357    -7.596351      -6.6942885      5.4130997      50218.233      36.893836      36.893836      36.893836    
    418000   0.60009141    -7.592834      -6.6927097      5.4426349      50218.233      36.893836      36.893836      36.893836    
    419000   0.59555583    -7.5936079     -6.7002868      5.4204261      50218.233      36.893836      36.893836      36.893836    
    420000   0.60032075    -7.5937306     -6.6932623      5.4296935      50218.233      36.893836      36.893836      36.893836    
    421000   0.60136008    -7.6022309     -6.7002036      5.3802193      50218.233      36.893836      36.893836      36.893836    
    422000   0.60272364    -7.5922179     -6.6881453      5.453434       50218.233      36.893836      36.893836      36.893836    
    423000   0.60058109    -7.5909556     -6.6900968      5.4532897      50218.233      36.893836      36.893836      36.893836    
    424000   0.59893589    -7.59249       -6.6940989      5.4327011      50218.233      36.893836      36.893836      36.893836    
    425000   0.60128875    -7.5933958     -6.6914755      5.428034       50218.233      36.893836      36.893836      36.893836    
    426000   0.60283833    -7.5929276     -6.688683       5.4385972      50218.233      36.893836      36.893836      36.893836    
    427000   0.60189869    -7.5937243     -6.6908891      5.4394734      50218.233      36.893836      36.893836      36.893836    
    428000   0.59832442    -7.5944744     -6.6970005      5.4102901      50218.233      36.893836      36.893836      36.893836    
    429000   0.59952095    -7.5875137     -6.688245       5.467063       50218.233      36.893836      36.893836      36.893836    
    430000   0.60005696    -7.5963014     -6.6962287      5.4051038      50218.233      36.893836      36.893836      36.893836    
    431000   0.60162716    -7.5923104     -6.6898825      5.4496749      50218.233      36.893836      36.893836      36.893836    
    432000   0.59960394    -7.5915355     -6.6921424      5.4361525      50218.233      36.893836      36.893836      36.893836    
    433000   0.59730724    -7.5906045     -6.6946564      5.4353089      50218.233      36.893836      36.893836      36.893836    
    434000   0.60202968    -7.5924718     -6.6894401      5.4345537      50218.233      36.893836      36.893836      36.893836    
    435000   0.60130237    -7.5929849     -6.6910442      5.4277694      50218.233      36.893836      36.893836      36.893836    
    436000   0.59976109    -7.5906217     -6.6909929      5.4480176      50218.233      36.893836      36.893836      36.893836    
    437000   0.59944224    -7.5929051     -6.6937545      5.4468069      50218.233      36.893836      36.893836      36.893836    
    438000   0.59848953    -7.591539      -6.6938175      5.4293666      50218.233      36.893836      36.893836      36.893836    
    439000   0.59922013    -7.5932231     -6.6944057      5.4259533      50218.233      36.893836      36.893836      36.893836    
    440000   0.59838694    -7.5945857     -6.697018       5.4149412      50218.233      36.893836      36.893836      36.893836    
    441000   0.60104325    -7.5939913     -6.6924392      5.4184321      50218.233      36.893836      36.893836      36.893836    
    442000   0.59826966    -7.591804      -6.6944122      5.4452206      50218.233      36.893836      36.893836      36.893836    
    443000   0.5993146     -7.5899546     -6.6909954      5.4399477      50218.233      36.893836      36.893836      36.893836    
    444000   0.60233178    -7.5954466     -6.6919618      5.4160451      50218.233      36.893836      36.893836      36.893836    
    445000   0.60003516    -7.5929149     -6.692875       5.4219612      50218.233      36.893836      36.893836      36.893836    
    446000   0.60019042    -7.5921877     -6.6919149      5.4510502      50218.233      36.893836      36.893836      36.893836    
    447000   0.60229012    -7.5941128     -6.6906904      5.4301254      50218.233      36.893836      36.893836      36.893836    
    448000   0.60157623    -7.5882407     -6.6858892      5.4762741      50218.233      36.893836      36.893836      36.893836    
    449000   0.59917245    -7.5990385     -6.7002926      5.3925891      50218.233      36.893836      36.893836      36.893836    
    450000   0.59767862    -7.5909048     -6.6943996      5.4334657      50218.233      36.893836      36.893836      36.893836    
    451000   0.60427239    -7.594786      -6.6883903      5.4265752      50218.233      36.893836      36.893836      36.893836    
    452000   0.59919449    -7.5944158     -6.6956369      5.4258482      50218.233      36.893836      36.893836      36.893836    
    453000   0.59886635    -7.5907137     -6.6924269      5.442004       50218.233      36.893836      36.893836      36.893836    
    454000   0.59919169    -7.5894044     -6.6906296      5.4620695      50218.233      36.893836      36.893836      36.893836    
    455000   0.59976519    -7.5914543     -6.6918193      5.448487       50218.233      36.893836      36.893836      36.893836    
    456000   0.59776297    -7.5959767     -6.699345       5.4060885      50218.233      36.893836      36.893836      36.893836    
    457000   0.59823043    -7.596137      -6.6988041      5.4164634      50218.233      36.893836      36.893836      36.893836    
    458000   0.59849076    -7.5986429     -6.7009195      5.3848696      50218.233      36.893836      36.893836      36.893836    
    459000   0.60291461    -7.59772       -6.6933609      5.4137296      50218.233      36.893836      36.893836      36.893836    
    460000   0.60204824    -7.5989415     -6.695882       5.3962489      50218.233      36.893836      36.893836      36.893836    
    461000   0.59903644    -7.5945525     -6.6960106      5.4278389      50218.233      36.893836      36.893836      36.893836    
    462000   0.59633218    -7.5865703     -6.6920848      5.4688751      50218.233      36.893836      36.893836      36.893836    
    463000   0.60198929    -7.5966333     -6.6936622      5.4063312      50218.233      36.893836      36.893836      36.893836    
    464000   0.60050043    -7.6004601     -6.6997223      5.3789858      50218.233      36.893836      36.893836      36.893836    
    465000   0.60112013    -7.6044417     -6.7027744      5.3406331      50218.233      36.893836      36.893836      36.893836    
    466000   0.59822351    -7.5906491     -6.6933266      5.4513492      50218.233      36.893836      36.893836      36.893836    
    467000   0.60019803    -7.6017143     -6.7014301      5.3553429      50218.233      36.893836      36.893836      36.893836    
    468000   0.59900012    -7.5927291     -6.6942417      5.4249775      50218.233      36.893836      36.893836      36.893836    
    469000   0.60187019    -7.5978709     -6.6950784      5.4103049      50218.233      36.893836      36.893836      36.893836    
    470000   0.60184767    -7.5965411     -6.6937824      5.4000184      50218.233      36.893836      36.893836      36.893836    
    471000   0.60074434    -7.5966026     -6.6954989      5.3969432      50218.233      36.893836      36.893836      36.893836    
    472000   0.60143463    -7.5937159     -6.6915768      5.4130554      50218.233      36.893836      36.893836      36.893836    
    473000   0.59983787    -7.5964839     -6.6967399      5.3947383      50218.233      36.893836      36.893836      36.893836    
    474000   0.60071016    -7.5887071     -6.6876547      5.4680591      50218.233      36.893836      36.893836      36.893836    
    475000   0.59791879    -7.5923422     -6.6954768      5.4237726      50218.233      36.893836      36.893836      36.893836    
    476000   0.60008797    -7.5978979     -6.6977788      5.3827789      50218.233      36.893836      36.893836      36.893836    
    477000   0.59904116    -7.5905816     -6.6920326      5.444685       50218.233      36.893836      36.893836      36.893836    
    478000   0.5987479     -7.5921177     -6.6940086      5.4350484      50218.233      36.893836      36.893836      36.893836    
    479000   0.59749185    -7.5958056     -6.6995806      5.4055051      50218.233      36.893836      36.893836      36.893836    
    480000   0.60016454    -7.5950602     -6.6948262      5.4048547      50218.233      36.893836      36.893836      36.893836    
    481000   0.60082026    -7.5977147     -6.6964971      5.3906617      50218.233      36.893836      36.893836      36.893836    
    482000   0.60227962    -7.5926364     -6.6892299      5.422659       50218.233      36.893836      36.893836      36.893836    
    483000   0.60028467    -7.5932671     -6.6928529      5.4199279      50218.233      36.893836      36.893836      36.893836    
    484000   0.59917747    -7.5956601     -6.6969067      5.4163115      50218.233      36.893836      36.893836      36.893836    
    485000   0.5992401     -7.5963899     -6.6975425      5.4044235      50218.233      36.893836      36.893836      36.893836    
    486000   0.59852431    -7.5951866     -6.697413       5.4063292      50218.233      36.893836      36.893836      36.893836    
    487000   0.60207866    -7.5962607     -6.6931556      5.4191203      50218.233      36.893836      36.893836      36.893836    
    488000   0.59790773    -7.5962409     -6.699392       5.4034155      50218.233      36.893836      36.893836      36.893836    
    489000   0.60175749    -7.5986816     -6.6960582      5.3725658      50218.233      36.893836      36.893836      36.893836    
    490000   0.60107752    -7.595903      -6.6942996      5.4078111      50218.233      36.893836      36.893836      36.893836    
    491000   0.60267712    -7.596587      -6.6925842      5.4074684      50218.233      36.893836      36.893836      36.893836    
    492000   0.59693887    -7.596508      -6.7011124      5.3838738      50218.233      36.893836      36.893836      36.893836    
    493000   0.60019442    -7.5949498     -6.6946709      5.4201731      50218.233      36.893836      36.893836      36.893836    
    494000   0.60242989    -7.5986259     -6.6949939      5.3870802      50218.233      36.893836      36.893836      36.893836    
    495000   0.600505      -7.5954105     -6.6946658      5.4197239      50218.233      36.893836      36.893836      36.893836    
    496000   0.60030286    -7.5962211     -6.6957796      5.4058133      50218.233      36.893836      36.893836      36.893836    
    497000   0.60108176    -7.5956196     -6.6940098      5.4153481      50218.233      36.893836      36.893836      36.893836    
    498000   0.59959154    -7.5964581     -6.6970836      5.4182582      50218.233      36.893836      36.893836      36.893836    
    499000   0.60266186    -7.5974265     -6.6934466      5.4075789      50218.233      36.893836      36.893836      36.893836    
    500000   0.60112803    -7.594726      -6.6930468      5.4183907      50218.233      36.893836      36.893836      36.893836    
    501000   0.59840766    -7.5950458     -6.6974471      5.4097692      50218.233      36.893836      36.893836      36.893836    
    502000   0.60119234    -7.5978654     -6.6960897      5.4000619      50218.233      36.893836      36.893836      36.893836    
    503000   0.60221205    -7.596705      -6.6933998      5.3983303      50218.233      36.893836      36.893836      36.893836    
    504000   0.6002396     -7.5944237     -6.6940771      5.4144297      50218.233      36.893836      36.893836      36.893836    
    505000   0.59996989    -7.5897412     -6.6897991      5.4461731      50218.233      36.893836      36.893836      36.893836    
    506000   0.60168045    -7.5929288     -6.6904209      5.4243089      50218.233      36.893836      36.893836      36.893836    
    507000   0.59993595    -7.5966527     -6.6967615      5.3992776      50218.233      36.893836      36.893836      36.893836    
    508000   0.6031325     -7.5970255     -6.6923396      5.4082673      50218.233      36.893836      36.893836      36.893836    
    509000   0.6006234     -7.5988679     -6.6979456      5.3923361      50218.233      36.893836      36.893836      36.893836    
    510000   0.60120568    -7.5958075     -6.6940118      5.4092185      50218.233      36.893836      36.893836      36.893836    
    511000   0.59961397    -7.5982393     -6.6988311      5.3880306      50218.233      36.893836      36.893836      36.893836    
    512000   0.59809062    -7.5973001     -6.7001769      5.3931919      50218.233      36.893836      36.893836      36.893836    
    513000   0.60011557    -7.5973073     -6.6971467      5.3930689      50218.233      36.893836      36.893836      36.893836    
    514000   0.60247955    -7.5906263     -6.6869198      5.4462506      50218.233      36.893836      36.893836      36.893836    
    515000   0.6014781     -7.5915664     -6.689362       5.4515713      50218.233      36.893836      36.893836      36.893836    
    516000   0.59845796    -7.5946043     -6.6969301      5.4265005      50218.233      36.893836      36.893836      36.893836    
    517000   0.60167384    -7.5923846     -6.6898866      5.4327818      50218.233      36.893836      36.893836      36.893836    
    518000   0.59824418    -7.5912901     -6.6939366      5.4433692      50218.233      36.893836      36.893836      36.893836    
    519000   0.59745698    -7.5945442     -6.6983715      5.4046469      50218.233      36.893836      36.893836      36.893836    
    520000   0.60066296    -7.5929598     -6.6919782      5.4381532      50218.233      36.893836      36.893836      36.893836    
    521000   0.60006237    -7.5915878     -6.6915071      5.4498223      50218.233      36.893836      36.893836      36.893836    
    522000   0.59993777    -7.5957509     -6.695857       5.4125217      50218.233      36.893836      36.893836      36.893836    
    523000   0.599509      -7.5908167     -6.691566       5.458778       50218.233      36.893836      36.893836      36.893836    
    524000   0.59934068    -7.5946308     -6.6956326      5.4206227      50218.233      36.893836      36.893836      36.893836    
    525000   0.60102894    -7.5989416     -6.697411       5.3866817      50218.233      36.893836      36.893836      36.893836    
    526000   0.60005788    -7.6015389     -6.7014649      5.3624927      50218.233      36.893836      36.893836      36.893836    
    527000   0.59923049    -7.6032185     -6.7043855      5.3604811      50218.233      36.893836      36.893836      36.893836    
    528000   0.60189001    -7.5970793     -6.6942571      5.3971281      50218.233      36.893836      36.893836      36.893836    
    529000   0.59887372    -7.5966214     -6.6983236      5.3965964      50218.233      36.893836      36.893836      36.893836    
    530000   0.60288282    -7.5985434     -6.694232       5.3960903      50218.233      36.893836      36.893836      36.893836    
    531000   0.5985334     -7.5961474     -6.6983601      5.4114841      50218.233      36.893836      36.893836      36.893836    
    532000   0.59879062    -7.5907728     -6.6925997      5.4380555      50218.233      36.893836      36.893836      36.893836    
    533000   0.59839627    -7.5895797     -6.691998       5.4457757      50218.233      36.893836      36.893836      36.893836    
    534000   0.60198804    -7.5965943     -6.6936251      5.401019       50218.233      36.893836      36.893836      36.893836    
    535000   0.60391555    -7.5930019     -6.6871415      5.4404648      50218.233      36.893836      36.893836      36.893836    
    536000   0.59992241    -7.5959206     -6.6960498      5.4173092      50218.233      36.893836      36.893836      36.893836    
    537000   0.60123009    -7.5925737     -6.6907414      5.4418016      50218.233      36.893836      36.893836      36.893836    
    538000   0.59583839    -7.5936033     -6.6998584      5.4232365      50218.233      36.893836      36.893836      36.893836    
    539000   0.59658862    -7.5948549     -6.6999846      5.4132467      50218.233      36.893836      36.893836      36.893836    
    540000   0.60312223    -7.5956219     -6.6909515      5.4199406      50218.233      36.893836      36.893836      36.893836    
    541000   0.59728673    -7.5898599     -6.6939426      5.4456432      50218.233      36.893836      36.893836      36.893836    
    542000   0.60154914    -7.5953943     -6.6930835      5.4094294      50218.233      36.893836      36.893836      36.893836    
    543000   0.59837079    -7.6008165     -6.7032731      5.3733174      50218.233      36.893836      36.893836      36.893836    
    544000   0.59998255    -7.5940104     -6.6940494      5.4322882      50218.233      36.893836      36.893836      36.893836    
    545000   0.60187834    -7.5948314     -6.6920267      5.410531       50218.233      36.893836      36.893836      36.893836    
    546000   0.59896376    -7.5918953     -6.6934624      5.4259545      50218.233      36.893836      36.893836      36.893836    
    547000   0.59847001    -7.5953393     -6.697647       5.4091416      50218.233      36.893836      36.893836      36.893836    
    548000   0.59788143    -7.5958734     -6.699064       5.4144845      50218.233      36.893836      36.893836      36.893836    
    549000   0.59851188    -7.5978407     -6.7000856      5.3926331      50218.233      36.893836      36.893836      36.893836    
    550000   0.60105036    -7.5966964     -6.6951337      5.4058798      50218.233      36.893836      36.893836      36.893836    
    551000   0.5991512     -7.5904974     -6.6917834      5.4365477      50218.233      36.893836      36.893836      36.893836    
    552000   0.59751876    -7.5951369     -6.6988715      5.4052229      50218.233      36.893836      36.893836      36.893836    
    553000   0.5995538     -7.5934681     -6.6941502      5.4271295      50218.233      36.893836      36.893836      36.893836    
    554000   0.60130931    -7.5928018     -6.6908507      5.4441046      50218.233      36.893836      36.893836      36.893836    
    555000   0.60140049    -7.5950784     -6.6929905      5.4219925      50218.233      36.893836      36.893836      36.893836    
    556000   0.60326748    -7.598011      -6.6931227      5.4085045      50218.233      36.893836      36.893836      36.893836    
    557000   0.60143218    -7.5912917     -6.6891563      5.4568011      50218.233      36.893836      36.893836      36.893836    
    558000   0.60169045    -7.591754      -6.6892312      5.4419368      50218.233      36.893836      36.893836      36.893836    
    559000   0.59881469    -7.594702      -6.6964927      5.4249209      50218.233      36.893836      36.893836      36.893836    
    560000   0.60316595    -7.5946144     -6.6898783      5.4274578      50218.233      36.893836      36.893836      36.893836    
    561000   0.6007629     -7.5943051     -6.6931736      5.4171314      50218.233      36.893836      36.893836      36.893836    
    562000   0.60295208    -7.5918326     -6.6874174      5.441756       50218.233      36.893836      36.893836      36.893836    
    563000   0.59771245    -7.5887714     -6.6922155      5.4562429      50218.233      36.893836      36.893836      36.893836    
    564000   0.5999604     -7.5935518     -6.693624       5.4344369      50218.233      36.893836      36.893836      36.893836    
    565000   0.59901807    -7.5956964     -6.6971821      5.4193937      50218.233      36.893836      36.893836      36.893836    
    566000   0.59873234    -7.5944573     -6.6963716      5.425784       50218.233      36.893836      36.893836      36.893836    
    567000   0.5989405     -7.5871623     -6.6887643      5.4721076      50218.233      36.893836      36.893836      36.893836    
    568000   0.60390961    -7.59805       -6.6921984      5.3970813      50218.233      36.893836      36.893836      36.893836    
    569000   0.59826969    -7.5947099     -6.6973181      5.4297203      50218.233      36.893836      36.893836      36.893836    
    570000   0.60138464    -7.596367      -6.6943028      5.4220545      50218.233      36.893836      36.893836      36.893836    
    571000   0.60102666    -7.5941679     -6.6926408      5.4233689      50218.233      36.893836      36.893836      36.893836    
    572000   0.60060169    -7.5960102     -6.6951205      5.419386       50218.233      36.893836      36.893836      36.893836    
    573000   0.59651689    -7.600081      -6.7053184      5.3675818      50218.233      36.893836      36.893836      36.893836    
    574000   0.60054781    -7.5933519     -6.692543       5.4217635      50218.233      36.893836      36.893836      36.893836    
    575000   0.59997832    -7.5959249     -6.6959702      5.405504       50218.233      36.893836      36.893836      36.893836    
    576000   0.59916569    -7.5974551     -6.6987193      5.3868723      50218.233      36.893836      36.893836      36.893836    
    577000   0.59984237    -7.5926319     -6.6928811      5.4263218      50218.233      36.893836      36.893836      36.893836    
    578000   0.6017379     -7.5930517     -6.6904577      5.43433        50218.233      36.893836      36.893836      36.893836    
    579000   0.5975011     -7.5953354     -6.6990965      5.4077549      50218.233      36.893836      36.893836      36.893836    
    580000   0.59856896    -7.5950215     -6.6971808      5.4046304      50218.233      36.893836      36.893836      36.893836    
    581000   0.59751091    -7.5947555     -6.6985019      5.4064041      50218.233      36.893836      36.893836      36.893836    
    582000   0.59927748    -7.5956229     -6.6967195      5.4014312      50218.233      36.893836      36.893836      36.893836    
    583000   0.59997587    -7.58571       -6.685759       5.4892334      50218.233      36.893836      36.893836      36.893836    
    584000   0.59957498    -7.593959      -6.6946094      5.4201127      50218.233      36.893836      36.893836      36.893836    
    585000   0.60074868    -7.5874119     -6.6863017      5.4668292      50218.233      36.893836      36.893836      36.893836    
    586000   0.60145618    -7.5902618     -6.6880903      5.4529717      50218.233      36.893836      36.893836      36.893836    
    587000   0.5998536     -7.5891516     -6.689384       5.4691679      50218.233      36.893836      36.893836      36.893836    
    588000   0.60075463    -7.5973566     -6.6962375      5.3907687      50218.233      36.893836      36.893836      36.893836    
    589000   0.6009338     -7.5923764     -6.6909885      5.4384117      50218.233      36.893836      36.893836      36.893836    
    590000   0.59806625    -7.599953      -6.7028664      5.379754       50218.233      36.893836      36.893836      36.893836    
    591000   0.59880951    -7.5909077     -6.6927063      5.4547724      50218.233      36.893836      36.893836      36.893836    
    592000   0.60271614    -7.5927996     -6.6887383      5.4413267      50218.233      36.893836      36.893836      36.893836    
    593000   0.60283388    -7.5917242     -6.6874862      5.4561179      50218.233      36.893836      36.893836      36.893836    
    594000   0.59808285    -7.5975434     -6.7004319      5.3900067      50218.233      36.893836      36.893836      36.893836    
    595000   0.59908786    -7.5895726     -6.6909536      5.4606096      50218.233      36.893836      36.893836      36.893836    
    596000   0.60131749    -7.591483      -6.6895196      5.4420579      50218.233      36.893836      36.893836      36.893836    
    597000   0.59814231    -7.5931765     -6.6959758      5.4316187      50218.233      36.893836      36.893836      36.893836    
    598000   0.59895042    -7.589464      -6.6910511      5.4459753      50218.233      36.893836      36.893836      36.893836    
    599000   0.60279727    -7.593162      -6.688979       5.4318469      50218.233      36.893836      36.893836      36.893836    
    600000   0.59727763    -7.5926575     -6.6967538      5.4404837      50218.233      36.893836      36.893836      36.893836    
    601000   0.60198252    -7.5966528     -6.6936918      5.4073642      50218.233      36.893836      36.893836      36.893836    
    602000   0.59862995    -7.5915352     -6.6936031      5.4461275      50218.233      36.893836      36.893836      36.893836    
    603000   0.60126706    -7.5914929     -6.6896051      5.452246       50218.233      36.893836      36.893836      36.893836    
    604000   0.59940059    -7.5916091     -6.692521       5.4406251      50218.233      36.893836      36.893836      36.893836    
    605000   0.60082228    -7.5931513     -6.6919307      5.426374       50218.233      36.893836      36.893836      36.893836    
    606000   0.60066458    -7.5927368     -6.6917527      5.4363724      50218.233      36.893836      36.893836      36.893836    
    607000   0.59915177    -7.5938319     -6.695117       5.4154702      50218.233      36.893836      36.893836      36.893836    
    608000   0.59991129    -7.5957378     -6.6958837      5.4165214      50218.233      36.893836      36.893836      36.893836    
    609000   0.59945009    -7.5920249     -6.6928626      5.4347339      50218.233      36.893836      36.893836      36.893836    
    610000   0.59988525    -7.5985739     -6.6987588      5.3835625      50218.233      36.893836      36.893836      36.893836    
    611000   0.599554      -7.5910788     -6.6917606      5.4472632      50218.233      36.893836      36.893836      36.893836    
    612000   0.60192993    -7.5899713     -6.6870893      5.4492781      50218.233      36.893836      36.893836      36.893836    
    613000   0.60145955    -7.597339      -6.6951625      5.3956812      50218.233      36.893836      36.893836      36.893836    
    614000   0.59805468    -7.5889724     -6.6919032      5.4681819      50218.233      36.893836      36.893836      36.893836    
    615000   0.60022904    -7.5921912     -6.6918605      5.4275821      50218.233      36.893836      36.893836      36.893836    
    616000   0.60090393    -7.5930975     -6.6917544      5.4300419      50218.233      36.893836      36.893836      36.893836    
    617000   0.59923933    -7.5938914     -6.6950452      5.4254818      50218.233      36.893836      36.893836      36.893836    
    618000   0.60084079    -7.5956475     -6.6943992      5.4129013      50218.233      36.893836      36.893836      36.893836    
    619000   0.60159999    -7.5920257     -6.6896386      5.4415044      50218.233      36.893836      36.893836      36.893836    
    620000   0.60114764    -7.5968539     -6.6951453      5.4052973      50218.233      36.893836      36.893836      36.893836    
    621000   0.60012391    -7.595428      -6.695255       5.4118562      50218.233      36.893836      36.893836      36.893836    
    622000   0.60049742    -7.5986764     -6.6979431      5.3839015      50218.233      36.893836      36.893836      36.893836    
    623000   0.60006615    -7.5970971     -6.6970107      5.3975733      50218.233      36.893836      36.893836      36.893836    
    624000   0.5990994     -7.5943421     -6.6957058      5.414412       50218.233      36.893836      36.893836      36.893836    
    625000   0.6007536     -7.5879527     -6.6868351      5.4817295      50218.233      36.893836      36.893836      36.893836    
    626000   0.60098138    -7.5960035     -6.6945443      5.4177456      50218.233      36.893836      36.893836      36.893836    
    627000   0.60067157    -7.5909386     -6.6899441      5.4455416      50218.233      36.893836      36.893836      36.893836    
    628000   0.60211448    -7.5977571     -6.6945982      5.3926415      50218.233      36.893836      36.893836      36.893836    
    629000   0.60154987    -7.5974838     -6.6951719      5.3929387      50218.233      36.893836      36.893836      36.893836    
    630000   0.60229396    -7.5956305     -6.6922025      5.4157081      50218.233      36.893836      36.893836      36.893836    
    631000   0.60048054    -7.592802      -6.692094       5.425393       50218.233      36.893836      36.893836      36.893836    
    632000   0.59922527    -7.5998173     -6.7009922      5.3873251      50218.233      36.893836      36.893836      36.893836    
    633000   0.60069578    -7.5947909     -6.6937601      5.4330979      50218.233      36.893836      36.893836      36.893836    
    634000   0.60034741    -7.5980524     -6.6975441      5.3969288      50218.233      36.893836      36.893836      36.893836    
    635000   0.59710586    -7.5975264     -6.7018804      5.4050204      50218.233      36.893836      36.893836      36.893836    
    636000   0.603416      -7.5952873     -6.6901762      5.4304794      50218.233      36.893836      36.893836      36.893836    
    637000   0.59786181    -7.6000874     -6.7033074      5.3637162      50218.233      36.893836      36.893836      36.893836    
    638000   0.59849306    -7.5929452     -6.6952184      5.434921       50218.233      36.893836      36.893836      36.893836    
    639000   0.59793468    -7.5910705     -6.6941812      5.4524876      50218.233      36.893836      36.893836      36.893836    
    640000   0.5956965     -7.5936549     -6.7001228      5.4186585      50218.233      36.893836      36.893836      36.893836    
    641000   0.6013111     -7.5956639     -6.69371        5.4165192      50218.233      36.893836      36.893836      36.893836    
    642000   0.60086286    -7.5972452     -6.6959637      5.4092944      50218.233      36.893836      36.893836      36.893836    
    643000   0.60215753    -7.5916831     -6.6884596      5.4454813      50218.233      36.893836      36.893836      36.893836    
    644000   0.59727064    -7.5982692     -6.702376       5.40393        50218.233      36.893836      36.893836      36.893836    
    645000   0.60217906    -7.5917409     -6.6884851      5.4528135      50218.233      36.893836      36.893836      36.893836    
    646000   0.60051654    -7.6000057     -6.6992437      5.3703165      50218.233      36.893836      36.893836      36.893836    
    647000   0.60274099    -7.5938496     -6.689751       5.4310018      50218.233      36.893836      36.893836      36.893836    
    648000   0.59955862    -7.5927805     -6.6934553      5.4242111      50218.233      36.893836      36.893836      36.893836    
    649000   0.59732815    -7.5932463     -6.6972669      5.4254899      50218.233      36.893836      36.893836      36.893836    
    650000   0.60068915    -7.5914791     -6.6904582      5.4526205      50218.233      36.893836      36.893836      36.893836    
    651000   0.60306558    -7.5923883     -6.6878028      5.4450793      50218.233      36.893836      36.893836      36.893836    
    652000   0.59804653    -7.5950538     -6.6979968      5.4008024      50218.233      36.893836      36.893836      36.893836    
    653000   0.60236672    -7.5932531     -6.6897159      5.4326083      50218.233      36.893836      36.893836      36.893836    
    654000   0.6008875     -7.5904933     -6.6891749      5.4438235      50218.233      36.893836      36.893836      36.893836    
    655000   0.59967627    -7.5896262     -6.6901245      5.4611863      50218.233      36.893836      36.893836      36.893836    
    656000   0.60150542    -7.5895709     -6.6873256      5.4605542      50218.233      36.893836      36.893836      36.893836    
    657000   0.59911228    -7.5933924     -6.6947368      5.4347545      50218.233      36.893836      36.893836      36.893836    
    658000   0.59794705    -7.5931814     -6.6962736      5.4323759      50218.233      36.893836      36.893836      36.893836    
    659000   0.60173846    -7.5904825     -6.6878877      5.4554154      50218.233      36.893836      36.893836      36.893836    
    660000   0.60297986    -7.5980642     -6.6936073      5.4007546      50218.233      36.893836      36.893836      36.893836    
    661000   0.60078687    -7.5922798     -6.6911123      5.4345193      50218.233      36.893836      36.893836      36.893836    
    662000   0.60129048    -7.5967166     -6.6947938      5.406043       50218.233      36.893836      36.893836      36.893836    
    663000   0.60116854    -7.5909539     -6.6892139      5.4521676      50218.233      36.893836      36.893836      36.893836    
    664000   0.60154794    -7.593996      -6.6916869      5.4149425      50218.233      36.893836      36.893836      36.893836    
    665000   0.60177235    -7.5920553     -6.6894096      5.4457174      50218.233      36.893836      36.893836      36.893836    
    666000   0.59980458    -7.595873      -6.696179       5.4044029      50218.233      36.893836      36.893836      36.893836    
    667000   0.6068006     -7.592365      -6.6821771      5.4407048      50218.233      36.893836      36.893836      36.893836    
    668000   0.60326855    -7.5912545     -6.6863645      5.4427627      50218.233      36.893836      36.893836      36.893836    
    669000   0.60232143    -7.5946519     -6.6911826      5.4251514      50218.233      36.893836      36.893836      36.893836    
    670000   0.60153025    -7.599222      -6.6969394      5.3821332      50218.233      36.893836      36.893836      36.893836    
    671000   0.60194476    -7.596421      -6.6935167      5.4133316      50218.233      36.893836      36.893836      36.893836    
    672000   0.59731319    -7.5957128     -6.6997557      5.4134169      50218.233      36.893836      36.893836      36.893836    
    673000   0.59853892    -7.5987065     -6.7009109      5.3941519      50218.233      36.893836      36.893836      36.893836    
    674000   0.60168599    -7.5956209     -6.6931047      5.4084627      50218.233      36.893836      36.893836      36.893836    
    675000   0.59809806    -7.5977242     -6.7005899      5.39466        50218.233      36.893836      36.893836      36.893836    
    676000   0.60135283    -7.5932319     -6.6912154      5.4322157      50218.233      36.893836      36.893836      36.893836    
    677000   0.60123916    -7.5946069     -6.692761       5.4276627      50218.233      36.893836      36.893836      36.893836    
    678000   0.60011231    -7.5972954     -6.6971397      5.3989593      50218.233      36.893836      36.893836      36.893836    
    679000   0.60030017    -7.5933108     -6.6928733      5.4360796      50218.233      36.893836      36.893836      36.893836    
    680000   0.60113264    -7.5966241     -6.694938       5.4007738      50218.233      36.893836      36.893836      36.893836    
    681000   0.60052242    -7.593078      -6.6923072      5.4200877      50218.233      36.893836      36.893836      36.893836    
    682000   0.59876697    -7.5934621     -6.6953245      5.4216957      50218.233      36.893836      36.893836      36.893836    
    683000   0.59997392    -7.593348      -6.6933999      5.4174805      50218.233      36.893836      36.893836      36.893836    
    684000   0.59962856    -7.5920985     -6.6926684      5.4346462      50218.233      36.893836      36.893836      36.893836    
    685000   0.60123307    -7.5963829     -6.6945461      5.4008906      50218.233      36.893836      36.893836      36.893836    
    686000   0.59839017    -7.5945197     -6.6969472      5.4137753      50218.233      36.893836      36.893836      36.893836    
    687000   0.5987836     -7.5963561     -6.6981935      5.4099773      50218.233      36.893836      36.893836      36.893836    
    688000   0.60203103    -7.5904753     -6.6874416      5.4544242      50218.233      36.893836      36.893836      36.893836    
    689000   0.59928146    -7.5952735     -6.6963641      5.4024299      50218.233      36.893836      36.893836      36.893836    
    690000   0.60271834    -7.594682      -6.6906174      5.4192345      50218.233      36.893836      36.893836      36.893836    
    691000   0.60264372    -7.586223      -6.6822703      5.4655886      50218.233      36.893836      36.893836      36.893836    
    692000   0.59829761    -7.5858043     -6.6883706      5.4750106      50218.233      36.893836      36.893836      36.893836    
    693000   0.59993367    -7.593021      -6.6931333      5.4320994      50218.233      36.893836      36.893836      36.893836    
    694000   0.60215144    -7.5957388     -6.6925245      5.4168156      50218.233      36.893836      36.893836      36.893836    
    695000   0.59949609    -7.5950082     -6.6957768      5.4125605      50218.233      36.893836      36.893836      36.893836    
    696000   0.5984698     -7.5975705     -6.6998786      5.4032623      50218.233      36.893836      36.893836      36.893836    
    697000   0.60243517    -7.5907288     -6.6870889      5.4552603      50218.233      36.893836      36.893836      36.893836    
    698000   0.60057215    -7.5884701     -6.6876246      5.4695466      50218.233      36.893836      36.893836      36.893836    
    699000   0.60243327    -7.5940394     -6.6904024      5.4262048      50218.233      36.893836      36.893836      36.893836    
    700000   0.60016322    -7.590244      -6.690012       5.4507223      50218.233      36.893836      36.893836      36.893836    
    701000   0.59945563    -7.5945083     -6.6953376      5.4082845      50218.233      36.893836      36.893836      36.893836    
    702000   0.59955702    -7.595423      -6.6961003      5.4200012      50218.233      36.893836      36.893836      36.893836    
    703000   0.59765288    -7.5899985     -6.6935319      5.4550968      50218.233      36.893836      36.893836      36.893836    
    704000   0.60009884    -7.5902047     -6.6900693      5.4575011      50218.233      36.893836      36.893836      36.893836    
    705000   0.5999198     -7.59057       -6.6907031      5.4456887      50218.233      36.893836      36.893836      36.893836    
    706000   0.59933712    -7.5886857     -6.6896928      5.4609354      50218.233      36.893836      36.893836      36.893836    
    707000   0.60073789    -7.5868672     -6.6857732      5.4663388      50218.233      36.893836      36.893836      36.893836    
    708000   0.60002541    -7.5880191     -6.6879938      5.4727746      50218.233      36.893836      36.893836      36.893836    
    709000   0.59923426    -7.589614      -6.6907754      5.4563958      50218.233      36.893836      36.893836      36.893836    
    710000   0.59836412    -7.590229      -6.6926956      5.4575665      50218.233      36.893836      36.893836      36.893836    
    711000   0.60098648    -7.5919634     -6.6904965      5.4363065      50218.233      36.893836      36.893836      36.893836    
    712000   0.60003486    -7.5901031     -6.6900636      5.4496611      50218.233      36.893836      36.893836      36.893836    
    713000   0.59898298    -7.5927497     -6.694288       5.4251228      50218.233      36.893836      36.893836      36.893836    
    714000   0.59814711    -7.5941848     -6.6969769      5.4019         50218.233      36.893836      36.893836      36.893836    
    715000   0.60326998    -7.5870174     -6.6821253      5.4819622      50218.233      36.893836      36.893836      36.893836    
    716000   0.60046795    -7.5916078     -6.6909187      5.4497957      50218.233      36.893836      36.893836      36.893836    
    717000   0.60051478    -7.5929265     -6.6921671      5.4300852      50218.233      36.893836      36.893836      36.893836    
    718000   0.59736002    -7.5951642     -6.6991369      5.4156022      50218.233      36.893836      36.893836      36.893836    
    719000   0.60008813    -7.5920589     -6.6919395      5.4349769      50218.233      36.893836      36.893836      36.893836    
    720000   0.59933999    -7.5980075     -6.6990103      5.3980447      50218.233      36.893836      36.893836      36.893836    
    721000   0.59601187    -7.596255      -6.7022499      5.4065724      50218.233      36.893836      36.893836      36.893836    
    722000   0.59878114    -7.5906444     -6.6924855      5.4488574      50218.233      36.893836      36.893836      36.893836    
    723000   0.59869703    -7.594798      -6.6967652      5.4205811      50218.233      36.893836      36.893836      36.893836    
    724000   0.60181754    -7.5932578     -6.6905443      5.4342241      50218.233      36.893836      36.893836      36.893836    
    725000   0.59606078    -7.5945494     -6.700471       5.414694       50218.233      36.893836      36.893836      36.893836    
    726000   0.59874651    -7.5961798     -6.6980728      5.4184625      50218.233      36.893836      36.893836      36.893836    
    727000   0.59687927    -7.5928214     -6.6975153      5.4302137      50218.233      36.893836      36.893836      36.893836    
    728000   0.59721167    -7.5960434     -6.7002387      5.4037639      50218.233      36.893836      36.893836      36.893836    
    729000   0.5990129     -7.5969256     -6.698419       5.4019429      50218.233      36.893836      36.893836      36.893836    
    730000   0.59929821    -7.591806      -6.6928715      5.4514145      50218.233      36.893836      36.893836      36.893836    
    731000   0.60270073    -7.5940637     -6.6900255      5.4266096      50218.233      36.893836      36.893836      36.893836    
    732000   0.60134642    -7.5975179     -6.6955111      5.4117922      50218.233      36.893836      36.893836      36.893836    
    733000   0.60221725    -7.5942376     -6.6909245      5.4267584      50218.233      36.893836      36.893836      36.893836    
    734000   0.60241567    -7.592732      -6.6891213      5.4413944      50218.233      36.893836      36.893836      36.893836    
    735000   0.59771251    -7.5920595     -6.6955035      5.4385602      50218.233      36.893836      36.893836      36.893836    
    736000   0.59895912    -7.5987165     -6.7002906      5.3917091      50218.233      36.893836      36.893836      36.893836    
    737000   0.60122258    -7.5942404     -6.6924194      5.4158296      50218.233      36.893836      36.893836      36.893836    
    738000   0.59867276    -7.5931046     -6.6951082      5.4225544      50218.233      36.893836      36.893836      36.893836    
    739000   0.60237244    -7.5988556     -6.6953097      5.3870356      50218.233      36.893836      36.893836      36.893836    
    740000   0.59768611    -7.5954175     -6.698901       5.4165629      50218.233      36.893836      36.893836      36.893836    
    741000   0.59977377    -7.5928735     -6.6932256      5.4348464      50218.233      36.893836      36.893836      36.893836    
    742000   0.59856531    -7.5971352     -6.6993         5.3907785      50218.233      36.893836      36.893836      36.893836    
    743000   0.59908307    -7.5964246     -6.6978128      5.4062062      50218.233      36.893836      36.893836      36.893836    
    744000   0.59942014    -7.5973058     -6.6981883      5.4079954      50218.233      36.893836      36.893836      36.893836    
    745000   0.60025786    -7.5947251     -6.6943511      5.4245318      50218.233      36.893836      36.893836      36.893836    
    746000   0.60297301    -7.5960113     -6.6915646      5.4095147      50218.233      36.893836      36.893836      36.893836    
    747000   0.60141319    -7.5932469     -6.6911399      5.4312609      50218.233      36.893836      36.893836      36.893836    
    748000   0.60392174    -7.5924783     -6.6866086      5.4300024      50218.233      36.893836      36.893836      36.893836    
    749000   0.60068767    -7.5926083     -6.6915896      5.4335265      50218.233      36.893836      36.893836      36.893836    
    750000   0.60011001    -7.6012102     -6.701058       5.380101       50218.233      36.893836      36.893836      36.893836    
    751000   0.60146984    -7.5986417     -6.6964498      5.3870539      50218.233      36.893836      36.893836      36.893836    
    752000   0.60084441    -7.593241      -6.6919872      5.428811       50218.233      36.893836      36.893836      36.893836    
    753000   0.59774967    -7.5982049     -6.7015932      5.3875612      50218.233      36.893836      36.893836      36.893836    
    754000   0.6023833     -7.5958191     -6.692257       5.4108502      50218.233      36.893836      36.893836      36.893836    
    755000   0.59807588    -7.5961312     -6.6990302      5.4077356      50218.233      36.893836      36.893836      36.893836    
    756000   0.60014313    -7.5914262     -6.6912243      5.4536035      50218.233      36.893836      36.893836      36.893836    
    757000   0.59518507    -7.5915148     -6.6987499      5.4494732      50218.233      36.893836      36.893836      36.893836    
    758000   0.60093163    -7.5919555     -6.6905709      5.4333089      50218.233      36.893836      36.893836      36.893836    
    759000   0.59835453    -7.5956983     -6.6981792      5.4053596      50218.233      36.893836      36.893836      36.893836    
    760000   0.59913206    -7.5875299     -6.6888446      5.4777653      50218.233      36.893836      36.893836      36.893836    
    761000   0.60080852    -7.5918729     -6.6906729      5.4408564      50218.233      36.893836      36.893836      36.893836    
    762000   0.60310582    -7.5919956     -6.6873497      5.4471205      50218.233      36.893836      36.893836      36.893836    
    763000   0.60046651    -7.5916217     -6.6909347      5.4467717      50218.233      36.893836      36.893836      36.893836    
    764000   0.60125844    -7.5913423     -6.6894675      5.4519333      50218.233      36.893836      36.893836      36.893836    
    765000   0.60021643    -7.5890095     -6.6886977      5.4588518      50218.233      36.893836      36.893836      36.893836    
    766000   0.59701061    -7.5891993     -6.6936961      5.4820179      50218.233      36.893836      36.893836      36.893836    
    767000   0.5998102     -7.5927616     -6.6930591      5.4393643      50218.233      36.893836      36.893836      36.893836    
    768000   0.6011941     -7.5953732     -6.6935949      5.427586       50218.233      36.893836      36.893836      36.893836    
    769000   0.6005495     -7.5967432     -6.6959318      5.4090307      50218.233      36.893836      36.893836      36.893836    
    770000   0.5984687     -7.5870908     -6.6894005      5.4712073      50218.233      36.893836      36.893836      36.893836    
    771000   0.59663991    -7.5989319     -6.7039848      5.3939733      50218.233      36.893836      36.893836      36.893836    
    772000   0.60250522    -7.5913261     -6.6875811      5.4461585      50218.233      36.893836      36.893836      36.893836    
    773000   0.5988125     -7.59451       -6.696304       5.4087761      50218.233      36.893836      36.893836      36.893836    
    774000   0.6010862     -7.5966382     -6.6950217      5.4048347      50218.233      36.893836      36.893836      36.893836    
    775000   0.59950723    -7.5934814     -6.6942334      5.4264501      50218.233      36.893836      36.893836      36.893836    
    776000   0.5962617     -7.5929128     -6.698533       5.4328932      50218.233      36.893836      36.893836      36.893836    
    777000   0.60246715    -7.5930013     -6.6893135      5.4331902      50218.233      36.893836      36.893836      36.893836    
    778000   0.60176331    -7.5942743     -6.6916422      5.4114205      50218.233      36.893836      36.893836      36.893836    
    779000   0.59935445    -7.5954297     -6.6964109      5.4037727      50218.233      36.893836      36.893836      36.893836    
    780000   0.59950487    -7.5952222     -6.6959777      5.404089       50218.233      36.893836      36.893836      36.893836    
    781000   0.60030349    -7.5948199     -6.6943774      5.4035816      50218.233      36.893836      36.893836      36.893836    
    782000   0.60205908    -7.5935889     -6.6905131      5.4337361      50218.233      36.893836      36.893836      36.893836    
    783000   0.5996589     -7.5906821     -6.6912065      5.444736       50218.233      36.893836      36.893836      36.893836    
    784000   0.59998511    -7.5963362     -6.6963714      5.4066001      50218.233      36.893836      36.893836      36.893836    
    785000   0.6002964     -7.5928707     -6.6924389      5.4353796      50218.233      36.893836      36.893836      36.893836    
    786000   0.59786651    -7.5937857     -6.6969987      5.4110176      50218.233      36.893836      36.893836      36.893836    
    787000   0.5993478     -7.5941777     -6.6951688      5.4240501      50218.233      36.893836      36.893836      36.893836    
    788000   0.59842927    -7.5943785     -6.6967473      5.4083814      50218.233      36.893836      36.893836      36.893836    
    789000   0.59765228    -7.5925524     -6.6960867      5.4135018      50218.233      36.893836      36.893836      36.893836    
    790000   0.60252433    -7.5944597     -6.690686       5.4205603      50218.233      36.893836      36.893836      36.893836    
    791000   0.60065481    -7.5979571     -6.6969877      5.3883904      50218.233      36.893836      36.893836      36.893836    
    792000   0.60361577    -7.5980069     -6.6925961      5.3930057      50218.233      36.893836      36.893836      36.893836    
    793000   0.59816538    -7.5946132     -6.6973779      5.4184345      50218.233      36.893836      36.893836      36.893836    
    794000   0.59681037    -7.5927382     -6.6975354      5.4194412      50218.233      36.893836      36.893836      36.893836    
    795000   0.59893353    -7.5947925     -6.696405       5.4076699      50218.233      36.893836      36.893836      36.893836    
    796000   0.59899906    -7.5982514     -6.6997656      5.381937       50218.233      36.893836      36.893836      36.893836    
    797000   0.59874436    -7.5897031     -6.6915994      5.4562307      50218.233      36.893836      36.893836      36.893836    
    798000   0.59744743    -7.5963874     -6.700229       5.403312       50218.233      36.893836      36.893836      36.893836    
    799000   0.60200893    -7.5924885     -6.6894879      5.4352166      50218.233      36.893836      36.893836      36.893836    
    800000   0.59701828    -7.5917947     -6.69628        5.4285649      50218.233      36.893836      36.893836      36.893836    
    801000   0.60072982    -7.5951931     -6.6941112      5.4133258      50218.233      36.893836      36.893836      36.893836    
    802000   0.601676      -7.5867271     -6.684226       5.4691954      50218.233      36.893836      36.893836      36.893836    
    803000   0.60139279    -7.593915      -6.6918386      5.408911       50218.233      36.893836      36.893836      36.893836    
    804000   0.60194705    -7.5878961     -6.6849884      5.4577078      50218.233      36.893836      36.893836      36.893836    
    805000   0.59719422    -7.5969797     -6.7012011      5.3981922      50218.233      36.893836      36.893836      36.893836    
    806000   0.59868604    -7.5892217     -6.6912054      5.4443093      50218.233      36.893836      36.893836      36.893836    
    807000   0.59710818    -7.5958318     -6.7001823      5.3941295      50218.233      36.893836      36.893836      36.893836    
    808000   0.60036558    -7.5920105     -6.691475       5.4328036      50218.233      36.893836      36.893836      36.893836    
    809000   0.59944949    -7.5922585     -6.693097       5.4353854      50218.233      36.893836      36.893836      36.893836    
    810000   0.59961435    -7.5890632     -6.6896545      5.4468456      50218.233      36.893836      36.893836      36.893836    
    811000   0.60363985    -7.5941153     -6.6886684      5.4146053      50218.233      36.893836      36.893836      36.893836    
    812000   0.60464257    -7.5978628     -6.6909119      5.3904613      50218.233      36.893836      36.893836      36.893836    
    813000   0.60245148    -7.5969829     -6.6933185      5.397169       50218.233      36.893836      36.893836      36.893836    
    814000   0.59903963    -7.5945497     -6.6960031      5.4036796      50218.233      36.893836      36.893836      36.893836    
    815000   0.59934168    -7.5925382     -6.6935385      5.4307203      50218.233      36.893836      36.893836      36.893836    
    816000   0.59952476    -7.591495      -6.6922206      5.4410466      50218.233      36.893836      36.893836      36.893836    
    817000   0.60104958    -7.5912997     -6.6897382      5.4433318      50218.233      36.893836      36.893836      36.893836    
    818000   0.59606164    -7.5921009     -6.6980212      5.4317209      50218.233      36.893836      36.893836      36.893836    
    819000   0.59767771    -7.5885652     -6.6920613      5.4633092      50218.233      36.893836      36.893836      36.893836    
    820000   0.60130467    -7.5914973     -6.6895531      5.4509759      50218.233      36.893836      36.893836      36.893836    
    821000   0.6006145     -7.5927597     -6.6918508      5.4287404      50218.233      36.893836      36.893836      36.893836    
    822000   0.5966723     -7.5954231     -6.7004274      5.4246835      50218.233      36.893836      36.893836      36.893836    
    823000   0.60058197    -7.5930175     -6.6921573      5.4390188      50218.233      36.893836      36.893836      36.893836    
    824000   0.5989523     -7.5921234     -6.6937077      5.4394687      50218.233      36.893836      36.893836      36.893836    
    825000   0.6024296     -7.592441      -6.6888095      5.4306409      50218.233      36.893836      36.893836      36.893836    
    826000   0.59869609    -7.5913523     -6.693321       5.4317446      50218.233      36.893836      36.893836      36.893836    
    827000   0.60173307    -7.5962802     -6.6936934      5.4117565      50218.233      36.893836      36.893836      36.893836    
    828000   0.59840165    -7.5956396     -6.6980499      5.4041801      50218.233      36.893836      36.893836      36.893836    
    829000   0.60014998    -7.5935735     -6.6933613      5.4245505      50218.233      36.893836      36.893836      36.893836    
    830000   0.59998658    -7.5930685     -6.6931014      5.4314181      50218.233      36.893836      36.893836      36.893836    
    831000   0.5981997     -7.6008154     -6.7035287      5.3704418      50218.233      36.893836      36.893836      36.893836    
    832000   0.60001206    -7.5960734     -6.6960681      5.4075409      50218.233      36.893836      36.893836      36.893836    
    833000   0.60308204    -7.5944321     -6.6898219      5.4209238      50218.233      36.893836      36.893836      36.893836    
    834000   0.60004338    -7.6002976     -6.7002453      5.3781075      50218.233      36.893836      36.893836      36.893836    
    835000   0.60262409    -7.5957583     -6.691835       5.417309       50218.233      36.893836      36.893836      36.893836    
    836000   0.59821811    -7.5950398     -6.6977254      5.422839       50218.233      36.893836      36.893836      36.893836    
    837000   0.60026954    -7.5946285     -6.694237       5.4234949      50218.233      36.893836      36.893836      36.893836    
    838000   0.60131156    -7.593936      -6.6919815      5.4250654      50218.233      36.893836      36.893836      36.893836    
    839000   0.59568096    -7.5968991     -6.7033904      5.3896725      50218.233      36.893836      36.893836      36.893836    
    840000   0.60020903    -7.5955438     -6.695243       5.4046632      50218.233      36.893836      36.893836      36.893836    
    841000   0.60044282    -7.5978832     -6.6972317      5.3865656      50218.233      36.893836      36.893836      36.893836    
    842000   0.60053117    -7.6003396     -6.6995557      5.3720647      50218.233      36.893836      36.893836      36.893836    
    843000   0.60214362    -7.5946537     -6.6914511      5.4214259      50218.233      36.893836      36.893836      36.893836    
    844000   0.59999261    -7.6028326     -6.7028565      5.3496964      50218.233      36.893836      36.893836      36.893836    
    845000   0.60162952    -7.5960959     -6.6936645      5.4156233      50218.233      36.893836      36.893836      36.893836    
    846000   0.60032076    -7.6007857     -6.7003173      5.3779023      50218.233      36.893836      36.893836      36.893836    
    847000   0.59956856    -7.5983304     -6.6989904      5.3938911      50218.233      36.893836      36.893836      36.893836    
    848000   0.60276704    -7.59553       -6.6913924      5.4203921      50218.233      36.893836      36.893836      36.893836    
    849000   0.60102082    -7.5967771     -6.6952587      5.4078298      50218.233      36.893836      36.893836      36.893836    
    850000   0.60039156    -7.5990663     -6.6984917      5.3867047      50218.233      36.893836      36.893836      36.893836    
    851000   0.5992421     -7.5934966     -6.6946462      5.4293793      50218.233      36.893836      36.893836      36.893836    
    852000   0.59859388    -7.5996113     -6.7017333      5.376132       50218.233      36.893836      36.893836      36.893836    
    853000   0.60053136    -7.5951557     -6.6943714      5.4269928      50218.233      36.893836      36.893836      36.893836    
    854000   0.59885597    -7.5988888     -6.7006176      5.3807069      50218.233      36.893836      36.893836      36.893836    
    855000   0.6009731     -7.5956319     -6.6941851      5.4163139      50218.233      36.893836      36.893836      36.893836    
    856000   0.59867795    -7.5938137     -6.6958095      5.4186847      50218.233      36.893836      36.893836      36.893836    
    857000   0.59857854    -7.5991408     -6.7012857      5.3780359      50218.233      36.893836      36.893836      36.893836    
    858000   0.60084688    -7.6016206     -6.700363       5.3681741      50218.233      36.893836      36.893836      36.893836    
    859000   0.60165477    -7.5924779     -6.6900086      5.4327717      50218.233      36.893836      36.893836      36.893836    
    860000   0.6007784     -7.5958814     -6.6947266      5.4099137      50218.233      36.893836      36.893836      36.893836    
    861000   0.60019805    -7.5940971     -6.6938128      5.4089811      50218.233      36.893836      36.893836      36.893836    
    862000   0.60280719    -7.5981491     -6.6939512      5.3882792      50218.233      36.893836      36.893836      36.893836    
    863000   0.60056462    -7.5951596     -6.6943255      5.4040139      50218.233      36.893836      36.893836      36.893836    
    864000   0.60352413    -7.5967149     -6.6914416      5.4128633      50218.233      36.893836      36.893836      36.893836    
    865000   0.60009687    -7.594768      -6.6946355      5.4136576      50218.233      36.893836      36.893836      36.893836    
    866000   0.59651809    -7.5940237     -6.6992593      5.4192679      50218.233      36.893836      36.893836      36.893836    
    867000   0.59800482    -7.5968247     -6.6998303      5.3893848      50218.233      36.893836      36.893836      36.893836    
    868000   0.59985954    -7.5964669     -6.6966904      5.3942989      50218.233      36.893836      36.893836      36.893836    
    869000   0.601266      -7.6043768     -6.7024906      5.3396107      50218.233      36.893836      36.893836      36.893836    
    870000   0.60345665    -7.5954301     -6.690258       5.4103417      50218.233      36.893836      36.893836      36.893836    
    871000   0.60018537    -7.5978784     -6.6976131      5.3961165      50218.233      36.893836      36.893836      36.893836    
    872000   0.60189266    -7.6023697     -6.6995435      5.3589852      50218.233      36.893836      36.893836      36.893836    
    873000   0.60202039    -7.5943767     -6.691359       5.4067608      50218.233      36.893836      36.893836      36.893836    
    874000   0.60015598    -7.5957862     -6.695565       5.3974874      50218.233      36.893836      36.893836      36.893836    
    875000   0.59768652    -7.5973486     -6.7008316      5.3756819      50218.233      36.893836      36.893836      36.893836    
    876000   0.59764148    -7.6032144     -6.7067649      5.3446412      50218.233      36.893836      36.893836      36.893836    
    877000   0.60036923    -7.5937324     -6.6931914      5.4133442      50218.233      36.893836      36.893836      36.893836    
    878000   0.59928246    -7.5972654     -6.6983545      5.3908004      50218.233      36.893836      36.893836      36.893836    
    879000   0.60048369    -7.6000975     -6.6993848      5.3688143      50218.233      36.893836      36.893836      36.893836    
    880000   0.60004804    -7.6015385     -6.7014792      5.3576678      50218.233      36.893836      36.893836      36.893836    
    881000   0.59824787    -7.5928063     -6.6954473      5.4287757      50218.233      36.893836      36.893836      36.893836    
    882000   0.59989067    -7.5993793     -6.6995561      5.3869844      50218.233      36.893836      36.893836      36.893836    
    883000   0.60182277    -7.5976057     -6.6948844      5.3989092      50218.233      36.893836      36.893836      36.893836    
    884000   0.60091546    -7.5948165     -6.6934562      5.414798       50218.233      36.893836      36.893836      36.893836    
    885000   0.60326928    -7.5977577     -6.6928666      5.3922262      50218.233      36.893836      36.893836      36.893836    
    886000   0.60043196    -7.5975934     -6.6969583      5.4038405      50218.233      36.893836      36.893836      36.893836    
    887000   0.59854853    -7.5953107     -6.6975007      5.4122339      50218.233      36.893836      36.893836      36.893836    
    888000   0.59965055    -7.6004765     -6.7010135      5.3777089      50218.233      36.893836      36.893836      36.893836    
    889000   0.59928574    -7.5912872     -6.6923714      5.4427945      50218.233      36.893836      36.893836      36.893836    
    890000   0.60015592    -7.5985796     -6.6983585      5.3872874      50218.233      36.893836      36.893836      36.893836    
    891000   0.60088822    -7.597567      -6.6962475      5.3977581      50218.233      36.893836      36.893836      36.893836    
    892000   0.59834196    -7.5939333     -6.6964331      5.4163241      50218.233      36.893836      36.893836      36.893836    
    893000   0.59889068    -7.5996325     -6.7013093      5.3789055      50218.233      36.893836      36.893836      36.893836    
    894000   0.60032177    -7.5951237     -6.6946538      5.4178326      50218.233      36.893836      36.893836      36.893836    
    895000   0.59828092    -7.5985136     -6.701105       5.3776396      50218.233      36.893836      36.893836      36.893836    
    896000   0.6006369     -7.5948482     -6.6939057      5.4193154      50218.233      36.893836      36.893836      36.893836    
    897000   0.598311      -7.5955574     -6.6981037      5.3977837      50218.233      36.893836      36.893836      36.893836    
    898000   0.60028019    -7.5976994     -6.6972919      5.4077083      50218.233      36.893836      36.893836      36.893836    
    899000   0.59883737    -7.5952004     -6.6969571      5.4140189      50218.233      36.893836      36.893836      36.893836    
    900000   0.59957535    -7.5933981     -6.6940479      5.4277843      50218.233      36.893836      36.893836      36.893836    
    901000   0.60299331    -7.597766      -6.6932889      5.3885648      50218.233      36.893836      36.893836      36.893836    
    902000   0.60040443    -7.5929602     -6.6923664      5.4285596      50218.233      36.893836      36.893836      36.893836    
    903000   0.59658798    -7.5931939     -6.6983247      5.4230461      50218.233      36.893836      36.893836      36.893836    
    904000   0.59756431    -7.5956603     -6.6993265      5.4035412      50218.233      36.893836      36.893836      36.893836    
    905000   0.6003642     -7.5975737     -6.6970402      5.4104425      50218.233      36.893836      36.893836      36.893836    
    906000   0.60232293    -7.5944623     -6.6909907      5.4241061      50218.233      36.893836      36.893836      36.893836    
    907000   0.59842382    -7.5950348     -6.6974118      5.4228427      50218.233      36.893836      36.893836      36.893836    
    908000   0.59884112    -7.5912086     -6.6929597      5.4508776      50218.233      36.893836      36.893836      36.893836    
    909000   0.60107579    -7.5946401     -6.6930392      5.4190666      50218.233      36.893836      36.893836      36.893836    
    910000   0.60184577    -7.5939891     -6.6912333      5.4318047      50218.233      36.893836      36.893836      36.893836    
    911000   0.59993408    -7.5939906     -6.6941022      5.4348877      50218.233      36.893836      36.893836      36.893836    
    912000   0.5997682     -7.5977466     -6.6981071      5.4055981      50218.233      36.893836      36.893836      36.893836    
    913000   0.60014431    -7.5941717     -6.693968       5.4264366      50218.233      36.893836      36.893836      36.893836    
    914000   0.6018259     -7.5941969     -6.6914708      5.43561        50218.233      36.893836      36.893836      36.893836    
    915000   0.60321148    -7.5972137     -6.6924093      5.4046206      50218.233      36.893836      36.893836      36.893836    
    916000   0.59875354    -7.5973722     -6.6992546      5.4024817      50218.233      36.893836      36.893836      36.893836    
    917000   0.59779627    -7.5947286     -6.6980469      5.4099547      50218.233      36.893836      36.893836      36.893836    
    918000   0.59962401    -7.5926079     -6.6931847      5.4414561      50218.233      36.893836      36.893836      36.893836    
    919000   0.59884882    -7.5960679     -6.6978075      5.4177557      50218.233      36.893836      36.893836      36.893836    
    920000   0.60186558    -7.5904997     -6.6877141      5.4500519      50218.233      36.893836      36.893836      36.893836    
    921000   0.59635578    -7.5967239     -6.7022029      5.3984988      50218.233      36.893836      36.893836      36.893836    
    922000   0.59839861    -7.5899092     -6.692324       5.4508054      50218.233      36.893836      36.893836      36.893836    
    923000   0.59776727    -7.59656       -6.6999218      5.4106098      50218.233      36.893836      36.893836      36.893836    
    924000   0.59563406    -7.5911814     -6.697743       5.4495871      50218.233      36.893836      36.893836      36.893836    
    925000   0.60218572    -7.5967779     -6.6935122      5.4091863      50218.233      36.893836      36.893836      36.893836    
    926000   0.60397414    -7.5973549     -6.6914066      5.4007243      50218.233      36.893836      36.893836      36.893836    
    927000   0.60052603    -7.5927313     -6.691955       5.4415045      50218.233      36.893836      36.893836      36.893836    
    928000   0.60151454    -7.5958396     -6.6935806      5.4160045      50218.233      36.893836      36.893836      36.893836    
    929000   0.60029981    -7.5914857     -6.6910488      5.4583743      50218.233      36.893836      36.893836      36.893836    
    930000   0.60095341    -7.5951316     -6.6937143      5.42262        50218.233      36.893836      36.893836      36.893836    
    931000   0.59666064    -7.5935544     -6.6985761      5.4183614      50218.233      36.893836      36.893836      36.893836    
    932000   0.60025465    -7.5948536     -6.6944844      5.4134343      50218.233      36.893836      36.893836      36.893836    
    933000   0.59893523    -7.5924262     -6.6940361      5.4361269      50218.233      36.893836      36.893836      36.893836    
    934000   0.60196166    -7.5946034     -6.6916738      5.4110555      50218.233      36.893836      36.893836      36.893836    
    935000   0.59720476    -7.590116      -6.6943217      5.4566657      50218.233      36.893836      36.893836      36.893836    
    936000   0.59868802    -7.5973892     -6.69937        5.4020746      50218.233      36.893836      36.893836      36.893836    
    937000   0.5989885     -7.5964099     -6.6979399      5.4007174      50218.233      36.893836      36.893836      36.893836    
    938000   0.601434      -7.5980553     -6.6959171      5.3914426      50218.233      36.893836      36.893836      36.893836    
    939000   0.60074946    -7.5955123     -6.694401       5.4112696      50218.233      36.893836      36.893836      36.893836    
    940000   0.5991919     -7.5933382     -6.6945632      5.4262546      50218.233      36.893836      36.893836      36.893836    
    941000   0.5994781     -7.5921604     -6.692956       5.4369169      50218.233      36.893836      36.893836      36.893836    
    942000   0.59909568    -7.5952632     -6.6966324      5.4138225      50218.233      36.893836      36.893836      36.893836    
    943000   0.59674141    -7.6001104     -6.705011       5.3685697      50218.233      36.893836      36.893836      36.893836    
    944000   0.599149      -7.5914963     -6.6927855      5.4407517      50218.233      36.893836      36.893836      36.893836    
    945000   0.60058954    -7.594216      -6.6933445      5.4206426      50218.233      36.893836      36.893836      36.893836    
    946000   0.60098401    -7.592863      -6.6913998      5.4331967      50218.233      36.893836      36.893836      36.893836    
    947000   0.59711432    -7.6036653     -6.7080065      5.3457273      50218.233      36.893836      36.893836      36.893836    
    948000   0.60124035    -7.5946956     -6.6928479      5.4188361      50218.233      36.893836      36.893836      36.893836    
    949000   0.60007539    -7.6000156     -6.6999153      5.3735076      50218.233      36.893836      36.893836      36.893836    
    950000   0.60055005    -7.5945618     -6.6937495      5.4121381      50218.233      36.893836      36.893836      36.893836    
    951000   0.59998214    -7.5967315     -6.6967711      5.4076758      50218.233      36.893836      36.893836      36.893836    
    952000   0.59898458    -7.5906328     -6.6921687      5.4478798      50218.233      36.893836      36.893836      36.893836    
    953000   0.59739718    -7.5933245     -6.6972415      5.4315872      50218.233      36.893836      36.893836      36.893836    
    954000   0.59950802    -7.5920852     -6.692836       5.4419301      50218.233      36.893836      36.893836      36.893836    
    955000   0.59708011    -7.5936053     -6.6979978      5.4231196      50218.233      36.893836      36.893836      36.893836    
    956000   0.60079807    -7.5897016     -6.6885173      5.4566567      50218.233      36.893836      36.893836      36.893836    
    957000   0.6003296     -7.5971563     -6.6966747      5.4129619      50218.233      36.893836      36.893836      36.893836    
    958000   0.59990543    -7.5996072     -6.6997618      5.384355       50218.233      36.893836      36.893836      36.893836    
    959000   0.59947797    -7.5958906     -6.6966864      5.4117391      50218.233      36.893836      36.893836      36.893836    
    960000   0.60202235    -7.5935803     -6.6905596      5.4312323      50218.233      36.893836      36.893836      36.893836    
    961000   0.59993618    -7.5937197     -6.6938282      5.4321392      50218.233      36.893836      36.893836      36.893836    
    962000   0.60090738    -7.5961795     -6.6948313      5.4109113      50218.233      36.893836      36.893836      36.893836    
    963000   0.60247131    -7.5944023     -6.6907082      5.4275952      50218.233      36.893836      36.893836      36.893836    
    964000   0.59988008    -7.5979881     -6.6981807      5.3915406      50218.233      36.893836      36.893836      36.893836    
    965000   0.59943957    -7.5947409     -6.6955943      5.4193817      50218.233      36.893836      36.893836      36.893836    
    966000   0.60152719    -7.597727      -6.6954491      5.389299       50218.233      36.893836      36.893836      36.893836    
    967000   0.59983813    -7.5931809     -6.6934365      5.4168136      50218.233      36.893836      36.893836      36.893836    
    968000   0.601853      -7.5980999     -6.6953332      5.402697       50218.233      36.893836      36.893836      36.893836    
    969000   0.60012224    -7.5929706     -6.6928001      5.4325825      50218.233      36.893836      36.893836      36.893836    
    970000   0.59903932    -7.5931803     -6.6946341      5.4138918      50218.233      36.893836      36.893836      36.893836    
    971000   0.59657283    -7.6025533     -6.7077068      5.3432617      50218.233      36.893836      36.893836      36.893836    
    972000   0.6004313     -7.5967802     -6.696146       5.4041011      50218.233      36.893836      36.893836      36.893836    
    973000   0.60029147    -7.5946554     -6.694231       5.4274042      50218.233      36.893836      36.893836      36.893836    
    974000   0.60088029    -7.5936559     -6.6923483      5.4349358      50218.233      36.893836      36.893836      36.893836    
    975000   0.60056278    -7.5945441     -6.6937127      5.4027815      50218.233      36.893836      36.893836      36.893836    
    976000   0.60003332    -7.5970324     -6.6969952      5.404273       50218.233      36.893836      36.893836      36.893836    
    977000   0.59892289    -7.5934634     -6.6950919      5.422738       50218.233      36.893836      36.893836      36.893836    
    978000   0.59919905    -7.5920571     -6.6932713      5.4339232      50218.233      36.893836      36.893836      36.893836    
    979000   0.60073506    -7.5978962     -6.6968064      5.4018676      50218.233      36.893836      36.893836      36.893836    
    980000   0.60092645    -7.5980939     -6.6967171      5.4018944      50218.233      36.893836      36.893836      36.893836    
    981000   0.59937272    -7.5920133     -6.692967       5.4383878      50218.233      36.893836      36.893836      36.893836    
    982000   0.60239088    -7.5963339     -6.6927604      5.4174278      50218.233      36.893836      36.893836      36.893836    
    983000   0.5993582     -7.5991594     -6.7001348      5.3757115      50218.233      36.893836      36.893836      36.893836    
    984000   0.60037818    -7.6013874     -6.7008329      5.3780956      50218.233      36.893836      36.893836      36.893836    
    985000   0.59864266    -7.5961351     -6.6981838      5.3928009      50218.233      36.893836      36.893836      36.893836    
    986000   0.59781618    -7.6008143     -6.7041028      5.3556312      50218.233      36.893836      36.893836      36.893836    
    987000   0.59930315    -7.5955796     -6.6966376      5.4073733      50218.233      36.893836      36.893836      36.893836    
    988000   0.59835218    -7.600578      -6.7030625      5.3612594      50218.233      36.893836      36.893836      36.893836    
    989000   0.59994693    -7.5969235     -6.6970159      5.3777642      50218.233      36.893836      36.893836      36.893836    
    990000   0.60389529    -7.5943436     -6.6885135      5.4241797      50218.233      36.893836      36.893836      36.893836    
    991000   0.59983647    -7.5971668     -6.6974249      5.4020357      50218.233      36.893836      36.893836      36.893836    
    992000   0.59808326    -7.5975997     -6.7004876      5.396317       50218.233      36.893836      36.893836      36.893836    
    993000   0.601432      -7.5985278     -6.6963926      5.3897571      50218.233      36.893836      36.893836      36.893836    
    994000   0.60072399    -7.5976864     -6.6966132      5.3982837      50218.233      36.893836      36.893836      36.893836    
    995000   0.5968109     -7.5957912     -6.7005876      5.3943501      50218.233      36.893836      36.893836      36.893836    
    996000   0.60083895    -7.5932088     -6.6919632      5.4138408      50218.233      36.893836      36.893836      36.893836    
    997000   0.5999475     -7.6004948     -6.7005864      5.3772588      50218.233      36.893836      36.893836      36.893836    
    998000   0.59735649    -7.5998554     -6.7038334      5.3741563      50218.233      36.893836      36.893836      36.893836    
    999000   0.60083186    -7.5980792     -6.6968442      5.4036478      50218.233      36.893836      36.893836      36.893836    
   1000000   0.59816443    -7.5982543     -6.7010205      5.3872719      50218.233      36.893836      36.893836      36.893836    
Loop time of 1632.41 on 4 procs for 1000000 steps with 70304 atoms

Performance: 529277.602 tau/day, 612.590 timesteps/s, 43.068 Matom-step/s
95.8% CPU use with 4 MPI tasks x 1 OpenMP threads

MPI task timing breakdown:
Section |  min time  |  avg time  |  max time  |%varavg| %total
---------------------------------------------------------------
Pair    | 494.47     | 597.42     | 677.55     | 298.1 | 36.60
Neigh   | 7.6678     | 7.7762     | 7.869      |   3.3 |  0.48
Comm    | 254.45     | 257.95     | 262.48     |  21.9 | 15.80
Output  | 0.20121    | 0.21034    | 0.22675    |   2.1 |  0.01
Modify  | 598.67     | 679.77     | 779.43     | 276.5 | 41.64
Other   |            | 89.28      |            |       |  5.47

Nlocal:          17576 ave       17611 max       17553 min
Histogram: 1 1 0 0 1 0 0 0 0 1
Nghost:        16810.8 ave       16863 max       16772 min
Histogram: 1 0 1 0 1 0 0 0 0 1
Neighs:              0 ave           0 max           0 min
Histogram: 4 0 0 0 0 0 0 0 0 0

Total # of neighbors = 0
Ave neighs/atom = 0
Neighbor list builds = 233233
Dangerous builds = 0
clear
OMP_NUM_THREADS environment is not set. Defaulting to 1 thread. (src/comm.cpp:98)
  using 1 OpenMP thread(s) per MPI task
package gpu 0
jump dms580.lmp

variable T equal 580
# T = 1000* (temp in LJ unit)
variable f equal 1000
log log.${T}
log log.580
