variable TLJ equal (${T}/1000)
variable TLJ equal (535/1000)
variable NCyle equal 10
variable iStep equal (${f})
variable iStep equal (1000)
variable dumpStep equal (${f}*100)
variable dumpStep equal (1000*100)
variable runStep equal (${f}*100*${NCyle})
variable runStep equal (1000*100*${NCyle})
variable runStep equal (1000*100*10)

units       lj
atom_style  atomic
dimension 3
boundary     p p p
pair_style  lj/cut 2.5
read_data  ../data/T${T}.dat
read_data  ../data/T535.dat
Reading data file ...
  orthogonal box = (0.97250269 0.97250269 0.97250269) to (37.866338 37.866338 37.866338)
  1 by 1 by 1 MPI processor grid
  reading atoms ...
  70304 atoms
  reading velocities ...
  70304 velocities
  read_data CPU = 0.284 seconds
change_box all triclinic
Changing box ...
  triclinic box = (0.97250269 0.97250269 0.97250269) to (37.866338 37.866338 37.866338) with tilt (0 0 0)
mass 1 1
mass 2 1
pair_modify shift yes
pair_coeff  1 1 1 1
pair_coeff  1 2 1.5 0.8
pair_coeff  2 2 0.5 0.88


timestep 0.01
thermo ${iStep}
thermo 1000
reset_timestep 0
thermo_style custom step temp pe etotal press vol lx ly lz
fix             1 all nvt temp ${TLJ}  ${TLJ}  0.1
fix             1 all nvt temp 0.535  ${TLJ}  0.1
fix             1 all nvt temp 0.535  0.535  0.1
thermo_modify flush yes

fix dsf all deform 1 xy  wiggle 0.5  ${f}   units box
fix dsf all deform 1 xy  wiggle 0.5  1000   units box
fix ps1 all ave/time 1 1 ${iStep} c_thermo_press[1] c_thermo_press[2]  c_thermo_press[3] c_thermo_press[4]  c_thermo_press[5] c_thermo_press[6]  file  stress.${T}
fix ps1 all ave/time 1 1 1000 c_thermo_press[1] c_thermo_press[2]  c_thermo_press[3] c_thermo_press[4]  c_thermo_press[5] c_thermo_press[6]  file  stress.${T}
fix ps1 all ave/time 1 1 1000 c_thermo_press[1] c_thermo_press[2]  c_thermo_press[3] c_thermo_press[4]  c_thermo_press[5] c_thermo_press[6]  file  stress.535
dump            1 all custom ${dumpStep} dump.${T} id type x y z
dump            1 all custom 100000 dump.${T} id type x y z
dump            1 all custom 100000 dump.535 id type x y z
dump_modify 1 sort id
fix nodrift all momentum 1  linear 1 1 1
fix com_seed all recenter INIT INIT INIT shift all
run ${runStep}
run 1000000
Generated 0 of 1 mixed pair_coeff terms from geometric mixing rule
Per MPI rank memory allocation (min/avg/max) = 21.18 | 21.18 | 21.18 Mbytes
   Step          Temp          PotEng         TotEng         Press          Volume           Lx             Ly             Lz      
         0   0.53477711    -7.7508052     -6.9486509      4.1662033      50218.233      36.893836      36.893836      36.893836    
      1000   0.53304639    -7.7443855     -6.9448273      4.2216972      50218.233      36.893836      36.893836      36.893836    
      2000   0.53576118    -7.7432229     -6.9395925      4.2334652      50218.233      36.893836      36.893836      36.893836    
      3000   0.53835589    -7.7462474     -6.9387251      4.2204932      50218.233      36.893836      36.893836      36.893836    
      4000   0.53737313    -7.7386418     -6.9325935      4.2673175      50218.233      36.893836      36.893836      36.893836    
      5000   0.5351926     -7.7449966     -6.9422191      4.2237585      50218.233      36.893836      36.893836      36.893836    
      6000   0.53648795    -7.7449091     -6.9401887      4.2224592      50218.233      36.893836      36.893836      36.893836    
      7000   0.53624994    -7.7424252     -6.9380618      4.2389372      50218.233      36.893836      36.893836      36.893836    
      8000   0.53867426    -7.7444968     -6.9364969      4.2311172      50218.233      36.893836      36.893836      36.893836    
      9000   0.53589548    -7.743689      -6.9398572      4.2331134      50218.233      36.893836      36.893836      36.893836    
     10000   0.53548035    -7.7427716     -6.9395625      4.236859       50218.233      36.893836      36.893836      36.893836    
     11000   0.53630088    -7.741395      -6.9369552      4.2520473      50218.233      36.893836      36.893836      36.893836    
     12000   0.5351432     -7.7449498     -6.9422464      4.2140579      50218.233      36.893836      36.893836      36.893836    
     13000   0.53389044    -7.7457507     -6.9449265      4.2123307      50218.233      36.893836      36.893836      36.893836    
     14000   0.5325245     -7.7446558     -6.9458804      4.2188162      50218.233      36.893836      36.893836      36.893836    
     15000   0.53400106    -7.7523179     -6.9513277      4.165751       50218.233      36.893836      36.893836      36.893836    
     16000   0.53878765    -7.7454503     -6.9372803      4.2144932      50218.233      36.893836      36.893836      36.893836    
     17000   0.53498385    -7.743105      -6.9406407      4.2337484      50218.233      36.893836      36.893836      36.893836    
     18000   0.53378682    -7.7442506     -6.9435818      4.2252659      50218.233      36.893836      36.893836      36.893836    
     19000   0.53982505    -7.7401112     -6.9303851      4.2447855      50218.233      36.893836      36.893836      36.893836    
     20000   0.53298296    -7.7465253     -6.9470622      4.2064102      50218.233      36.893836      36.893836      36.893836    
     21000   0.53497173    -7.7438671     -6.9414209      4.2269892      50218.233      36.893836      36.893836      36.893836    
     22000   0.53812257    -7.7444911     -6.9373187      4.2303944      50218.233      36.893836      36.893836      36.893836    
     23000   0.5314877     -7.7422909     -6.9450707      4.2353645      50218.233      36.893836      36.893836      36.893836    
     24000   0.53395875    -7.7431142     -6.9421875      4.2361798      50218.233      36.893836      36.893836      36.893836    
     25000   0.53615624    -7.7397741     -6.9355511      4.2558375      50218.233      36.893836      36.893836      36.893836    
     26000   0.53651107    -7.7402793     -6.9355241      4.2592627      50218.233      36.893836      36.893836      36.893836    
     27000   0.53253983    -7.7407119     -6.9419136      4.2457282      50218.233      36.893836      36.893836      36.893836    
     28000   0.53570663    -7.7455052     -6.9419566      4.214756       50218.233      36.893836      36.893836      36.893836    
     29000   0.53618634    -7.7447139     -6.9404459      4.2281847      50218.233      36.893836      36.893836      36.893836    
     30000   0.5367611     -7.7461796     -6.9410494      4.2206921      50218.233      36.893836      36.893836      36.893836    
     31000   0.53398683    -7.7419196     -6.9409508      4.2369557      50218.233      36.893836      36.893836      36.893836    
     32000   0.5361319     -7.7429723     -6.9387859      4.2371103      50218.233      36.893836      36.893836      36.893836    
     33000   0.53310352    -7.7418609     -6.942217       4.2324461      50218.233      36.893836      36.893836      36.893836    
     34000   0.5342611     -7.743175      -6.9417948      4.2296615      50218.233      36.893836      36.893836      36.893836    
     35000   0.53514659    -7.7429017     -6.9401932      4.2286425      50218.233      36.893836      36.893836      36.893836    
     36000   0.53605902    -7.741932      -6.9378549      4.2504223      50218.233      36.893836      36.893836      36.893836    
     37000   0.53648667    -7.7434826     -6.938764       4.2499433      50218.233      36.893836      36.893836      36.893836    
     38000   0.53385748    -7.7384305     -6.9376557      4.2659237      50218.233      36.893836      36.893836      36.893836    
     39000   0.53433212    -7.7429129     -6.9414261      4.2260452      50218.233      36.893836      36.893836      36.893836    
     40000   0.53517945    -7.743733      -6.9409752      4.2351591      50218.233      36.893836      36.893836      36.893836    
     41000   0.53214733    -7.747166      -6.9489564      4.200224       50218.233      36.893836      36.893836      36.893836    
     42000   0.53500772    -7.7433633     -6.9408631      4.2298007      50218.233      36.893836      36.893836      36.893836    
     43000   0.53610202    -7.7404643     -6.9363227      4.2570154      50218.233      36.893836      36.893836      36.893836    
     44000   0.53384998    -7.7415687     -6.9408051      4.2461734      50218.233      36.893836      36.893836      36.893836    
     45000   0.53400596    -7.7439947     -6.9429972      4.2295404      50218.233      36.893836      36.893836      36.893836    
     46000   0.53382436    -7.7407196     -6.9399944      4.2497023      50218.233      36.893836      36.893836      36.893836    
     47000   0.53365253    -7.7447669     -6.9442995      4.2251306      50218.233      36.893836      36.893836      36.893836    
     48000   0.53576831    -7.7437753     -6.9401343      4.2301873      50218.233      36.893836      36.893836      36.893836    
     49000   0.53418031    -7.7469656     -6.9457065      4.2019506      50218.233      36.893836      36.893836      36.893836    
     50000   0.53448326    -7.7437756     -6.9420621      4.2312209      50218.233      36.893836      36.893836      36.893836    
     51000   0.53343525    -7.7405886     -6.9404471      4.2494608      50218.233      36.893836      36.893836      36.893836    
     52000   0.53232986    -7.7468616     -6.9483781      4.2022526      50218.233      36.893836      36.893836      36.893836    
     53000   0.53234403    -7.7447326     -6.9462279      4.2231268      50218.233      36.893836      36.893836      36.893836    
     54000   0.53548406    -7.7413013     -6.9380866      4.2584686      50218.233      36.893836      36.893836      36.893836    
     55000   0.53465879    -7.7423093     -6.9403325      4.2319505      50218.233      36.893836      36.893836      36.893836    
     56000   0.53465796    -7.742931      -6.9409555      4.2435696      50218.233      36.893836      36.893836      36.893836    
     57000   0.53525438    -7.736333      -6.9334629      4.2872396      50218.233      36.893836      36.893836      36.893836    
     58000   0.53509478    -7.7407327     -6.938102       4.2410853      50218.233      36.893836      36.893836      36.893836    
     59000   0.53447383    -7.7396526     -6.9379533      4.2595321      50218.233      36.893836      36.893836      36.893836    
     60000   0.53519742    -7.7412833     -6.9384986      4.2466412      50218.233      36.893836      36.893836      36.893836    
     61000   0.53422244    -7.7419372     -6.940615       4.2403402      50218.233      36.893836      36.893836      36.893836    
     62000   0.53415664    -7.7386177     -6.9373942      4.2633042      50218.233      36.893836      36.893836      36.893836    
     63000   0.53697055    -7.7353186     -6.9298742      4.3023411      50218.233      36.893836      36.893836      36.893836    
     64000   0.5352452     -7.7424479     -6.9395915      4.2415873      50218.233      36.893836      36.893836      36.893836    
     65000   0.53452555    -7.7426193     -6.9408424      4.2413938      50218.233      36.893836      36.893836      36.893836    
     66000   0.53677002    -7.7393067     -6.9341631      4.2685645      50218.233      36.893836      36.893836      36.893836    
     67000   0.53639084    -7.7393108     -6.934736       4.2781977      50218.233      36.893836      36.893836      36.893836    
     68000   0.5337699     -7.7418982     -6.9412548      4.2435251      50218.233      36.893836      36.893836      36.893836    
     69000   0.53335892    -7.738951      -6.938924       4.2736949      50218.233      36.893836      36.893836      36.893836    
     70000   0.53523146    -7.7454486     -6.9426128      4.2319229      50218.233      36.893836      36.893836      36.893836    
     71000   0.53515894    -7.740776      -6.938049       4.2580259      50218.233      36.893836      36.893836      36.893836    
     72000   0.53498374    -7.7433102     -6.940846       4.2485308      50218.233      36.893836      36.893836      36.893836    
     73000   0.53287696    -7.7362743     -6.9369702      4.2913416      50218.233      36.893836      36.893836      36.893836    
     74000   0.53343173    -7.7382837     -6.9381475      4.2671061      50218.233      36.893836      36.893836      36.893836    
     75000   0.53588836    -7.7425211     -6.9387         4.2317996      50218.233      36.893836      36.893836      36.893836    
     76000   0.53640147    -7.7442389     -6.9396481      4.2325743      50218.233      36.893836      36.893836      36.893836    
     77000   0.53453452    -7.7451        -6.9433096      4.235834       50218.233      36.893836      36.893836      36.893836    
     78000   0.53552502    -7.7433947     -6.9401186      4.2346326      50218.233      36.893836      36.893836      36.893836    
     79000   0.53409179    -7.7415031     -6.9403768      4.2554594      50218.233      36.893836      36.893836      36.893836    
     80000   0.53666725    -7.7429403     -6.9379508      4.2327974      50218.233      36.893836      36.893836      36.893836    
     81000   0.53694801    -7.7444644     -6.9390538      4.2316335      50218.233      36.893836      36.893836      36.893836    
     82000   0.53636253    -7.7479923     -6.9434599      4.2101394      50218.233      36.893836      36.893836      36.893836    
     83000   0.5363925     -7.7443583     -6.9397809      4.2313829      50218.233      36.893836      36.893836      36.893836    
     84000   0.53522814    -7.7436117     -6.940781       4.2228737      50218.233      36.893836      36.893836      36.893836    
     85000   0.53547815    -7.7438402     -6.9406344      4.2329603      50218.233      36.893836      36.893836      36.893836    
     86000   0.53433219    -7.7429132     -6.9414263      4.2316566      50218.233      36.893836      36.893836      36.893836    
     87000   0.53663365    -7.7413818     -6.9364427      4.2401514      50218.233      36.893836      36.893836      36.893836    
     88000   0.53616413    -7.7444789     -6.9402442      4.2178815      50218.233      36.893836      36.893836      36.893836    
     89000   0.53695419    -7.7443555     -6.9389356      4.2341221      50218.233      36.893836      36.893836      36.893836    
     90000   0.53289934    -7.7455474     -6.9462098      4.2152157      50218.233      36.893836      36.893836      36.893836    
     91000   0.53393       -7.7462662     -6.9453826      4.2139359      50218.233      36.893836      36.893836      36.893836    
     92000   0.53695089    -7.7395526     -6.9341377      4.2533387      50218.233      36.893836      36.893836      36.893836    
     93000   0.53430076    -7.7425461     -6.9411063      4.2489247      50218.233      36.893836      36.893836      36.893836    
     94000   0.53506855    -7.736387      -6.9337956      4.2886352      50218.233      36.893836      36.893836      36.893836    
     95000   0.53613219    -7.7418084     -6.9376216      4.254927       50218.233      36.893836      36.893836      36.893836    
     96000   0.53696099    -7.745111      -6.939681       4.2280288      50218.233      36.893836      36.893836      36.893836    
     97000   0.53023509    -7.7432532     -6.9479119      4.2374178      50218.233      36.893836      36.893836      36.893836    
     98000   0.53540212    -7.7415039     -6.9384122      4.2539034      50218.233      36.893836      36.893836      36.893836    
     99000   0.53446761    -7.7383491     -6.9366591      4.268074       50218.233      36.893836      36.893836      36.893836    
    100000   0.53464005    -7.7440889     -6.9421403      4.2193391      50218.233      36.893836      36.893836      36.893836    
    101000   0.53742482    -7.7448204     -6.9386946      4.2296431      50218.233      36.893836      36.893836      36.893836    
    102000   0.5332392     -7.7444902     -6.9446428      4.2334777      50218.233      36.893836      36.893836      36.893836    
    103000   0.53707457    -7.7425703     -6.9369699      4.2436481      50218.233      36.893836      36.893836      36.893836    
    104000   0.53217358    -7.7411235     -6.9428744      4.239385       50218.233      36.893836      36.893836      36.893836    
    105000   0.53577522    -7.7422481     -6.9385967      4.2454944      50218.233      36.893836      36.893836      36.893836    
    106000   0.53623838    -7.7440134     -6.9396673      4.2269617      50218.233      36.893836      36.893836      36.893836    
    107000   0.53299746    -7.7384139     -6.9389291      4.2695938      50218.233      36.893836      36.893836      36.893836    
    108000   0.53539081    -7.7402239     -6.9371491      4.2678825      50218.233      36.893836      36.893836      36.893836    
    109000   0.53717842    -7.741271      -6.9355149      4.2545582      50218.233      36.893836      36.893836      36.893836    
    110000   0.53634267    -7.7406079     -6.9361053      4.2505284      50218.233      36.893836      36.893836      36.893836    
    111000   0.53429911    -7.7467798     -6.9453426      4.21277        50218.233      36.893836      36.893836      36.893836    
    112000   0.53803657    -7.7462793     -6.9392359      4.2212506      50218.233      36.893836      36.893836      36.893836    
    113000   0.5317507     -7.7424077     -6.944793       4.2482884      50218.233      36.893836      36.893836      36.893836    
    114000   0.53471908    -7.7386178     -6.9365506      4.2677962      50218.233      36.893836      36.893836      36.893836    
    115000   0.5331919     -7.7471095     -6.947333       4.2011055      50218.233      36.893836      36.893836      36.893836    
    116000   0.53672224    -7.7429182     -6.9378463      4.2364453      50218.233      36.893836      36.893836      36.893836    
    117000   0.53314473    -7.7400548     -6.9403491      4.2550922      50218.233      36.893836      36.893836      36.893836    
    118000   0.53436836    -7.7443333     -6.9427921      4.2338623      50218.233      36.893836      36.893836      36.893836    
    119000   0.53783251    -7.7413243     -6.9345871      4.250992       50218.233      36.893836      36.893836      36.893836    
    120000   0.53382273    -7.7454218     -6.9446991      4.2139669      50218.233      36.893836      36.893836      36.893836    
    121000   0.53459403    -7.7435564     -6.9416768      4.2340465      50218.233      36.893836      36.893836      36.893836    
    122000   0.53509479    -7.7437015     -6.9410708      4.2429688      50218.233      36.893836      36.893836      36.893836    
    123000   0.53458115    -7.7361397     -6.9342794      4.2915936      50218.233      36.893836      36.893836      36.893836    
    124000   0.53718589    -7.737775      -6.9320076      4.2698227      50218.233      36.893836      36.893836      36.893836    
    125000   0.53555474    -7.737429      -6.9341083      4.2726933      50218.233      36.893836      36.893836      36.893836    
    126000   0.53146464    -7.7404111     -6.9432255      4.2477941      50218.233      36.893836      36.893836      36.893836    
    127000   0.53778735    -7.7459276     -6.9392581      4.230939       50218.233      36.893836      36.893836      36.893836    
    128000   0.53664866    -7.7442541     -6.9392926      4.2243974      50218.233      36.893836      36.893836      36.893836    
    129000   0.53530774    -7.7409883     -6.9380381      4.2577731      50218.233      36.893836      36.893836      36.893836    
    130000   0.53645462    -7.7435993     -6.9389288      4.2478176      50218.233      36.893836      36.893836      36.893836    
    131000   0.53387116    -7.7392239     -6.9384286      4.2618754      50218.233      36.893836      36.893836      36.893836    
    132000   0.53706098    -7.741904      -6.936324       4.2495345      50218.233      36.893836      36.893836      36.893836    
    133000   0.53586853    -7.7428524     -6.9390611      4.2462431      50218.233      36.893836      36.893836      36.893836    
    134000   0.53646298    -7.739831      -6.935148       4.2574683      50218.233      36.893836      36.893836      36.893836    
    135000   0.53664694    -7.7415033     -6.9365444      4.2536027      50218.233      36.893836      36.893836      36.893836    
    136000   0.53818678    -7.7404592     -6.9331905      4.2688811      50218.233      36.893836      36.893836      36.893836    
    137000   0.53522565    -7.7429769     -6.9401499      4.243943       50218.233      36.893836      36.893836      36.893836    
    138000   0.53434538    -7.7441347     -6.942628       4.2251958      50218.233      36.893836      36.893836      36.893836    
    139000   0.53749306    -7.7397076     -6.9334795      4.2742199      50218.233      36.893836      36.893836      36.893836    
    140000   0.53594662    -7.7397146     -6.9358061      4.2681921      50218.233      36.893836      36.893836      36.893836    
    141000   0.5379386     -7.7400249     -6.9331285      4.2630025      50218.233      36.893836      36.893836      36.893836    
    142000   0.53344326    -7.7436435     -6.9434899      4.2365009      50218.233      36.893836      36.893836      36.893836    
    143000   0.53629493    -7.7394072     -6.9349762      4.2645197      50218.233      36.893836      36.893836      36.893836    
    144000   0.53484948    -7.7381796     -6.9359168      4.2679286      50218.233      36.893836      36.893836      36.893836    
    145000   0.53632668    -7.7413227     -6.9368441      4.2551577      50218.233      36.893836      36.893836      36.893836    
    146000   0.53784258    -7.7439374     -6.937185       4.2340729      50218.233      36.893836      36.893836      36.893836    
    147000   0.53600972    -7.740531      -6.9365279      4.2598713      50218.233      36.893836      36.893836      36.893836    
    148000   0.53569668    -7.7382019     -6.9346683      4.2699634      50218.233      36.893836      36.893836      36.893836    
    149000   0.53540056    -7.7428629     -6.9397734      4.2458748      50218.233      36.893836      36.893836      36.893836    
    150000   0.53619809    -7.7458048     -6.9415191      4.2353252      50218.233      36.893836      36.893836      36.893836    
    151000   0.53543196    -7.7403331     -6.9371966      4.2576243      50218.233      36.893836      36.893836      36.893836    
    152000   0.53273808    -7.7386156     -6.9395199      4.2621251      50218.233      36.893836      36.893836      36.893836    
    153000   0.53365999    -7.7368658     -6.9363872      4.2753484      50218.233      36.893836      36.893836      36.893836    
    154000   0.53775963    -7.7401353     -6.9335073      4.2622152      50218.233      36.893836      36.893836      36.893836    
    155000   0.53856677    -7.7380421     -6.9302034      4.2829315      50218.233      36.893836      36.893836      36.893836    
    156000   0.53434079    -7.738386      -6.9368862      4.2674846      50218.233      36.893836      36.893836      36.893836    
    157000   0.53260428    -7.7408882     -6.9419932      4.243673       50218.233      36.893836      36.893836      36.893836    
    158000   0.53601924    -7.7435756     -6.9395582      4.2514147      50218.233      36.893836      36.893836      36.893836    
    159000   0.53379689    -7.7394523     -6.9387683      4.2633403      50218.233      36.893836      36.893836      36.893836    
    160000   0.53499979    -7.7413803     -6.938892       4.2479159      50218.233      36.893836      36.893836      36.893836    
    161000   0.53277891    -7.7419213     -6.9427643      4.2352201      50218.233      36.893836      36.893836      36.893836    
    162000   0.53709271    -7.7438447     -6.9382171      4.2318197      50218.233      36.893836      36.893836      36.893836    
    163000   0.53398085    -7.7419637     -6.9410038      4.2450079      50218.233      36.893836      36.893836      36.893836    
    164000   0.53684072    -7.7456273     -6.9403777      4.2238803      50218.233      36.893836      36.893836      36.893836    
    165000   0.53494577    -7.7372893     -6.9348821      4.2871549      50218.233      36.893836      36.893836      36.893836    
    166000   0.53502116    -7.7434668     -6.9409465      4.2403003      50218.233      36.893836      36.893836      36.893836    
    167000   0.5331701     -7.7450645     -6.9453207      4.215338       50218.233      36.893836      36.893836      36.893836    
    168000   0.53647694    -7.7417285     -6.9370246      4.2431307      50218.233      36.893836      36.893836      36.893836    
    169000   0.53412442    -7.7416471     -6.9404718      4.2421459      50218.233      36.893836      36.893836      36.893836    
    170000   0.53539355    -7.7430362     -6.9399573      4.248725       50218.233      36.893836      36.893836      36.893836    
    171000   0.53658965    -7.7393207     -6.9344477      4.2497042      50218.233      36.893836      36.893836      36.893836    
    172000   0.5362677     -7.7411314     -6.9367413      4.2510799      50218.233      36.893836      36.893836      36.893836    
    173000   0.53412514    -7.743751      -6.9425747      4.2265937      50218.233      36.893836      36.893836      36.893836    
    174000   0.53775479    -7.7404695     -6.9338488      4.2618522      50218.233      36.893836      36.893836      36.893836    
    175000   0.53598987    -7.7372972     -6.9333239      4.2778179      50218.233      36.893836      36.893836      36.893836    
    176000   0.5367267     -7.7389685     -6.9338899      4.2682077      50218.233      36.893836      36.893836      36.893836    
    177000   0.53387704    -7.7429095     -6.9421054      4.2367212      50218.233      36.893836      36.893836      36.893836    
    178000   0.53526125    -7.7383846     -6.9355041      4.2648982      50218.233      36.893836      36.893836      36.893836    
    179000   0.5333741     -7.7414327     -6.9413829      4.2409859      50218.233      36.893836      36.893836      36.893836    
    180000   0.53505593    -7.742825      -6.9402525      4.233175       50218.233      36.893836      36.893836      36.893836    
    181000   0.53500389    -7.7422075     -6.9397131      4.2306792      50218.233      36.893836      36.893836      36.893836    
    182000   0.53408417    -7.7418278     -6.940713       4.2444692      50218.233      36.893836      36.893836      36.893836    
    183000   0.53494403    -7.7421653     -6.9397606      4.2378149      50218.233      36.893836      36.893836      36.893836    
    184000   0.53438557    -7.7404192     -6.9388522      4.250021       50218.233      36.893836      36.893836      36.893836    
    185000   0.5366853     -7.7403125     -6.935296       4.255181       50218.233      36.893836      36.893836      36.893836    
    186000   0.53530007    -7.7432247     -6.940286       4.2314021      50218.233      36.893836      36.893836      36.893836    
    187000   0.53487408    -7.7410486     -6.9387489      4.2425369      50218.233      36.893836      36.893836      36.893836    
    188000   0.53498781    -7.7383914     -6.9359211      4.2771026      50218.233      36.893836      36.893836      36.893836    
    189000   0.53692745    -7.7393789     -6.9339992      4.2599278      50218.233      36.893836      36.893836      36.893836    
    190000   0.53465354    -7.7355698     -6.9336009      4.2912093      50218.233      36.893836      36.893836      36.893836    
    191000   0.53752815    -7.7441112     -6.9378305      4.2264684      50218.233      36.893836      36.893836      36.893836    
    192000   0.53379306    -7.7412311     -6.9405529      4.2471044      50218.233      36.893836      36.893836      36.893836    
    193000   0.53412959    -7.7444455     -6.9432625      4.2237097      50218.233      36.893836      36.893836      36.893836    
    194000   0.53428556    -7.7440397     -6.9426228      4.2171228      50218.233      36.893836      36.893836      36.893836    
    195000   0.53459154    -7.7416541     -6.9397782      4.2378827      50218.233      36.893836      36.893836      36.893836    
    196000   0.53353534    -7.7433405     -6.9430489      4.2272515      50218.233      36.893836      36.893836      36.893836    
    197000   0.53531998    -7.7399955     -6.937027       4.2682242      50218.233      36.893836      36.893836      36.893836    
    198000   0.53672794    -7.7433518     -6.9382714      4.2459591      50218.233      36.893836      36.893836      36.893836    
    199000   0.53812081    -7.7430649     -6.9358951      4.2399445      50218.233      36.893836      36.893836      36.893836    
    200000   0.53565202    -7.7377105     -6.9342439      4.2747326      50218.233      36.893836      36.893836      36.893836    
    201000   0.53477556    -7.7416492     -6.9394973      4.2393018      50218.233      36.893836      36.893836      36.893836    
    202000   0.53587483    -7.7431171     -6.9393163      4.2353724      50218.233      36.893836      36.893836      36.893836    
    203000   0.53449928    -7.7451041     -6.9433666      4.2197752      50218.233      36.893836      36.893836      36.893836    
    204000   0.53446612    -7.7416041     -6.9399163      4.2494289      50218.233      36.893836      36.893836      36.893836    
    205000   0.53330963    -7.7408587     -6.9409056      4.2471098      50218.233      36.893836      36.893836      36.893836    
    206000   0.53523555    -7.7442755     -6.9414336      4.2173227      50218.233      36.893836      36.893836      36.893836    
    207000   0.53649258    -7.7395427     -6.9348153      4.2577701      50218.233      36.893836      36.893836      36.893836    
    208000   0.5355579     -7.7388362     -6.9355108      4.2625134      50218.233      36.893836      36.893836      36.893836    
    209000   0.53126099    -7.7386017     -6.9417215      4.2631386      50218.233      36.893836      36.893836      36.893836    
    210000   0.53652823    -7.7358173     -6.9310364      4.2867204      50218.233      36.893836      36.893836      36.893836    
    211000   0.53590506    -7.7413369     -6.9374908      4.2536781      50218.233      36.893836      36.893836      36.893836    
    212000   0.53212127    -7.7412984     -6.9431279      4.2500521      50218.233      36.893836      36.893836      36.893836    
    213000   0.53482499    -7.741895      -6.9396689      4.2465528      50218.233      36.893836      36.893836      36.893836    
    214000   0.53560577    -7.7408794     -6.9374822      4.2552051      50218.233      36.893836      36.893836      36.893836    
    215000   0.53545353    -7.7348038     -6.931635       4.299034       50218.233      36.893836      36.893836      36.893836    
    216000   0.53363859    -7.7379637     -6.9375172      4.2663393      50218.233      36.893836      36.893836      36.893836    
    217000   0.53844492    -7.7418368     -6.9341809      4.2410705      50218.233      36.893836      36.893836      36.893836    
    218000   0.53296843    -7.738471      -6.9390297      4.2608686      50218.233      36.893836      36.893836      36.893836    
    219000   0.53853138    -7.739601      -6.9318154      4.269275       50218.233      36.893836      36.893836      36.893836    
    220000   0.53522764    -7.7432005     -6.9403705      4.2352626      50218.233      36.893836      36.893836      36.893836    
    221000   0.53318961    -7.737414      -6.9376409      4.2763462      50218.233      36.893836      36.893836      36.893836    
    222000   0.5361303     -7.7407554     -6.9365714      4.2626269      50218.233      36.893836      36.893836      36.893836    
    223000   0.534758      -7.7387385     -6.9366129      4.2618755      50218.233      36.893836      36.893836      36.893836    
    224000   0.53180451    -7.7392146     -6.9415192      4.2559902      50218.233      36.893836      36.893836      36.893836    
    225000   0.53558795    -7.7359579     -6.9325874      4.2895449      50218.233      36.893836      36.893836      36.893836    
    226000   0.53794337    -7.7378129     -6.9309093      4.2693319      50218.233      36.893836      36.893836      36.893836    
    227000   0.53273742    -7.7398664     -6.9407717      4.257278       50218.233      36.893836      36.893836      36.893836    
    228000   0.5371254     -7.737974      -6.9322973      4.27972        50218.233      36.893836      36.893836      36.893836    
    229000   0.53511504    -7.7364093     -6.9337482      4.2905168      50218.233      36.893836      36.893836      36.893836    
    230000   0.53586282    -7.7414085     -6.9376257      4.2438678      50218.233      36.893836      36.893836      36.893836    
    231000   0.53621895    -7.737885      -6.9335681      4.2825218      50218.233      36.893836      36.893836      36.893836    
    232000   0.53311667    -7.7417075     -6.9420438      4.2445985      50218.233      36.893836      36.893836      36.893836    
    233000   0.53552242    -7.7382537     -6.9349815      4.2693051      50218.233      36.893836      36.893836      36.893836    
    234000   0.53419285    -7.742663      -6.9413851      4.2410162      50218.233      36.893836      36.893836      36.893836    
    235000   0.5347955     -7.7402378     -6.938056       4.2614176      50218.233      36.893836      36.893836      36.893836    
    236000   0.53341599    -7.7440571     -6.9439445      4.2302247      50218.233      36.893836      36.893836      36.893836    
    237000   0.53601448    -7.7414366     -6.9374263      4.2511625      50218.233      36.893836      36.893836      36.893836    
    238000   0.53698814    -7.7399366     -6.9344659      4.2605209      50218.233      36.893836      36.893836      36.893836    
    239000   0.53721009    -7.7405821     -6.9347784      4.249306       50218.233      36.893836      36.893836      36.893836    
    240000   0.53257469    -7.7354631     -6.9366124      4.2883234      50218.233      36.893836      36.893836      36.893836    
    241000   0.53804878    -7.7359692     -6.9289075      4.3032583      50218.233      36.893836      36.893836      36.893836    
    242000   0.53574921    -7.7414715     -6.9378591      4.2491109      50218.233      36.893836      36.893836      36.893836    
    243000   0.53209745    -7.7434703     -6.9453355      4.2306677      50218.233      36.893836      36.893836      36.893836    
    244000   0.53353833    -7.7404633     -6.9401672      4.2590689      50218.233      36.893836      36.893836      36.893836    
    245000   0.53784353    -7.7425675     -6.9358137      4.2431687      50218.233      36.893836      36.893836      36.893836    
    246000   0.53700752    -7.7399203     -6.9344204      4.2775412      50218.233      36.893836      36.893836      36.893836    
    247000   0.53395008    -7.7399818     -6.9390681      4.2541923      50218.233      36.893836      36.893836      36.893836    
    248000   0.53706911    -7.740205      -6.9346128      4.2599846      50218.233      36.893836      36.893836      36.893836    
    249000   0.53462508    -7.7385412     -6.936615       4.2594554      50218.233      36.893836      36.893836      36.893836    
    250000   0.53328109    -7.7330717     -6.9331614      4.3036967      50218.233      36.893836      36.893836      36.893836    
    251000   0.53462772    -7.7416002     -6.93967        4.2393599      50218.233      36.893836      36.893836      36.893836    
    252000   0.53641603    -7.734913      -6.9303004      4.306035       50218.233      36.893836      36.893836      36.893836    
    253000   0.5335617     -7.7372537     -6.9369225      4.2757673      50218.233      36.893836      36.893836      36.893836    
    254000   0.53757406    -7.7395212     -6.9331716      4.2710411      50218.233      36.893836      36.893836      36.893836    
    255000   0.5346704     -7.7372557     -6.9352615      4.2745548      50218.233      36.893836      36.893836      36.893836    
    256000   0.53605631    -7.73073       -6.926657       4.3292358      50218.233      36.893836      36.893836      36.893836    
    257000   0.53736208    -7.7395055     -6.9334739      4.2733631      50218.233      36.893836      36.893836      36.893836    
    258000   0.53410099    -7.7350426     -6.9339026      4.2885224      50218.233      36.893836      36.893836      36.893836    
    259000   0.53181576    -7.7324502     -6.9347379      4.3079379      50218.233      36.893836      36.893836      36.893836    
    260000   0.5354971     -7.7398652     -6.936631       4.269511       50218.233      36.893836      36.893836      36.893836    
    261000   0.53706306    -7.7357968     -6.9302137      4.2963644      50218.233      36.893836      36.893836      36.893836    
    262000   0.53279124    -7.7324448     -6.9332693      4.3082258      50218.233      36.893836      36.893836      36.893836    
    263000   0.53690067    -7.7368441     -6.9315045      4.2811908      50218.233      36.893836      36.893836      36.893836    
    264000   0.5322112     -7.7416267     -6.9433212      4.2400481      50218.233      36.893836      36.893836      36.893836    
    265000   0.53503637    -7.7432771     -6.940734       4.2365895      50218.233      36.893836      36.893836      36.893836    
    266000   0.53425123    -7.7395532     -6.9381878      4.2671691      50218.233      36.893836      36.893836      36.893836    
    267000   0.53428072    -7.7408479     -6.9394383      4.2484679      50218.233      36.893836      36.893836      36.893836    
    268000   0.53241211    -7.7391347     -6.9405279      4.2723644      50218.233      36.893836      36.893836      36.893836    
    269000   0.53466852    -7.7357567     -6.9337653      4.2908711      50218.233      36.893836      36.893836      36.893836    
    270000   0.53585753    -7.7372591     -6.9334842      4.2777565      50218.233      36.893836      36.893836      36.893836    
    271000   0.53249929    -7.737478      -6.9387404      4.2845309      50218.233      36.893836      36.893836      36.893836    
    272000   0.53185722    -7.7398873     -6.9421128      4.2638992      50218.233      36.893836      36.893836      36.893836    
    273000   0.53424595    -7.7367862     -6.9354287      4.2813694      50218.233      36.893836      36.893836      36.893836    
    274000   0.53158241    -7.7388849     -6.9415226      4.2710255      50218.233      36.893836      36.893836      36.893836    
    275000   0.53563341    -7.7324088     -6.9289701      4.3143369      50218.233      36.893836      36.893836      36.893836    
    276000   0.53366068    -7.7323326     -6.931853       4.3156112      50218.233      36.893836      36.893836      36.893836    
    277000   0.5344808     -7.7356511     -6.9339413      4.2951212      50218.233      36.893836      36.893836      36.893836    
    278000   0.53340439    -7.7331827     -6.9330875      4.3020397      50218.233      36.893836      36.893836      36.893836    
    279000   0.53803168    -7.738866      -6.9318299      4.273082       50218.233      36.893836      36.893836      36.893836    
    280000   0.53541671    -7.7312119     -6.9280982      4.3244423      50218.233      36.893836      36.893836      36.893836    
    281000   0.5342323     -7.7372269     -6.9358898      4.2710718      50218.233      36.893836      36.893836      36.893836    
    282000   0.53519616    -7.7381591     -6.9353763      4.2747586      50218.233      36.893836      36.893836      36.893836    
    283000   0.5350885     -7.7353666     -6.9327453      4.2911135      50218.233      36.893836      36.893836      36.893836    
    284000   0.53546342    -7.7400401     -6.9368564      4.2572613      50218.233      36.893836      36.893836      36.893836    
    285000   0.53390387    -7.7352617     -6.9344173      4.2906191      50218.233      36.893836      36.893836      36.893836    
    286000   0.53514142    -7.7362953     -6.9335946      4.2894112      50218.233      36.893836      36.893836      36.893836    
    287000   0.53766055    -7.7383092     -6.9318298      4.2765885      50218.233      36.893836      36.893836      36.893836    
    288000   0.53412181    -7.7410723     -6.939901       4.2422234      50218.233      36.893836      36.893836      36.893836    
    289000   0.53514089    -7.7381715     -6.9354715      4.2681912      50218.233      36.893836      36.893836      36.893836    
    290000   0.53490824    -7.7351534     -6.9328024      4.2802804      50218.233      36.893836      36.893836      36.893836    
    291000   0.53530919    -7.7425824     -6.9396301      4.234414       50218.233      36.893836      36.893836      36.893836    
    292000   0.53469265    -7.7349248     -6.9328972      4.2914031      50218.233      36.893836      36.893836      36.893836    
    293000   0.53654191    -7.7353636     -6.9305622      4.2968748      50218.233      36.893836      36.893836      36.893836    
    294000   0.53482962    -7.7395265     -6.9372935      4.2556469      50218.233      36.893836      36.893836      36.893836    
    295000   0.53763059    -7.7364429     -6.9300085      4.2940252      50218.233      36.893836      36.893836      36.893836    
    296000   0.53478766    -7.7383401     -6.93617        4.2686792      50218.233      36.893836      36.893836      36.893836    
    297000   0.53562741    -7.7375384     -6.9341087      4.2789505      50218.233      36.893836      36.893836      36.893836    
    298000   0.53171859    -7.7404357     -6.9428692      4.2457282      50218.233      36.893836      36.893836      36.893836    
    299000   0.53173221    -7.73716       -6.939573       4.2756523      50218.233      36.893836      36.893836      36.893836    
    300000   0.53417454    -7.7378202     -6.9365698      4.2583887      50218.233      36.893836      36.893836      36.893836    
    301000   0.53479787    -7.7398735     -6.9376881      4.2635924      50218.233      36.893836      36.893836      36.893836    
    302000   0.53977272    -7.7391422     -6.9294946      4.2797608      50218.233      36.893836      36.893836      36.893836    
    303000   0.53613327    -7.7412793     -6.9370909      4.2614479      50218.233      36.893836      36.893836      36.893836    
    304000   0.534801      -7.7350291     -6.932839       4.2947684      50218.233      36.893836      36.893836      36.893836    
    305000   0.53667131    -7.7392187     -6.9342232      4.2770001      50218.233      36.893836      36.893836      36.893836    
    306000   0.5346035     -7.7325241     -6.9306303      4.3158655      50218.233      36.893836      36.893836      36.893836    
    307000   0.53430222    -7.7325909     -6.9311489      4.3082754      50218.233      36.893836      36.893836      36.893836    
    308000   0.53424134    -7.7390255     -6.9376749      4.2703155      50218.233      36.893836      36.893836      36.893836    
    309000   0.53555081    -7.7385421     -6.9352273      4.2653276      50218.233      36.893836      36.893836      36.893836    
    310000   0.53312624    -7.7369238     -6.9372458      4.2831638      50218.233      36.893836      36.893836      36.893836    
    311000   0.53423413    -7.7360775     -6.9347377      4.2869321      50218.233      36.893836      36.893836      36.893836    
    312000   0.53420517    -7.7346268     -6.9333304      4.3034681      50218.233      36.893836      36.893836      36.893836    
    313000   0.53515859    -7.7329525     -6.9302261      4.3175031      50218.233      36.893836      36.893836      36.893836    
    314000   0.5329067     -7.7366107     -6.937262       4.2850825      50218.233      36.893836      36.893836      36.893836    
    315000   0.53461723    -7.738471      -6.9365565      4.2730276      50218.233      36.893836      36.893836      36.893836    
    316000   0.53324189    -7.7383282     -6.9384768      4.2696141      50218.233      36.893836      36.893836      36.893836    
    317000   0.53436378    -7.7366318     -6.9350976      4.2868841      50218.233      36.893836      36.893836      36.893836    
    318000   0.53811829    -7.7374272     -6.9302612      4.2888827      50218.233      36.893836      36.893836      36.893836    
    319000   0.53587469    -7.7396982     -6.9358976      4.2659232      50218.233      36.893836      36.893836      36.893836    
    320000   0.53467404    -7.7382257     -6.936226       4.2759824      50218.233      36.893836      36.893836      36.893836    
    321000   0.53454748    -7.7335994     -6.9317896      4.3168445      50218.233      36.893836      36.893836      36.893836    
    322000   0.53563957    -7.7391799     -6.935732       4.2701681      50218.233      36.893836      36.893836      36.893836    
    323000   0.53745773    -7.7384826     -6.9323075      4.2815019      50218.233      36.893836      36.893836      36.893836    
    324000   0.5352329     -7.7347424     -6.9319044      4.3044886      50218.233      36.893836      36.893836      36.893836    
    325000   0.53444651    -7.7346313     -6.932973       4.2993145      50218.233      36.893836      36.893836      36.893836    
    326000   0.53460619    -7.7324456     -6.9305478      4.3230633      50218.233      36.893836      36.893836      36.893836    
    327000   0.53416226    -7.7355069     -6.9342749      4.2928844      50218.233      36.893836      36.893836      36.893836    
    328000   0.53423956    -7.7362017     -6.9348538      4.2988892      50218.233      36.893836      36.893836      36.893836    
    329000   0.5347743     -7.7334078     -6.9312577      4.320834       50218.233      36.893836      36.893836      36.893836    
    330000   0.53572961    -7.7371206     -6.9335376      4.2874553      50218.233      36.893836      36.893836      36.893836    
    331000   0.53557932    -7.7351783     -6.9318207      4.2992648      50218.233      36.893836      36.893836      36.893836    
    332000   0.53597099    -7.7352202     -6.9312751      4.2917656      50218.233      36.893836      36.893836      36.893836    
    333000   0.53407536    -7.7382146     -6.937113       4.2678498      50218.233      36.893836      36.893836      36.893836    
    334000   0.53429587    -7.7330587     -6.9316263      4.3089089      50218.233      36.893836      36.893836      36.893836    
    335000   0.53419927    -7.7398267     -6.9385392      4.2588996      50218.233      36.893836      36.893836      36.893836    
    336000   0.53666148    -7.7365596     -6.9315788      4.294919       50218.233      36.893836      36.893836      36.893836    
    337000   0.53522468    -7.7391102     -6.9362846      4.2729389      50218.233      36.893836      36.893836      36.893836    
    338000   0.53371824    -7.7396263     -6.9390604      4.2692674      50218.233      36.893836      36.893836      36.893836    
    339000   0.53687326    -7.7370209     -6.9317225      4.2894541      50218.233      36.893836      36.893836      36.893836    
    340000   0.5340265     -7.7333269     -6.9322985      4.3170623      50218.233      36.893836      36.893836      36.893836    
    341000   0.53318359    -7.7334249     -6.9336609      4.3174954      50218.233      36.893836      36.893836      36.893836    
    342000   0.53419982    -7.7338308     -6.9325425      4.311333       50218.233      36.893836      36.893836      36.893836    
    343000   0.53516809    -7.7348314     -6.9320907      4.2968082      50218.233      36.893836      36.893836      36.893836    
    344000   0.53387515    -7.7379733     -6.937172       4.2843977      50218.233      36.893836      36.893836      36.893836    
    345000   0.53318028    -7.7412331     -6.941474       4.2524308      50218.233      36.893836      36.893836      36.893836    
    346000   0.53655728    -7.7336544     -6.92883        4.301502       50218.233      36.893836      36.893836      36.893836    
    347000   0.53431155    -7.7329014     -6.9314455      4.3077931      50218.233      36.893836      36.893836      36.893836    
    348000   0.53445111    -7.7353935     -6.9337282      4.2907029      50218.233      36.893836      36.893836      36.893836    
    349000   0.53664483    -7.7380897     -6.9331339      4.2921944      50218.233      36.893836      36.893836      36.893836    
    350000   0.53527314    -7.7364063     -6.933508       4.2863595      50218.233      36.893836      36.893836      36.893836    
    351000   0.53530461    -7.7379595     -6.935014       4.2802533      50218.233      36.893836      36.893836      36.893836    
    352000   0.53316955    -7.7409555     -6.9412125      4.2426278      50218.233      36.893836      36.893836      36.893836    
    353000   0.53406053    -7.7352412     -6.9341618      4.2970736      50218.233      36.893836      36.893836      36.893836    
    354000   0.53530286    -7.737563      -6.9346201      4.2761863      50218.233      36.893836      36.893836      36.893836    
    355000   0.53531479    -7.7385748     -6.935614       4.2760361      50218.233      36.893836      36.893836      36.893836    
    356000   0.53481649    -7.7341126     -6.9318993      4.3093417      50218.233      36.893836      36.893836      36.893836    
    357000   0.53739516    -7.7425772     -6.9364959      4.2431994      50218.233      36.893836      36.893836      36.893836    
    358000   0.53425952    -7.7352046     -6.9338267      4.3024642      50218.233      36.893836      36.893836      36.893836    
    359000   0.53423761    -7.7366355     -6.9352905      4.2827632      50218.233      36.893836      36.893836      36.893836    
    360000   0.53478366    -7.7356335     -6.9334695      4.2808279      50218.233      36.893836      36.893836      36.893836    
    361000   0.53400726    -7.7328766     -6.9318771      4.312607       50218.233      36.893836      36.893836      36.893836    
    362000   0.53363239    -7.7332536     -6.9328164      4.3003707      50218.233      36.893836      36.893836      36.893836    
    363000   0.53500244    -7.7330932     -6.930601       4.3057336      50218.233      36.893836      36.893836      36.893836    
    364000   0.53456325    -7.7351994     -6.933366       4.2907354      50218.233      36.893836      36.893836      36.893836    
    365000   0.53561283    -7.7367701     -6.9333623      4.2881841      50218.233      36.893836      36.893836      36.893836    
    366000   0.53591362    -7.7333632     -6.9295042      4.3011892      50218.233      36.893836      36.893836      36.893836    
    367000   0.53591891    -7.735218      -6.931351       4.2988793      50218.233      36.893836      36.893836      36.893836    
    368000   0.53679227    -7.7334332     -6.9282563      4.3145171      50218.233      36.893836      36.893836      36.893836    
    369000   0.53727435    -7.7330997     -6.9271996      4.3136851      50218.233      36.893836      36.893836      36.893836    
    370000   0.53431921    -7.7337404     -6.932273       4.2962285      50218.233      36.893836      36.893836      36.893836    
    371000   0.53614775    -7.7356099     -6.9313997      4.3015232      50218.233      36.893836      36.893836      36.893836    
    372000   0.53329032    -7.7368121     -6.936888       4.2930107      50218.233      36.893836      36.893836      36.893836    
    373000   0.53473289    -7.7337884     -6.9317005      4.2954887      50218.233      36.893836      36.893836      36.893836    
    374000   0.53490202    -7.7317628     -6.9294212      4.332216       50218.233      36.893836      36.893836      36.893836    
    375000   0.53396739    -7.7330081     -6.9320685      4.3085919      50218.233      36.893836      36.893836      36.893836    
    376000   0.53656921    -7.7366045     -6.9317622      4.2907816      50218.233      36.893836      36.893836      36.893836    
    377000   0.53138297    -7.7326316     -6.9355685      4.306625       50218.233      36.893836      36.893836      36.893836    
    378000   0.53476465    -7.7342395     -6.9321039      4.3026753      50218.233      36.893836      36.893836      36.893836    
    379000   0.53439211    -7.7383082     -6.9367315      4.276981       50218.233      36.893836      36.893836      36.893836    
    380000   0.53619994    -7.7333094     -6.9290209      4.3170392      50218.233      36.893836      36.893836      36.893836    
    381000   0.53550544    -7.7364727     -6.933226       4.2930984      50218.233      36.893836      36.893836      36.893836    
    382000   0.53223751    -7.732583      -6.9342381      4.2941357      50218.233      36.893836      36.893836      36.893836    
    383000   0.53160347    -7.737794      -6.9404002      4.2722716      50218.233      36.893836      36.893836      36.893836    
    384000   0.53564857    -7.7387562     -6.9352948      4.2697308      50218.233      36.893836      36.893836      36.893836    
    385000   0.53200036    -7.7400216     -6.9420324      4.2498928      50218.233      36.893836      36.893836      36.893836    
    386000   0.53618198    -7.7363354     -6.9320738      4.2818381      50218.233      36.893836      36.893836      36.893836    
    387000   0.53486012    -7.7415881     -6.9393093      4.246723       50218.233      36.893836      36.893836      36.893836    
    388000   0.5353292     -7.7340087     -6.9310264      4.2983653      50218.233      36.893836      36.893836      36.893836    
    389000   0.53348542    -7.739553      -6.9393363      4.2538842      50218.233      36.893836      36.893836      36.893836    
    390000   0.53720662    -7.7346526     -6.9288541      4.2910295      50218.233      36.893836      36.893836      36.893836    
    391000   0.53561569    -7.7343236     -6.9309115      4.299162       50218.233      36.893836      36.893836      36.893836    
    392000   0.53576765    -7.7365088     -6.9328688      4.285475       50218.233      36.893836      36.893836      36.893836    
    393000   0.53598717    -7.7358875     -6.9319182      4.2961779      50218.233      36.893836      36.893836      36.893836    
    394000   0.53182568    -7.7364365     -6.9387094      4.2818919      50218.233      36.893836      36.893836      36.893836    
    395000   0.5324497     -7.7363943     -6.9377311      4.2817653      50218.233      36.893836      36.893836      36.893836    
    396000   0.53353342    -7.7396726     -6.9393838      4.2646471      50218.233      36.893836      36.893836      36.893836    
    397000   0.53337705    -7.7370427     -6.9369885      4.280427       50218.233      36.893836      36.893836      36.893836    
    398000   0.53424019    -7.7341909     -6.9328421      4.3019077      50218.233      36.893836      36.893836      36.893836    
    399000   0.53654933    -7.7380647     -6.9332522      4.2658127      50218.233      36.893836      36.893836      36.893836    
    400000   0.53464674    -7.7409306     -6.9389719      4.2507692      50218.233      36.893836      36.893836      36.893836    
    401000   0.53682484    -7.7413311     -6.9361053      4.2499657      50218.233      36.893836      36.893836      36.893836    
    402000   0.53563194    -7.7325884     -6.9291519      4.3187279      50218.233      36.893836      36.893836      36.893836    
    403000   0.53543739    -7.7392256     -6.9360809      4.2640321      50218.233      36.893836      36.893836      36.893836    
    404000   0.53229444    -7.7359082     -6.9374779      4.2848742      50218.233      36.893836      36.893836      36.893836    
    405000   0.53361929    -7.7360929     -6.9356753      4.2917313      50218.233      36.893836      36.893836      36.893836    
    406000   0.53267782    -7.7341872     -6.9351819      4.2973576      50218.233      36.893836      36.893836      36.893836    
    407000   0.53449386    -7.7395207     -6.9377914      4.2669524      50218.233      36.893836      36.893836      36.893836    
    408000   0.53438929    -7.7335059     -6.9319334      4.3152348      50218.233      36.893836      36.893836      36.893836    
    409000   0.53427859    -7.738299      -6.9368926      4.2762864      50218.233      36.893836      36.893836      36.893836    
    410000   0.53512171    -7.7359227     -6.9332515      4.2920538      50218.233      36.893836      36.893836      36.893836    
    411000   0.53337928    -7.7345981     -6.9345405      4.3001452      50218.233      36.893836      36.893836      36.893836    
    412000   0.53432619    -7.7369516     -6.9354737      4.2805225      50218.233      36.893836      36.893836      36.893836    
    413000   0.53537789    -7.7349551     -6.9318997      4.2918556      50218.233      36.893836      36.893836      36.893836    
    414000   0.53562243    -7.7369717     -6.9335495      4.2852056      50218.233      36.893836      36.893836      36.893836    
    415000   0.53598261    -7.7379966     -6.9340341      4.2773112      50218.233      36.893836      36.893836      36.893836    
    416000   0.53683142    -7.7357021     -6.9304664      4.28657        50218.233      36.893836      36.893836      36.893836    
    417000   0.53911355    -7.7380999     -6.9294411      4.2807545      50218.233      36.893836      36.893836      36.893836    
    418000   0.53141831    -7.7384592     -6.9413431      4.2543528      50218.233      36.893836      36.893836      36.893836    
    419000   0.53659652    -7.7335391     -6.9286558      4.3176167      50218.233      36.893836      36.893836      36.893836    
    420000   0.53675759    -7.7321744     -6.9270494      4.315807       50218.233      36.893836      36.893836      36.893836    
    421000   0.53208367    -7.7343711     -6.9362569      4.2898859      50218.233      36.893836      36.893836      36.893836    
    422000   0.53416834    -7.7353154     -6.9340743      4.287906       50218.233      36.893836      36.893836      36.893836    
    423000   0.53609407    -7.7314514     -6.9273217      4.3374398      50218.233      36.893836      36.893836      36.893836    
    424000   0.5368927     -7.7377072     -6.9323796      4.2823347      50218.233      36.893836      36.893836      36.893836    
    425000   0.53500393    -7.7356528     -6.9331583      4.2843234      50218.233      36.893836      36.893836      36.893836    
    426000   0.53721149    -7.73608       -6.9302743      4.2936647      50218.233      36.893836      36.893836      36.893836    
    427000   0.53572751    -7.7367614     -6.9331816      4.2819639      50218.233      36.893836      36.893836      36.893836    
    428000   0.53554081    -7.7369832     -6.9336835      4.2761919      50218.233      36.893836      36.893836      36.893836    
    429000   0.53444096    -7.7341697     -6.9325196      4.2985219      50218.233      36.893836      36.893836      36.893836    
    430000   0.53542916    -7.7378131     -6.9346808      4.2782206      50218.233      36.893836      36.893836      36.893836    
    431000   0.53652047    -7.7364847     -6.9317154      4.279639       50218.233      36.893836      36.893836      36.893836    
    432000   0.53371111    -7.735408      -6.9348527      4.2959163      50218.233      36.893836      36.893836      36.893836    
    433000   0.53516929    -7.73694       -6.9341975      4.284209       50218.233      36.893836      36.893836      36.893836    
    434000   0.53411477    -7.7282969     -6.9271361      4.3367696      50218.233      36.893836      36.893836      36.893836    
    435000   0.53431341    -7.7379507     -6.936492       4.279164       50218.233      36.893836      36.893836      36.893836    
    436000   0.53755688    -7.7369664     -6.9306425      4.2995468      50218.233      36.893836      36.893836      36.893836    
    437000   0.5378999     -7.737432      -6.9305936      4.2886235      50218.233      36.893836      36.893836      36.893836    
    438000   0.53291925    -7.7374352     -6.9380677      4.2770181      50218.233      36.893836      36.893836      36.893836    
    439000   0.53531719    -7.7357188     -6.9327544      4.2967888      50218.233      36.893836      36.893836      36.893836    
    440000   0.53652056    -7.7341167     -6.9293473      4.3117665      50218.233      36.893836      36.893836      36.893836    
    441000   0.53739899    -7.7365775     -6.9304905      4.297277       50218.233      36.893836      36.893836      36.893836    
    442000   0.53400836    -7.7344972     -6.9334961      4.3061179      50218.233      36.893836      36.893836      36.893836    
    443000   0.53716026    -7.7385349     -6.932806       4.2743569      50218.233      36.893836      36.893836      36.893836    
    444000   0.53342991    -7.737177      -6.9370435      4.2760959      50218.233      36.893836      36.893836      36.893836    
    445000   0.5392557     -7.7332295     -6.9243574      4.3122467      50218.233      36.893836      36.893836      36.893836    
    446000   0.53217225    -7.7383143     -6.9400672      4.2775577      50218.233      36.893836      36.893836      36.893836    
    447000   0.53449299    -7.7366036     -6.9348755      4.2758088      50218.233      36.893836      36.893836      36.893836    
    448000   0.53332146    -7.7401833     -6.9402125      4.2609193      50218.233      36.893836      36.893836      36.893836    
    449000   0.53570187    -7.7353421     -6.9318007      4.2915895      50218.233      36.893836      36.893836      36.893836    
    450000   0.53565957    -7.7394838     -6.9360058      4.2757753      50218.233      36.893836      36.893836      36.893836    
    451000   0.53545702    -7.7399349     -6.9367608      4.2696175      50218.233      36.893836      36.893836      36.893836    
    452000   0.5332961     -7.7356136     -6.9356808      4.2872732      50218.233      36.893836      36.893836      36.893836    
    453000   0.53465776    -7.7384248     -6.9364495      4.2808292      50218.233      36.893836      36.893836      36.893836    
    454000   0.53358556    -7.7362885     -6.9359215      4.2752764      50218.233      36.893836      36.893836      36.893836    
    455000   0.53513759    -7.7354015     -6.9327065      4.2929163      50218.233      36.893836      36.893836      36.893836    
    456000   0.53551942    -7.7332501     -6.9299824      4.3209174      50218.233      36.893836      36.893836      36.893836    
    457000   0.53433836    -7.7404466     -6.9389504      4.2546926      50218.233      36.893836      36.893836      36.893836    
    458000   0.53738332    -7.7366523     -6.9305888      4.2944218      50218.233      36.893836      36.893836      36.893836    
    459000   0.53683802    -7.7353782     -6.9301327      4.2970034      50218.233      36.893836      36.893836      36.893836    
    460000   0.53474791    -7.7377383     -6.9356278      4.2577087      50218.233      36.893836      36.893836      36.893836    
    461000   0.53826159    -7.7399312     -6.9325503      4.2593366      50218.233      36.893836      36.893836      36.893836    
    462000   0.5348963     -7.7411689     -6.9388359      4.2518027      50218.233      36.893836      36.893836      36.893836    
    463000   0.5363037     -7.7362674     -6.9318232      4.2827914      50218.233      36.893836      36.893836      36.893836    
    464000   0.53347659    -7.7377308     -6.9375273      4.2760754      50218.233      36.893836      36.893836      36.893836    
    465000   0.53676035    -7.7357902     -6.9306611      4.2869092      50218.233      36.893836      36.893836      36.893836    
    466000   0.5342726     -7.7332779     -6.9318804      4.3190591      50218.233      36.893836      36.893836      36.893836    
    467000   0.53433945    -7.7363475     -6.9348497      4.2883324      50218.233      36.893836      36.893836      36.893836    
    468000   0.53337628    -7.7338092     -6.9337561      4.3019311      50218.233      36.893836      36.893836      36.893836    
    469000   0.53730817    -7.7334491     -6.9274983      4.3127492      50218.233      36.893836      36.893836      36.893836    
    470000   0.53360232    -7.7353548     -6.9349627      4.2959882      50218.233      36.893836      36.893836      36.893836    
    471000   0.53064295    -7.733219      -6.9372659      4.299309       50218.233      36.893836      36.893836      36.893836    
    472000   0.53630868    -7.7413915     -6.93694        4.2501531      50218.233      36.893836      36.893836      36.893836    
    473000   0.53197706    -7.733874      -6.9359198      4.2909054      50218.233      36.893836      36.893836      36.893836    
    474000   0.53495985    -7.7341835     -6.9317552      4.3040028      50218.233      36.893836      36.893836      36.893836    
    475000   0.53274642    -7.7330464     -6.9339382      4.3037492      50218.233      36.893836      36.893836      36.893836    
    476000   0.53463668    -7.7379913     -6.9360477      4.269663       50218.233      36.893836      36.893836      36.893836    
    477000   0.53422354    -7.7371867     -6.9358628      4.2760431      50218.233      36.893836      36.893836      36.893836    
    478000   0.53511611    -7.7321816     -6.9295189      4.3061518      50218.233      36.893836      36.893836      36.893836    
    479000   0.53266195    -7.7360512     -6.9370696      4.288074       50218.233      36.893836      36.893836      36.893836    
    480000   0.53543018    -7.7361537     -6.9330198      4.2921174      50218.233      36.893836      36.893836      36.893836    
    481000   0.53495286    -7.7372318     -6.9348139      4.2843994      50218.233      36.893836      36.893836      36.893836    
    482000   0.53753011    -7.7341043     -6.9278206      4.3046373      50218.233      36.893836      36.893836      36.893836    
    483000   0.53398207    -7.7406149     -6.9396532      4.2627538      50218.233      36.893836      36.893836      36.893836    
    484000   0.53681171    -7.7339016     -6.9286955      4.2944902      50218.233      36.893836      36.893836      36.893836    
    485000   0.53922347    -7.7363256     -6.9275019      4.2877382      50218.233      36.893836      36.893836      36.893836    
    486000   0.53515979    -7.7348442     -6.932116       4.3075933      50218.233      36.893836      36.893836      36.893836    
    487000   0.53624755    -7.735107      -6.9307472      4.3095612      50218.233      36.893836      36.893836      36.893836    
    488000   0.5332664     -7.7357424     -6.9358542      4.2759986      50218.233      36.893836      36.893836      36.893836    
    489000   0.53366351    -7.7405812     -6.9400973      4.245863       50218.233      36.893836      36.893836      36.893836    
    490000   0.53629025    -7.7350144     -6.9305905      4.3082866      50218.233      36.893836      36.893836      36.893836    
    491000   0.53239003    -7.7345524     -6.9359788      4.2919429      50218.233      36.893836      36.893836      36.893836    
    492000   0.5346806     -7.7364106     -6.9344011      4.2830077      50218.233      36.893836      36.893836      36.893836    
    493000   0.53321376    -7.7336471     -6.9338378      4.3034087      50218.233      36.893836      36.893836      36.893836    
    494000   0.53685099    -7.7351092     -6.9298442      4.3008129      50218.233      36.893836      36.893836      36.893836    
    495000   0.5349915     -7.7374299     -6.934954       4.2929511      50218.233      36.893836      36.893836      36.893836    
    496000   0.53175468    -7.7374927     -6.939872       4.2734001      50218.233      36.893836      36.893836      36.893836    
    497000   0.53581024    -7.7346419     -6.930938       4.3020025      50218.233      36.893836      36.893836      36.893836    
    498000   0.53711233    -7.7363532     -6.9306962      4.2862695      50218.233      36.893836      36.893836      36.893836    
    499000   0.53290075    -7.7386841     -6.9393443      4.2675524      50218.233      36.893836      36.893836      36.893836    
    500000   0.5355065     -7.7347157     -6.9314674      4.3073366      50218.233      36.893836      36.893836      36.893836    
    501000   0.53683291    -7.7332423     -6.9280044      4.3115411      50218.233      36.893836      36.893836      36.893836    
    502000   0.53399272    -7.7385322     -6.9375545      4.2679999      50218.233      36.893836      36.893836      36.893836    
    503000   0.53455937    -7.7357693     -6.9339417      4.2897709      50218.233      36.893836      36.893836      36.893836    
    504000   0.5362197     -7.7328298     -6.9285117      4.3157409      50218.233      36.893836      36.893836      36.893836    
    505000   0.53367502    -7.7376554     -6.9371543      4.274447       50218.233      36.893836      36.893836      36.893836    
    506000   0.53259468    -7.7325837     -6.9337031      4.310437       50218.233      36.893836      36.893836      36.893836    
    507000   0.53636775    -7.7383353     -6.9337951      4.2783756      50218.233      36.893836      36.893836      36.893836    
    508000   0.53434727    -7.7403551     -6.9388456      4.2568601      50218.233      36.893836      36.893836      36.893836    
    509000   0.53231615    -7.7406498     -6.9421869      4.2536054      50218.233      36.893836      36.893836      36.893836    
    510000   0.53349848    -7.7377486     -6.9375122      4.2762434      50218.233      36.893836      36.893836      36.893836    
    511000   0.53272846    -7.7416791     -6.9425978      4.2507072      50218.233      36.893836      36.893836      36.893836    
    512000   0.53411375    -7.7365643     -6.935405       4.2891462      50218.233      36.893836      36.893836      36.893836    
    513000   0.53820983    -7.7327007     -6.9253975      4.3328605      50218.233      36.893836      36.893836      36.893836    
    514000   0.53526871    -7.7389105     -6.9360189      4.2792721      50218.233      36.893836      36.893836      36.893836    
    515000   0.53570874    -7.7348594     -6.9313077      4.2917413      50218.233      36.893836      36.893836      36.893836    
    516000   0.53352555    -7.7331611     -6.9328841      4.3140046      50218.233      36.893836      36.893836      36.893836    
    517000   0.53647581    -7.7366059     -6.9319036      4.2889709      50218.233      36.893836      36.893836      36.893836    
    518000   0.53578581    -7.7412096     -6.9375423      4.2579775      50218.233      36.893836      36.893836      36.893836    
    519000   0.53624773    -7.737594      -6.9332339      4.2861507      50218.233      36.893836      36.893836      36.893836    
    520000   0.53486412    -7.7324126     -6.9301278      4.3116319      50218.233      36.893836      36.893836      36.893836    
    521000   0.53532511    -7.7361848     -6.9332085      4.2786338      50218.233      36.893836      36.893836      36.893836    
    522000   0.53495301    -7.7392511     -6.936833       4.2642252      50218.233      36.893836      36.893836      36.893836    
    523000   0.53654188    -7.7364048     -6.9316034      4.2778525      50218.233      36.893836      36.893836      36.893836    
    524000   0.5355485     -7.7360338     -6.9327225      4.2864514      50218.233      36.893836      36.893836      36.893836    
    525000   0.53490779    -7.7423919     -6.9400416      4.2394701      50218.233      36.893836      36.893836      36.893836    
    526000   0.53578213    -7.735267      -6.9316052      4.3018782      50218.233      36.893836      36.893836      36.893836    
    527000   0.53441489    -7.7381192     -6.9365083      4.2731116      50218.233      36.893836      36.893836      36.893836    
    528000   0.53168609    -7.7318148     -6.934297       4.3180995      50218.233      36.893836      36.893836      36.893836    
    529000   0.53488838    -7.7333828     -6.9310616      4.3134197      50218.233      36.893836      36.893836      36.893836    
    530000   0.53644808    -7.7370866     -6.9324259      4.2801599      50218.233      36.893836      36.893836      36.893836    
    531000   0.53467586    -7.7358131     -6.9338107      4.2933401      50218.233      36.893836      36.893836      36.893836    
    532000   0.53588778    -7.738196      -6.9343757      4.2647197      50218.233      36.893836      36.893836      36.893836    
    533000   0.53277571    -7.740092      -6.9409398      4.252358       50218.233      36.893836      36.893836      36.893836    
    534000   0.53315186    -7.7409495     -6.9412331      4.2441907      50218.233      36.893836      36.893836      36.893836    
    535000   0.53536837    -7.7378584     -6.9348173      4.2725757      50218.233      36.893836      36.893836      36.893836    
    536000   0.53857643    -7.736644      -6.9287908      4.2819272      50218.233      36.893836      36.893836      36.893836    
    537000   0.53531168    -7.7328137     -6.9298576      4.3131028      50218.233      36.893836      36.893836      36.893836    
    538000   0.53406246    -7.7361552     -6.9350729      4.2722572      50218.233      36.893836      36.893836      36.893836    
    539000   0.5346602     -7.731178      -6.9291991      4.3200489      50218.233      36.893836      36.893836      36.893836    
    540000   0.53475894    -7.7391814     -6.9370544      4.2577472      50218.233      36.893836      36.893836      36.893836    
    541000   0.53626789    -7.7392738     -6.9348834      4.2644214      50218.233      36.893836      36.893836      36.893836    
    542000   0.53760858    -7.7333973     -6.9269959      4.3122076      50218.233      36.893836      36.893836      36.893836    
    543000   0.53745811    -7.735119      -6.9289433      4.2795475      50218.233      36.893836      36.893836      36.893836    
    544000   0.53557938    -7.7360729     -6.9327153      4.283539       50218.233      36.893836      36.893836      36.893836    
    545000   0.53626239    -7.7388998     -6.9345176      4.2675342      50218.233      36.893836      36.893836      36.893836    
    546000   0.53239888    -7.7356829     -6.9370959      4.2926915      50218.233      36.893836      36.893836      36.893836    
    547000   0.53552177    -7.7369058     -6.9336346      4.2682088      50218.233      36.893836      36.893836      36.893836    
    548000   0.53303647    -7.7314983     -6.931955       4.3219342      50218.233      36.893836      36.893836      36.893836    
    549000   0.53171035    -7.7343092     -6.936755       4.2936502      50218.233      36.893836      36.893836      36.893836    
    550000   0.53548143    -7.7366383     -6.9334275      4.2782466      50218.233      36.893836      36.893836      36.893836    
    551000   0.53245397    -7.7378244     -6.9391548      4.2621839      50218.233      36.893836      36.893836      36.893836    
    552000   0.5382299     -7.7392356     -6.9319023      4.2647785      50218.233      36.893836      36.893836      36.893836    
    553000   0.533744      -7.7336566     -6.9330519      4.2996627      50218.233      36.893836      36.893836      36.893836    
    554000   0.53508961    -7.7346427     -6.9320197      4.2974871      50218.233      36.893836      36.893836      36.893836    
    555000   0.53563787    -7.7363119     -6.9328666      4.2805843      50218.233      36.893836      36.893836      36.893836    
    556000   0.53311058    -7.7332461     -6.9335916      4.3023698      50218.233      36.893836      36.893836      36.893836    
    557000   0.53943157    -7.7383706     -6.9292347      4.2622453      50218.233      36.893836      36.893836      36.893836    
    558000   0.53426089    -7.7368336     -6.9354536      4.2780036      50218.233      36.893836      36.893836      36.893836    
    559000   0.53178954    -7.742652      -6.944979       4.2169095      50218.233      36.893836      36.893836      36.893836    
    560000   0.53702655    -7.7376411     -6.9321127      4.2746071      50218.233      36.893836      36.893836      36.893836    
    561000   0.53536359    -7.7392343     -6.9362003      4.2595272      50218.233      36.893836      36.893836      36.893836    
    562000   0.53428764    -7.7369101     -6.93549        4.2806817      50218.233      36.893836      36.893836      36.893836    
    563000   0.5321578     -7.7366673     -6.938442       4.2854501      50218.233      36.893836      36.893836      36.893836    
    564000   0.5322343     -7.7363488     -6.9380087      4.2745024      50218.233      36.893836      36.893836      36.893836    
    565000   0.53672477    -7.7363029     -6.9312272      4.2810802      50218.233      36.893836      36.893836      36.893836    
    566000   0.53494061    -7.7406213     -6.9382218      4.2463116      50218.233      36.893836      36.893836      36.893836    
    567000   0.53408644    -7.7391781     -6.9380598      4.2607726      50218.233      36.893836      36.893836      36.893836    
    568000   0.53321163    -7.7377237     -6.9379177      4.2740032      50218.233      36.893836      36.893836      36.893836    
    569000   0.53466851    -7.7311824     -6.929191       4.3110786      50218.233      36.893836      36.893836      36.893836    
    570000   0.53448291    -7.7391897     -6.9374767      4.2680567      50218.233      36.893836      36.893836      36.893836    
    571000   0.53392493    -7.7381867     -6.9373107      4.2755051      50218.233      36.893836      36.893836      36.893836    
    572000   0.5372239     -7.7384555     -6.9326311      4.2675154      50218.233      36.893836      36.893836      36.893836    
    573000   0.53619126    -7.7353518     -6.9310764      4.2943352      50218.233      36.893836      36.893836      36.893836    
    574000   0.53690989    -7.737648      -6.9322946      4.2747473      50218.233      36.893836      36.893836      36.893836    
    575000   0.53454344    -7.7365538     -6.93475        4.2648049      50218.233      36.893836      36.893836      36.893836    
    576000   0.53464104    -7.735958      -6.9340079      4.2771073      50218.233      36.893836      36.893836      36.893836    
    577000   0.53306908    -7.740858      -6.9412658      4.2403546      50218.233      36.893836      36.893836      36.893836    
    578000   0.53445056    -7.7318229     -6.9301585      4.3151715      50218.233      36.893836      36.893836      36.893836    
    579000   0.53634685    -7.7352902     -6.9307814      4.2855826      50218.233      36.893836      36.893836      36.893836    
    580000   0.53609492    -7.7393723     -6.9352414      4.2655689      50218.233      36.893836      36.893836      36.893836    
    581000   0.53535968    -7.7350934     -6.9320653      4.2901231      50218.233      36.893836      36.893836      36.893836    
    582000   0.53293682    -7.74109       -6.9416962      4.2366039      50218.233      36.893836      36.893836      36.893836    
    583000   0.53646788    -7.7367135     -6.9320232      4.2763621      50218.233      36.893836      36.893836      36.893836    
    584000   0.53712515    -7.7337947     -6.9281184      4.2986323      50218.233      36.893836      36.893836      36.893836    
    585000   0.53737193    -7.7362223     -6.9301759      4.2801723      50218.233      36.893836      36.893836      36.893836    
    586000   0.53507473    -7.7390667     -6.936466       4.2592716      50218.233      36.893836      36.893836      36.893836    
    587000   0.53501336    -7.7389981     -6.9364895      4.2573375      50218.233      36.893836      36.893836      36.893836    
    588000   0.53685452    -7.7340067     -6.9287363      4.3039631      50218.233      36.893836      36.893836      36.893836    
    589000   0.53400665    -7.7420174     -6.9410188      4.2479619      50218.233      36.893836      36.893836      36.893836    
    590000   0.53426526    -7.7339704     -6.9325839      4.3040662      50218.233      36.893836      36.893836      36.893836    
    591000   0.53571171    -7.7350061     -6.9314499      4.2955852      50218.233      36.893836      36.893836      36.893836    
    592000   0.53569068    -7.7437193     -6.9401947      4.2295084      50218.233      36.893836      36.893836      36.893836    
    593000   0.53533081    -7.7444225     -6.9414377      4.2213747      50218.233      36.893836      36.893836      36.893836    
    594000   0.5342157     -7.741427      -6.9401148      4.2453974      50218.233      36.893836      36.893836      36.893836    
    595000   0.53385025    -7.742209      -6.941445       4.2428282      50218.233      36.893836      36.893836      36.893836    
    596000   0.53412116    -7.7396658     -6.9384955      4.2539081      50218.233      36.893836      36.893836      36.893836    
    597000   0.53461996    -7.7387508     -6.9368323      4.2565692      50218.233      36.893836      36.893836      36.893836    
    598000   0.5360032     -7.7362433     -6.9322499      4.3001064      50218.233      36.893836      36.893836      36.893836    
    599000   0.53427435    -7.7397094     -6.9383092      4.2540287      50218.233      36.893836      36.893836      36.893836    
    600000   0.53446365    -7.7372574     -6.9355734      4.2670907      50218.233      36.893836      36.893836      36.893836    
    601000   0.53496948    -7.7381752     -6.9357324      4.2616227      50218.233      36.893836      36.893836      36.893836    
    602000   0.53545075    -7.741157      -6.9379923      4.2509012      50218.233      36.893836      36.893836      36.893836    
    603000   0.53498901    -7.7376321     -6.93516        4.2743491      50218.233      36.893836      36.893836      36.893836    
    604000   0.53467816    -7.7401166     -6.9381108      4.2523792      50218.233      36.893836      36.893836      36.893836    
    605000   0.53589236    -7.7413144     -6.9374873      4.2531522      50218.233      36.893836      36.893836      36.893836    
    606000   0.53624394    -7.7355063     -6.9311518      4.2886764      50218.233      36.893836      36.893836      36.893836    
    607000   0.53226627    -7.7392601     -6.940872       4.2620644      50218.233      36.893836      36.893836      36.893836    
    608000   0.53557744    -7.738624      -6.9352693      4.2685951      50218.233      36.893836      36.893836      36.893836    
    609000   0.53625098    -7.7402407     -6.9358757      4.2520212      50218.233      36.893836      36.893836      36.893836    
    610000   0.53459566    -7.7402875     -6.9384055      4.2436877      50218.233      36.893836      36.893836      36.893836    
    611000   0.53304117    -7.7393577     -6.9398074      4.2633377      50218.233      36.893836      36.893836      36.893836    
    612000   0.5349505     -7.7365586     -6.9341442      4.2800344      50218.233      36.893836      36.893836      36.893836    
    613000   0.53334976    -7.7375716     -6.9375584      4.2710925      50218.233      36.893836      36.893836      36.893836    
    614000   0.53699435    -7.7353826     -6.9299025      4.2843769      50218.233      36.893836      36.893836      36.893836    
    615000   0.5341806     -7.74221       -6.9409505      4.2394844      50218.233      36.893836      36.893836      36.893836    
    616000   0.53429533    -7.7401375     -6.9387059      4.2500712      50218.233      36.893836      36.893836      36.893836    
    617000   0.53823574    -7.7422639     -6.9349217      4.2470075      50218.233      36.893836      36.893836      36.893836    
    618000   0.53576505    -7.739318      -6.9356818      4.26711        50218.233      36.893836      36.893836      36.893836    
    619000   0.53333712    -7.739173      -6.9391787      4.2651218      50218.233      36.893836      36.893836      36.893836    
    620000   0.53618802    -7.7382117     -6.9339411      4.2825233      50218.233      36.893836      36.893836      36.893836    
    621000   0.53401748    -7.7338598     -6.932845       4.2996142      50218.233      36.893836      36.893836      36.893836    
    622000   0.53689621    -7.7410363     -6.9357034      4.2505947      50218.233      36.893836      36.893836      36.893836    
    623000   0.5357178     -7.7357696     -6.9322043      4.286164       50218.233      36.893836      36.893836      36.893836    
    624000   0.53589671    -7.7342776     -6.930444       4.2988136      50218.233      36.893836      36.893836      36.893836    
    625000   0.53260161    -7.7386446     -6.9397535      4.2674515      50218.233      36.893836      36.893836      36.893836    
    626000   0.53601535    -7.7417284     -6.9377168      4.2556105      50218.233      36.893836      36.893836      36.893836    
    627000   0.53596075    -7.7396344     -6.9357047      4.260444       50218.233      36.893836      36.893836      36.893836    
    628000   0.53601145    -7.7382863     -6.9342805      4.272842       50218.233      36.893836      36.893836      36.893836    
    629000   0.53218141    -7.7404475     -6.9421868      4.2628329      50218.233      36.893836      36.893836      36.893836    
    630000   0.5344476     -7.7361827     -6.9345227      4.2899324      50218.233      36.893836      36.893836      36.893836    
    631000   0.53772595    -7.7370905     -6.930513       4.2943363      50218.233      36.893836      36.893836      36.893836    
    632000   0.53594568    -7.7412798     -6.9373728      4.2525079      50218.233      36.893836      36.893836      36.893836    
    633000   0.5351138     -7.7389052     -6.9362459      4.2684754      50218.233      36.893836      36.893836      36.893836    
    634000   0.53265867    -7.7393312     -6.9403546      4.2542481      50218.233      36.893836      36.893836      36.893836    
    635000   0.5339603     -7.7335555     -6.9326265      4.3069404      50218.233      36.893836      36.893836      36.893836    
    636000   0.53354733    -7.7391866     -6.938877       4.2706624      50218.233      36.893836      36.893836      36.893836    
    637000   0.53468338    -7.7364549     -6.9344412      4.2690357      50218.233      36.893836      36.893836      36.893836    
    638000   0.53632259    -7.7365224     -6.93205        4.2772979      50218.233      36.893836      36.893836      36.893836    
    639000   0.53403541    -7.7416249     -6.9405832      4.2484678      50218.233      36.893836      36.893836      36.893836    
    640000   0.53322174    -7.7384782     -6.9386569      4.2771946      50218.233      36.893836      36.893836      36.893836    
    641000   0.53624118    -7.7310301     -6.9266798      4.3258547      50218.233      36.893836      36.893836      36.893836    
    642000   0.53280541    -7.7396987     -6.940502       4.2659849      50218.233      36.893836      36.893836      36.893836    
    643000   0.53898358    -7.7343696     -6.9259058      4.3150696      50218.233      36.893836      36.893836      36.893836    
    644000   0.53590944    -7.7359027     -6.93205        4.2912262      50218.233      36.893836      36.893836      36.893836    
    645000   0.53436424    -7.7349272     -6.9333923      4.3030782      50218.233      36.893836      36.893836      36.893836    
    646000   0.53643953    -7.7398094     -6.9351616      4.2655977      50218.233      36.893836      36.893836      36.893836    
    647000   0.53427683    -7.7375942     -6.9361904      4.2712205      50218.233      36.893836      36.893836      36.893836    
    648000   0.53604217    -7.7408689     -6.9368171      4.2551087      50218.233      36.893836      36.893836      36.893836    
    649000   0.53742329    -7.7409328     -6.9348093      4.2612806      50218.233      36.893836      36.893836      36.893836    
    650000   0.53360886    -7.7365237     -6.9361218      4.2896601      50218.233      36.893836      36.893836      36.893836    
    651000   0.53532635    -7.739874      -6.9368959      4.2621487      50218.233      36.893836      36.893836      36.893836    
    652000   0.53473669    -7.7389055     -6.9368119      4.2638311      50218.233      36.893836      36.893836      36.893836    
    653000   0.53238192    -7.7377387     -6.9391771      4.2614165      50218.233      36.893836      36.893836      36.893836    
    654000   0.53675097    -7.7387899     -6.9336749      4.2610415      50218.233      36.893836      36.893836      36.893836    
    655000   0.53443218    -7.7380142     -6.9363773      4.2703856      50218.233      36.893836      36.893836      36.893836    
    656000   0.53528156    -7.7410715     -6.9381606      4.2435594      50218.233      36.893836      36.893836      36.893836    
    657000   0.53646739    -7.7343939     -6.9297042      4.2933236      50218.233      36.893836      36.893836      36.893836    
    658000   0.53554977    -7.7370773     -6.9337641      4.2789045      50218.233      36.893836      36.893836      36.893836    
    659000   0.53520438    -7.7366774     -6.9338823      4.2747342      50218.233      36.893836      36.893836      36.893836    
    660000   0.53511061    -7.7353759     -6.9327214      4.2989989      50218.233      36.893836      36.893836      36.893836    
    661000   0.53363837    -7.7412809     -6.9408348      4.2390605      50218.233      36.893836      36.893836      36.893836    
    662000   0.53308702    -7.7340425     -6.9344233      4.3002625      50218.233      36.893836      36.893836      36.893836    
    663000   0.53607016    -7.7358763     -6.9317825      4.2826242      50218.233      36.893836      36.893836      36.893836    
    664000   0.53594969    -7.7394065     -6.9354934      4.261101       50218.233      36.893836      36.893836      36.893836    
    665000   0.53406926    -7.7324607     -6.9313682      4.3156383      50218.233      36.893836      36.893836      36.893836    
    666000   0.53449266    -7.7360499     -6.9343223      4.2845569      50218.233      36.893836      36.893836      36.893836    
    667000   0.53732408    -7.735129      -6.9291543      4.3017212      50218.233      36.893836      36.893836      36.893836    
    668000   0.53377529    -7.7368464     -6.9361948      4.2886806      50218.233      36.893836      36.893836      36.893836    
    669000   0.5341034     -7.731994      -6.9308503      4.3153651      50218.233      36.893836      36.893836      36.893836    
    670000   0.53191102    -7.737032      -6.9391768      4.2802668      50218.233      36.893836      36.893836      36.893836    
    671000   0.53215982    -7.7339718     -6.9357435      4.3001129      50218.233      36.893836      36.893836      36.893836    
    672000   0.53706616    -7.7374916     -6.9319038      4.2792969      50218.233      36.893836      36.893836      36.893836    
    673000   0.53799388    -7.7338578     -6.9268785      4.3027898      50218.233      36.893836      36.893836      36.893836    
    674000   0.53412353    -7.7368804     -6.9357065      4.2764001      50218.233      36.893836      36.893836      36.893836    
    675000   0.53784511    -7.7370664     -6.9303102      4.2833123      50218.233      36.893836      36.893836      36.893836    
    676000   0.53921557    -7.7410886     -6.9322768      4.2602385      50218.233      36.893836      36.893836      36.893836    
    677000   0.53325603    -7.7380598     -6.9381871      4.2623033      50218.233      36.893836      36.893836      36.893836    
    678000   0.534574      -7.7394278     -6.9375782      4.265459       50218.233      36.893836      36.893836      36.893836    
    679000   0.53641446    -7.7387658     -6.9341556      4.2714771      50218.233      36.893836      36.893836      36.893836    
    680000   0.53825144    -7.7367507     -6.929385       4.2869575      50218.233      36.893836      36.893836      36.893836    
    681000   0.5329461     -7.7399418     -6.940534       4.2558928      50218.233      36.893836      36.893836      36.893836    
    682000   0.5346283     -7.7344624     -6.9325314      4.3065116      50218.233      36.893836      36.893836      36.893836    
    683000   0.53533942    -7.7373757     -6.934378       4.2705515      50218.233      36.893836      36.893836      36.893836    
    684000   0.53678614    -7.7414099     -6.9362421      4.2499059      50218.233      36.893836      36.893836      36.893836    
    685000   0.536559      -7.73466       -6.9298329      4.2928282      50218.233      36.893836      36.893836      36.893836    
    686000   0.5370396     -7.7357076     -6.9301597      4.2875438      50218.233      36.893836      36.893836      36.893836    
    687000   0.5327682     -7.7421179     -6.942977       4.244007       50218.233      36.893836      36.893836      36.893836    
    688000   0.53302807    -7.7426155     -6.9430847      4.2288402      50218.233      36.893836      36.893836      36.893836    
    689000   0.53603303    -7.7437199     -6.9396818      4.2431023      50218.233      36.893836      36.893836      36.893836    
    690000   0.53633613    -7.7358175     -6.9313248      4.3095081      50218.233      36.893836      36.893836      36.893836    
    691000   0.53508648    -7.7387513     -6.936133       4.2734613      50218.233      36.893836      36.893836      36.893836    
    692000   0.53470124    -7.7372945     -6.935254       4.2878647      50218.233      36.893836      36.893836      36.893836    
    693000   0.53438832    -7.7394658     -6.9378947      4.2709784      50218.233      36.893836      36.893836      36.893836    
    694000   0.53591922    -7.7378361     -6.9339687      4.2849121      50218.233      36.893836      36.893836      36.893836    
    695000   0.53686015    -7.7336015     -6.9283227      4.3138856      50218.233      36.893836      36.893836      36.893836    
    696000   0.53322608    -7.7373114     -6.9374837      4.2810848      50218.233      36.893836      36.893836      36.893836    
    697000   0.53604605    -7.7391301     -6.9350725      4.2574476      50218.233      36.893836      36.893836      36.893836    
    698000   0.53798394    -7.742809      -6.9358446      4.2353626      50218.233      36.893836      36.893836      36.893836    
    699000   0.53523787    -7.7362931     -6.9334477      4.2850877      50218.233      36.893836      36.893836      36.893836    
    700000   0.53629151    -7.7384333     -6.9340074      4.2690953      50218.233      36.893836      36.893836      36.893836    
    701000   0.53615917    -7.7384381     -6.9342108      4.2665728      50218.233      36.893836      36.893836      36.893836    
    702000   0.53328443    -7.7393081     -6.9393928      4.2610831      50218.233      36.893836      36.893836      36.893836    
    703000   0.53443582    -7.7417278     -6.9400854      4.2406958      50218.233      36.893836      36.893836      36.893836    
    704000   0.53595215    -7.7357892     -6.9318724      4.3006713      50218.233      36.893836      36.893836      36.893836    
    705000   0.53335355    -7.7366102     -6.9365912      4.2791167      50218.233      36.893836      36.893836      36.893836    
    706000   0.53556733    -7.7343881     -6.9310485      4.2887549      50218.233      36.893836      36.893836      36.893836    
    707000   0.53502926    -7.7384106     -6.9358781      4.2698686      50218.233      36.893836      36.893836      36.893836    
    708000   0.53511931    -7.7374389     -6.9347714      4.2693143      50218.233      36.893836      36.893836      36.893836    
    709000   0.53411678    -7.7413133     -6.9401495      4.2491041      50218.233      36.893836      36.893836      36.893836    
    710000   0.53415171    -7.739055      -6.9378388      4.2648782      50218.233      36.893836      36.893836      36.893836    
    711000   0.53536499    -7.7385381     -6.935502       4.2708555      50218.233      36.893836      36.893836      36.893836    
    712000   0.53745303    -7.733628      -6.9274599      4.3075047      50218.233      36.893836      36.893836      36.893836    
    713000   0.53266175    -7.7404717     -6.9414905      4.2499727      50218.233      36.893836      36.893836      36.893836    
    714000   0.53655058    -7.7332499     -6.9284355      4.2949352      50218.233      36.893836      36.893836      36.893836    
    715000   0.5369054     -7.737303      -6.9319563      4.276581       50218.233      36.893836      36.893836      36.893836    
    716000   0.53520162    -7.734669      -6.9318779      4.3021412      50218.233      36.893836      36.893836      36.893836    
    717000   0.53383634    -7.7350653     -6.9343222      4.2783625      50218.233      36.893836      36.893836      36.893836    
    718000   0.53700801    -7.7316551     -6.9261545      4.3199531      50218.233      36.893836      36.893836      36.893836    
    719000   0.53586473    -7.7352308     -6.9314451      4.3007865      50218.233      36.893836      36.893836      36.893836    
    720000   0.53383324    -7.7336562     -6.9329178      4.2903239      50218.233      36.893836      36.893836      36.893836    
    721000   0.53235066    -7.73887       -6.9403553      4.2559285      50218.233      36.893836      36.893836      36.893836    
    722000   0.53512358    -7.7399679     -6.937294       4.2562984      50218.233      36.893836      36.893836      36.893836    
    723000   0.53461158    -7.7376947     -6.9357888      4.2750004      50218.233      36.893836      36.893836      36.893836    
    724000   0.53430169    -7.7376989     -6.9362577      4.2790847      50218.233      36.893836      36.893836      36.893836    
    725000   0.53354748    -7.7362769     -6.935967       4.2839769      50218.233      36.893836      36.893836      36.893836    
    726000   0.53576608    -7.7315486     -6.927911       4.3133963      50218.233      36.893836      36.893836      36.893836    
    727000   0.53291539    -7.7385877     -6.939226       4.2664601      50218.233      36.893836      36.893836      36.893836    
    728000   0.53372898    -7.7400249     -6.9394428      4.2594582      50218.233      36.893836      36.893836      36.893836    
    729000   0.5370092     -7.7361184     -6.930616       4.2743125      50218.233      36.893836      36.893836      36.893836    
    730000   0.5336285     -7.7366057     -6.9361743      4.2711401      50218.233      36.893836      36.893836      36.893836    
    731000   0.53347294    -7.7354769     -6.9352789      4.2924802      50218.233      36.893836      36.893836      36.893836    
    732000   0.53457139    -7.7332165     -6.9313708      4.3014898      50218.233      36.893836      36.893836      36.893836    
    733000   0.53757542    -7.7346622     -6.9283106      4.3061197      50218.233      36.893836      36.893836      36.893836    
    734000   0.53683078    -7.7366624     -6.9314277      4.2845507      50218.233      36.893836      36.893836      36.893836    
    735000   0.5361586     -7.7428998     -6.9386733      4.2346862      50218.233      36.893836      36.893836      36.893836    
    736000   0.53583046    -7.7363292     -6.932595       4.2891704      50218.233      36.893836      36.893836      36.893836    
    737000   0.53302897    -7.7377841     -6.938252       4.2752184      50218.233      36.893836      36.893836      36.893836    
    738000   0.53665002    -7.7374288     -6.9324652      4.2819231      50218.233      36.893836      36.893836      36.893836    
    739000   0.53526721    -7.7373201     -6.9344307      4.2754665      50218.233      36.893836      36.893836      36.893836    
    740000   0.5372573     -7.734133      -6.9282585      4.303886       50218.233      36.893836      36.893836      36.893836    
    741000   0.53410835    -7.740409      -6.9392578      4.2566182      50218.233      36.893836      36.893836      36.893836    
    742000   0.53461428    -7.7332564     -6.9313464      4.3060516      50218.233      36.893836      36.893836      36.893836    
    743000   0.53788351    -7.7358575     -6.9290437      4.292181       50218.233      36.893836      36.893836      36.893836    
    744000   0.53387524    -7.7399737     -6.9391722      4.2558938      50218.233      36.893836      36.893836      36.893836    
    745000   0.53574229    -7.7364635     -6.9328615      4.3003476      50218.233      36.893836      36.893836      36.893836    
    746000   0.53455322    -7.7369341     -6.9351157      4.2810008      50218.233      36.893836      36.893836      36.893836    
    747000   0.53562304    -7.7372959     -6.9338728      4.2832763      50218.233      36.893836      36.893836      36.893836    
    748000   0.53280467    -7.7383522     -6.9391566      4.2547762      50218.233      36.893836      36.893836      36.893836    
    749000   0.5352885     -7.7339925     -6.9310711      4.3041002      50218.233      36.893836      36.893836      36.893836    
    750000   0.53464864    -7.733298      -6.9313365      4.3196591      50218.233      36.893836      36.893836      36.893836    
    751000   0.53604874    -7.7363152     -6.9322535      4.2802587      50218.233      36.893836      36.893836      36.893836    
    752000   0.53762395    -7.7369719     -6.9305474      4.2796131      50218.233      36.893836      36.893836      36.893836    
    753000   0.53317407    -7.7355752     -6.9358254      4.2947508      50218.233      36.893836      36.893836      36.893836    
    754000   0.53414337    -7.7384912     -6.9372875      4.2711032      50218.233      36.893836      36.893836      36.893836    
    755000   0.53628284    -7.7358144     -6.9314016      4.2991028      50218.233      36.893836      36.893836      36.893836    
    756000   0.53529031    -7.7390367     -6.9361126      4.2549123      50218.233      36.893836      36.893836      36.893836    
    757000   0.53569313    -7.7341531     -6.9306249      4.3028582      50218.233      36.893836      36.893836      36.893836    
    758000   0.53457218    -7.7385566     -6.9367098      4.2680381      50218.233      36.893836      36.893836      36.893836    
    759000   0.53458144    -7.7327056     -6.9308449      4.3055888      50218.233      36.893836      36.893836      36.893836    
    760000   0.53166261    -7.7421052     -6.9446227      4.2402685      50218.233      36.893836      36.893836      36.893836    
    761000   0.53603911    -7.7318346     -6.9277874      4.3110141      50218.233      36.893836      36.893836      36.893836    
    762000   0.53407115    -7.736077      -6.9349816      4.2915217      50218.233      36.893836      36.893836      36.893836    
    763000   0.53785824    -7.7390102     -6.9322344      4.2648563      50218.233      36.893836      36.893836      36.893836    
    764000   0.53234826    -7.7335058     -6.9349948      4.3089449      50218.233      36.893836      36.893836      36.893836    
    765000   0.53559801    -7.7394761     -6.9360905      4.2507649      50218.233      36.893836      36.893836      36.893836    
    766000   0.53630425    -7.7340223     -6.9295774      4.3096622      50218.233      36.893836      36.893836      36.893836    
    767000   0.53868143    -7.7360683     -6.9280577      4.2979113      50218.233      36.893836      36.893836      36.893836    
    768000   0.53564709    -7.7361423     -6.9326831      4.2809453      50218.233      36.893836      36.893836      36.893836    
    769000   0.53370572    -7.7361761     -6.9356289      4.2913091      50218.233      36.893836      36.893836      36.893836    
    770000   0.53636488    -7.7324722     -6.9279364      4.3136636      50218.233      36.893836      36.893836      36.893836    
    771000   0.53161594    -7.7369182     -6.9395056      4.2702881      50218.233      36.893836      36.893836      36.893836    
    772000   0.53485013    -7.7344077     -6.9321439      4.2959651      50218.233      36.893836      36.893836      36.893836    
    773000   0.53487314    -7.7343568     -6.9320585      4.3013983      50218.233      36.893836      36.893836      36.893836    
    774000   0.53291962    -7.7334183     -6.9340503      4.3012521      50218.233      36.893836      36.893836      36.893836    
    775000   0.53618152    -7.7341784     -6.9299176      4.299711       50218.233      36.893836      36.893836      36.893836    
    776000   0.53687051    -7.7361709     -6.9308766      4.2742003      50218.233      36.893836      36.893836      36.893836    
    777000   0.5364812     -7.7360121     -6.9313017      4.299836       50218.233      36.893836      36.893836      36.893836    
    778000   0.53546647    -7.7411923     -6.9380041      4.2482601      50218.233      36.893836      36.893836      36.893836    
    779000   0.53436785    -7.7370765     -6.9355361      4.2718805      50218.233      36.893836      36.893836      36.893836    
    780000   0.53660386    -7.7334881     -6.9285938      4.312785       50218.233      36.893836      36.893836      36.893836    
    781000   0.53501799    -7.7379035     -6.935388       4.2757782      50218.233      36.893836      36.893836      36.893836    
    782000   0.53553077    -7.7318414     -6.9285567      4.3200316      50218.233      36.893836      36.893836      36.893836    
    783000   0.53573622    -7.7386502     -6.9350573      4.2708563      50218.233      36.893836      36.893836      36.893836    
    784000   0.53650104    -7.7414373     -6.9366972      4.2486468      50218.233      36.893836      36.893836      36.893836    
    785000   0.53406702    -7.7395684     -6.9384793      4.2514428      50218.233      36.893836      36.893836      36.893836    
    786000   0.53490473    -7.7336237     -6.9312781      4.3008034      50218.233      36.893836      36.893836      36.893836    
    787000   0.53468284    -7.7322443     -6.9302314      4.3253911      50218.233      36.893836      36.893836      36.893836    
    788000   0.53311699    -7.7354836     -6.9358195      4.2933079      50218.233      36.893836      36.893836      36.893836    
    789000   0.53559614    -7.7365516     -6.9331688      4.2808112      50218.233      36.893836      36.893836      36.893836    
    790000   0.53384792    -7.7387054     -6.9379449      4.2777682      50218.233      36.893836      36.893836      36.893836    
    791000   0.53591595    -7.7371685     -6.933306       4.2857402      50218.233      36.893836      36.893836      36.893836    
    792000   0.53815494    -7.7363062     -6.9290852      4.3029615      50218.233      36.893836      36.893836      36.893836    
    793000   0.53682338    -7.7417465     -6.9365229      4.244854       50218.233      36.893836      36.893836      36.893836    
    794000   0.53528982    -7.7371661     -6.9342428      4.2758108      50218.233      36.893836      36.893836      36.893836    
    795000   0.53667941    -7.7387849     -6.9337772      4.2640714      50218.233      36.893836      36.893836      36.893836    
    796000   0.53664604    -7.736986      -6.9320284      4.2750199      50218.233      36.893836      36.893836      36.893836    
    797000   0.53289718    -7.7328872     -6.9335528      4.3094929      50218.233      36.893836      36.893836      36.893836    
    798000   0.53463389    -7.7356054     -6.933666       4.3000778      50218.233      36.893836      36.893836      36.893836    
    799000   0.53554218    -7.7376082     -6.9343064      4.2775672      50218.233      36.893836      36.893836      36.893836    
    800000   0.53571166    -7.7379933     -6.9344373      4.2761542      50218.233      36.893836      36.893836      36.893836    
    801000   0.53471826    -7.7373702     -6.9353042      4.2812214      50218.233      36.893836      36.893836      36.893836    
    802000   0.53758829    -7.7366693     -6.9302984      4.2809993      50218.233      36.893836      36.893836      36.893836    
    803000   0.5354292     -7.7398215     -6.9366891      4.2516247      50218.233      36.893836      36.893836      36.893836    
    804000   0.53454516    -7.7394067     -6.9376004      4.2568036      50218.233      36.893836      36.893836      36.893836    
    805000   0.53599926    -7.7402091     -6.9362216      4.2470863      50218.233      36.893836      36.893836      36.893836    
    806000   0.5349765     -7.7406795     -6.9382261      4.2512998      50218.233      36.893836      36.893836      36.893836    
    807000   0.53451571    -7.7411392     -6.939377       4.2473172      50218.233      36.893836      36.893836      36.893836    
    808000   0.53203599    -7.7349974     -6.9369547      4.2886487      50218.233      36.893836      36.893836      36.893836    
    809000   0.5349581     -7.7352728     -6.9328471      4.2867358      50218.233      36.893836      36.893836      36.893836    
    810000   0.53567266    -7.7330448     -6.9295472      4.3106567      50218.233      36.893836      36.893836      36.893836    
    811000   0.53347581    -7.7366026     -6.9364003      4.279979       50218.233      36.893836      36.893836      36.893836    
    812000   0.53480226    -7.7345237     -6.9323317      4.294667       50218.233      36.893836      36.893836      36.893836    
    813000   0.53645946    -7.7375509     -6.9328732      4.2852534      50218.233      36.893836      36.893836      36.893836    
    814000   0.53523977    -7.7381501     -6.9353019      4.2747011      50218.233      36.893836      36.893836      36.893836    
    815000   0.53720688    -7.7380971     -6.9322982      4.2760303      50218.233      36.893836      36.893836      36.893836    
    816000   0.53498259    -7.7355007     -6.9330382      4.2895038      50218.233      36.893836      36.893836      36.893836    
    817000   0.53536134    -7.7321998     -6.9291692      4.3110831      50218.233      36.893836      36.893836      36.893836    
    818000   0.53463657    -7.7335106     -6.9315672      4.3036149      50218.233      36.893836      36.893836      36.893836    
    819000   0.53687148    -7.7377708     -6.932475       4.2724651      50218.233      36.893836      36.893836      36.893836    
    820000   0.53474529    -7.7412162     -6.9391096      4.2550837      50218.233      36.893836      36.893836      36.893836    
    821000   0.53030404    -7.7389869     -6.9435422      4.2542256      50218.233      36.893836      36.893836      36.893836    
    822000   0.53483247    -7.7384164     -6.9361791      4.2725386      50218.233      36.893836      36.893836      36.893836    
    823000   0.53589114    -7.7346689     -6.9308436      4.2937916      50218.233      36.893836      36.893836      36.893836    
    824000   0.5370911     -7.73537       -6.9297448      4.2902958      50218.233      36.893836      36.893836      36.893836    
    825000   0.53172583    -7.7395603     -6.9419829      4.2530826      50218.233      36.893836      36.893836      36.893836    
    826000   0.53559217    -7.7382442     -6.9348674      4.2792153      50218.233      36.893836      36.893836      36.893836    
    827000   0.5363279     -7.737297      -6.9328166      4.2872777      50218.233      36.893836      36.893836      36.893836    
    828000   0.53528389    -7.7360721     -6.9331577      4.2880171      50218.233      36.893836      36.893836      36.893836    
    829000   0.53475364    -7.7344268     -6.9323078      4.3006746      50218.233      36.893836      36.893836      36.893836    
    830000   0.53612336    -7.7359814     -6.9318078      4.2852127      50218.233      36.893836      36.893836      36.893836    
    831000   0.53346815    -7.7348357     -6.9346448      4.3044224      50218.233      36.893836      36.893836      36.893836    
    832000   0.53449755    -7.7360396     -6.9343047      4.2952921      50218.233      36.893836      36.893836      36.893836    
    833000   0.53422709    -7.7386982     -6.937369       4.2643882      50218.233      36.893836      36.893836      36.893836    
    834000   0.53349401    -7.7366014     -6.9363718      4.2744081      50218.233      36.893836      36.893836      36.893836    
    835000   0.53505712    -7.7369148     -6.9343405      4.283348       50218.233      36.893836      36.893836      36.893836    
    836000   0.53562872    -7.7386099     -6.9351783      4.2727209      50218.233      36.893836      36.893836      36.893836    
    837000   0.53736249    -7.7339638     -6.9279315      4.2991189      50218.233      36.893836      36.893836      36.893836    
    838000   0.53281743    -7.7364621     -6.9372473      4.2797831      50218.233      36.893836      36.893836      36.893836    
    839000   0.53256734    -7.7334577     -6.934618       4.3154732      50218.233      36.893836      36.893836      36.893836    
    840000   0.53476469    -7.734777      -6.9326414      4.2969564      50218.233      36.893836      36.893836      36.893836    
    841000   0.53217711    -7.7303258     -6.9320715      4.3239117      50218.233      36.893836      36.893836      36.893836    
    842000   0.53292482    -7.7376507     -6.9382749      4.2757458      50218.233      36.893836      36.893836      36.893836    
    843000   0.53478954    -7.736191      -6.9340181      4.2887271      50218.233      36.893836      36.893836      36.893836    
    844000   0.53568012    -7.7399017     -6.9363929      4.2556264      50218.233      36.893836      36.893836      36.893836    
    845000   0.53652572    -7.7369868     -6.9322096      4.2869365      50218.233      36.893836      36.893836      36.893836    
    846000   0.53386377    -7.7355092     -6.934725       4.2937542      50218.233      36.893836      36.893836      36.893836    
    847000   0.5321696     -7.7367443     -6.9385013      4.2789238      50218.233      36.893836      36.893836      36.893836    
    848000   0.5334711     -7.7362346     -6.9360393      4.2785016      50218.233      36.893836      36.893836      36.893836    
    849000   0.5346422     -7.7387076     -6.9367557      4.2794025      50218.233      36.893836      36.893836      36.893836    
    850000   0.53675198    -7.7367099     -6.9315934      4.286349       50218.233      36.893836      36.893836      36.893836    
    851000   0.53647944    -7.7314775     -6.9267698      4.3257967      50218.233      36.893836      36.893836      36.893836    
    852000   0.53533695    -7.7328855     -6.9298915      4.3098014      50218.233      36.893836      36.893836      36.893836    
    853000   0.53616239    -7.7398083     -6.9355761      4.2756331      50218.233      36.893836      36.893836      36.893836    
    854000   0.53418283    -7.7365734     -6.9353106      4.2802194      50218.233      36.893836      36.893836      36.893836    
    855000   0.53319601    -7.7393157     -6.9395331      4.2556112      50218.233      36.893836      36.893836      36.893836    
    856000   0.5348314     -7.7418156     -6.9395799      4.2502623      50218.233      36.893836      36.893836      36.893836    
    857000   0.53338946    -7.7337346     -6.9336618      4.2904612      50218.233      36.893836      36.893836      36.893836    
    858000   0.53295738    -7.7398818     -6.940457       4.2610488      50218.233      36.893836      36.893836      36.893836    
    859000   0.53489499    -7.7377916     -6.9354606      4.2791974      50218.233      36.893836      36.893836      36.893836    
    860000   0.53329161    -7.7337578     -6.9338317      4.2997765      50218.233      36.893836      36.893836      36.893836    
    861000   0.53589202    -7.7336562     -6.9298296      4.3002597      50218.233      36.893836      36.893836      36.893836    
    862000   0.53540516    -7.7371382     -6.9340419      4.277496       50218.233      36.893836      36.893836      36.893836    
    863000   0.53330335    -7.7321193     -6.9321757      4.3188288      50218.233      36.893836      36.893836      36.893836    
    864000   0.53288936    -7.7378888     -6.9385661      4.2754005      50218.233      36.893836      36.893836      36.893836    
    865000   0.53502573    -7.7389763     -6.9364491      4.272377       50218.233      36.893836      36.893836      36.893836    
    866000   0.53304692    -7.7382963     -6.9387373      4.2756092      50218.233      36.893836      36.893836      36.893836    
    867000   0.53345797    -7.7361696     -6.9359941      4.2826448      50218.233      36.893836      36.893836      36.893836    
    868000   0.53471014    -7.7377324     -6.9356786      4.2734591      50218.233      36.893836      36.893836      36.893836    
    869000   0.53474978    -7.7375749     -6.9354617      4.2767261      50218.233      36.893836      36.893836      36.893836    
    870000   0.53815957    -7.7396183     -6.9323904      4.2804331      50218.233      36.893836      36.893836      36.893836    
    871000   0.53648896    -7.7391868     -6.9344648      4.2645484      50218.233      36.893836      36.893836      36.893836    
    872000   0.53352702    -7.7375331     -6.937254       4.2678349      50218.233      36.893836      36.893836      36.893836    
    873000   0.53504015    -7.735303      -6.9327542      4.2933472      50218.233      36.893836      36.893836      36.893836    
    874000   0.53631392    -7.7363639     -6.9319044      4.2920452      50218.233      36.893836      36.893836      36.893836    
    875000   0.53376882    -7.7367642     -6.9361224      4.2849445      50218.233      36.893836      36.893836      36.893836    
    876000   0.53434132    -7.7352504     -6.9337498      4.299098       50218.233      36.893836      36.893836      36.893836    
    877000   0.53598934    -7.7357263     -6.9317538      4.2947687      50218.233      36.893836      36.893836      36.893836    
    878000   0.53535121    -7.7407641     -6.9377487      4.2581553      50218.233      36.893836      36.893836      36.893836    
    879000   0.53675638    -7.7351395     -6.9300164      4.3020022      50218.233      36.893836      36.893836      36.893836    
    880000   0.53058373    -7.7367596     -6.9408953      4.2886592      50218.233      36.893836      36.893836      36.893836    
    881000   0.53643929    -7.7392432     -6.9345957      4.2718731      50218.233      36.893836      36.893836      36.893836    
    882000   0.53241882    -7.7384034     -6.9397865      4.2659753      50218.233      36.893836      36.893836      36.893836    
    883000   0.53605678    -7.7370329     -6.9329592      4.2790306      50218.233      36.893836      36.893836      36.893836    
    884000   0.53568316    -7.7323324     -6.928819       4.3226711      50218.233      36.893836      36.893836      36.893836    
    885000   0.53607458    -7.7368423     -6.9327418      4.293041       50218.233      36.893836      36.893836      36.893836    
    886000   0.53470242    -7.7355041     -6.9334619      4.2951127      50218.233      36.893836      36.893836      36.893836    
    887000   0.5385865     -7.7356807     -6.9278124      4.2999006      50218.233      36.893836      36.893836      36.893836    
    888000   0.53368465    -7.733755      -6.9332394      4.3103502      50218.233      36.893836      36.893836      36.893836    
    889000   0.5375315     -7.7372062     -6.9309204      4.2772723      50218.233      36.893836      36.893836      36.893836    
    890000   0.53486446    -7.7368373     -6.9345521      4.2767004      50218.233      36.893836      36.893836      36.893836    
    891000   0.53258045    -7.7364608     -6.9376015      4.2982345      50218.233      36.893836      36.893836      36.893836    
    892000   0.53376484    -7.7397677     -6.9391318      4.2728063      50218.233      36.893836      36.893836      36.893836    
    893000   0.5351212     -7.7366871     -6.9340167      4.2773666      50218.233      36.893836      36.893836      36.893836    
    894000   0.53666982    -7.737481      -6.9324877      4.2876782      50218.233      36.893836      36.893836      36.893836    
    895000   0.53208837    -7.7343282     -6.936207       4.293625       50218.233      36.893836      36.893836      36.893836    
    896000   0.53570844    -7.7402734     -6.9367221      4.2566211      50218.233      36.893836      36.893836      36.893836    
    897000   0.5334277     -7.7355046     -6.9353745      4.2884224      50218.233      36.893836      36.893836      36.893836    
    898000   0.53302491    -7.7336712     -6.9341452      4.3015111      50218.233      36.893836      36.893836      36.893836    
    899000   0.53623983    -7.7379777     -6.9336294      4.2794377      50218.233      36.893836      36.893836      36.893836    
    900000   0.53456775    -7.7351356     -6.9332954      4.3040383      50218.233      36.893836      36.893836      36.893836    
    901000   0.53625849    -7.7402877     -6.9359114      4.2591109      50218.233      36.893836      36.893836      36.893836    
    902000   0.53498946    -7.7374521     -6.9349793      4.2728872      50218.233      36.893836      36.893836      36.893836    
    903000   0.53511426    -7.7370803     -6.9344203      4.2832407      50218.233      36.893836      36.893836      36.893836    
    904000   0.53845166    -7.7384471     -6.9307811      4.2843028      50218.233      36.893836      36.893836      36.893836    
    905000   0.53466016    -7.7359415     -6.9339627      4.2903656      50218.233      36.893836      36.893836      36.893836    
    906000   0.53355354    -7.7406241     -6.9403052      4.2709307      50218.233      36.893836      36.893836      36.893836    
    907000   0.53414045    -7.7306        -6.9294008      4.322771       50218.233      36.893836      36.893836      36.893836    
    908000   0.53326926    -7.7355        -6.9356075      4.2988631      50218.233      36.893836      36.893836      36.893836    
    909000   0.53526021    -7.7298698     -6.926991       4.3432199      50218.233      36.893836      36.893836      36.893836    
    910000   0.53688136    -7.7379761     -6.9326655      4.2817274      50218.233      36.893836      36.893836      36.893836    
    911000   0.53469555    -7.7353122     -6.9332803      4.2956399      50218.233      36.893836      36.893836      36.893836    
    912000   0.53533479    -7.7355466     -6.9325558      4.2987204      50218.233      36.893836      36.893836      36.893836    
    913000   0.53537497    -7.7367669     -6.9337158      4.2821132      50218.233      36.893836      36.893836      36.893836    
    914000   0.53387214    -7.7335759     -6.9327791      4.3113869      50218.233      36.893836      36.893836      36.893836    
    915000   0.53692231    -7.732448      -6.927076       4.3209356      50218.233      36.893836      36.893836      36.893836    
    916000   0.53837636    -7.7335636     -6.9260106      4.3174902      50218.233      36.893836      36.893836      36.893836    
    917000   0.53821002    -7.7360372     -6.9287337      4.2893677      50218.233      36.893836      36.893836      36.893836    
    918000   0.53531062    -7.7308044     -6.9278499      4.3326495      50218.233      36.893836      36.893836      36.893836    
    919000   0.53702644    -7.7373566     -6.9318284      4.28867        50218.233      36.893836      36.893836      36.893836    
    920000   0.53655258    -7.7334677     -6.9286502      4.3154272      50218.233      36.893836      36.893836      36.893836    
    921000   0.53478844    -7.7361276     -6.9339564      4.2926242      50218.233      36.893836      36.893836      36.893836    
    922000   0.53303563    -7.7347677     -6.9352256      4.2993232      50218.233      36.893836      36.893836      36.893836    
    923000   0.53581419    -7.7342342     -6.9305244      4.31437        50218.233      36.893836      36.893836      36.893836    
    924000   0.53594743    -7.740085      -6.9361753      4.2555753      50218.233      36.893836      36.893836      36.893836    
    925000   0.53597999    -7.7414246     -6.9374661      4.2579939      50218.233      36.893836      36.893836      36.893836    
    926000   0.53504745    -7.7347186     -6.9321589      4.3115816      50218.233      36.893836      36.893836      36.893836    
    927000   0.53358664    -7.7352612     -6.9348926      4.2875742      50218.233      36.893836      36.893836      36.893836    
    928000   0.53718229    -7.7356613     -6.9298994      4.3035809      50218.233      36.893836      36.893836      36.893836    
    929000   0.53745266    -7.7333558     -6.9271883      4.3251918      50218.233      36.893836      36.893836      36.893836    
    930000   0.53684934    -7.7323277     -6.9270651      4.3236979      50218.233      36.893836      36.893836      36.893836    
    931000   0.53488713    -7.7380699     -6.9357506      4.2708         50218.233      36.893836      36.893836      36.893836    
    932000   0.53376883    -7.7348546     -6.9342128      4.2976479      50218.233      36.893836      36.893836      36.893836    
    933000   0.53661486    -7.739367      -6.9344562      4.2640425      50218.233      36.893836      36.893836      36.893836    
    934000   0.53615956    -7.740278      -6.9360501      4.2718647      50218.233      36.893836      36.893836      36.893836    
    935000   0.5358886     -7.7338676     -6.9300461      4.3002121      50218.233      36.893836      36.893836      36.893836    
    936000   0.53690768    -7.7397832     -6.9344332      4.2649533      50218.233      36.893836      36.893836      36.893836    
    937000   0.53235951    -7.7379525     -6.9394245      4.2859881      50218.233      36.893836      36.893836      36.893836    
    938000   0.53188911    -7.7366144     -6.9387921      4.294898       50218.233      36.893836      36.893836      36.893836    
    939000   0.53345033    -7.7358742     -6.9357101      4.2958694      50218.233      36.893836      36.893836      36.893836    
    940000   0.5356633     -7.73691       -6.9334265      4.2948506      50218.233      36.893836      36.893836      36.893836    
    941000   0.5354753     -7.7332168     -6.9300152      4.3070444      50218.233      36.893836      36.893836      36.893836    
    942000   0.53602087    -7.740005      -6.9359851      4.2736052      50218.233      36.893836      36.893836      36.893836    
    943000   0.53500506    -7.7356481     -6.9331519      4.2996446      50218.233      36.893836      36.893836      36.893836    
    944000   0.53588419    -7.7346205     -6.9308056      4.2972319      50218.233      36.893836      36.893836      36.893836    
    945000   0.5322583     -7.7356699     -6.9372938      4.292878       50218.233      36.893836      36.893836      36.893836    
    946000   0.53723999    -7.7391518     -6.9333032      4.2705801      50218.233      36.893836      36.893836      36.893836    
    947000   0.53385506    -7.7362457     -6.9354745      4.2895391      50218.233      36.893836      36.893836      36.893836    
    948000   0.53453396    -7.7368107     -6.9350212      4.2812696      50218.233      36.893836      36.893836      36.893836    
    949000   0.53250709    -7.734488      -6.9357387      4.2928366      50218.233      36.893836      36.893836      36.893836    
    950000   0.53602994    -7.7375848     -6.9335513      4.2754869      50218.233      36.893836      36.893836      36.893836    
    951000   0.53541193    -7.7371383     -6.9340319      4.2811795      50218.233      36.893836      36.893836      36.893836    
    952000   0.53382276    -7.738734      -6.9380113      4.2701888      50218.233      36.893836      36.893836      36.893836    
    953000   0.53814858    -7.7393123     -6.9321009      4.2706439      50218.233      36.893836      36.893836      36.893836    
    954000   0.53716979    -7.736684      -6.9309408      4.2905202      50218.233      36.893836      36.893836      36.893836    
    955000   0.53418867    -7.7357697     -6.934498       4.2893313      50218.233      36.893836      36.893836      36.893836    
    956000   0.53279325    -7.7356312     -6.9364527      4.2879281      50218.233      36.893836      36.893836      36.893836    
    957000   0.53407438    -7.7379102     -6.93681        4.2834673      50218.233      36.893836      36.893836      36.893836    
    958000   0.53150224    -7.7351596     -6.9379176      4.2930188      50218.233      36.893836      36.893836      36.893836    
    959000   0.53439851    -7.7393749     -6.9377885      4.2656964      50218.233      36.893836      36.893836      36.893836    
    960000   0.53656047    -7.7353479     -6.9305187      4.3114814      50218.233      36.893836      36.893836      36.893836    
    961000   0.53511644    -7.7337772     -6.931114       4.316762       50218.233      36.893836      36.893836      36.893836    
    962000   0.53316515    -7.7387579     -6.9390216      4.2780118      50218.233      36.893836      36.893836      36.893836    
    963000   0.53485818    -7.7415318     -6.9392559      4.2519353      50218.233      36.893836      36.893836      36.893836    
    964000   0.53338644    -7.7375246     -6.9374563      4.2742422      50218.233      36.893836      36.893836      36.893836    
    965000   0.53489788    -7.7321687     -6.9298333      4.320744       50218.233      36.893836      36.893836      36.893836    
    966000   0.53481063    -7.732608      -6.9304035      4.3093044      50218.233      36.893836      36.893836      36.893836    
    967000   0.53283879    -7.7382577     -6.9390109      4.2691287      50218.233      36.893836      36.893836      36.893836    
    968000   0.53435599    -7.7405079     -6.9389853      4.2544751      50218.233      36.893836      36.893836      36.893836    
    969000   0.53487691    -7.7398452     -6.9375412      4.2555055      50218.233      36.893836      36.893836      36.893836    
    970000   0.53553924    -7.7335321     -6.9302346      4.2991788      50218.233      36.893836      36.893836      36.893836    
    971000   0.53836369    -7.7342254     -6.9266914      4.3101688      50218.233      36.893836      36.893836      36.893836    
    972000   0.53550342    -7.7350216     -6.9317779      4.2942223      50218.233      36.893836      36.893836      36.893836    
    973000   0.53774304    -7.7384506     -6.9318475      4.2805992      50218.233      36.893836      36.893836      36.893836    
    974000   0.53587717    -7.7426175     -6.9388132      4.2534794      50218.233      36.893836      36.893836      36.893836    
    975000   0.53525774    -7.7359986     -6.9331234      4.2816061      50218.233      36.893836      36.893836      36.893836    
    976000   0.53279472    -7.732339      -6.9331583      4.3142622      50218.233      36.893836      36.893836      36.893836    
    977000   0.53578191    -7.7363942     -6.9327327      4.2894122      50218.233      36.893836      36.893836      36.893836    
    978000   0.53550088    -7.7403257     -6.9370859      4.2545007      50218.233      36.893836      36.893836      36.893836    
    979000   0.5376896     -7.738557      -6.932034       4.2839104      50218.233      36.893836      36.893836      36.893836    
    980000   0.53431231    -7.7408473     -6.9393902      4.2486619      50218.233      36.893836      36.893836      36.893836    
    981000   0.53479916    -7.7346314     -6.9324441      4.3228799      50218.233      36.893836      36.893836      36.893836    
    982000   0.53619492    -7.7363852     -6.9321042      4.2958302      50218.233      36.893836      36.893836      36.893836    
    983000   0.53497682    -7.7396968     -6.937243       4.2693714      50218.233      36.893836      36.893836      36.893836    
    984000   0.53546783    -7.7331597     -6.9299694      4.3181621      50218.233      36.893836      36.893836      36.893836    
    985000   0.53150743    -7.735882      -6.9386322      4.2851893      50218.233      36.893836      36.893836      36.893836    
    986000   0.53892345    -7.7341306     -6.9257569      4.3125494      50218.233      36.893836      36.893836      36.893836    
    987000   0.53401673    -7.7329452     -6.9319315      4.3223111      50218.233      36.893836      36.893836      36.893836    
    988000   0.53686912    -7.7388515     -6.9335593      4.2718006      50218.233      36.893836      36.893836      36.893836    
    989000   0.5347492     -7.7362164     -6.934104       4.2856965      50218.233      36.893836      36.893836      36.893836    
    990000   0.53372323    -7.7364443     -6.9358708      4.2896451      50218.233      36.893836      36.893836      36.893836    
    991000   0.53589403    -7.7383443     -6.9345147      4.27645        50218.233      36.893836      36.893836      36.893836    
    992000   0.53167005    -7.7344277     -6.9369339      4.2984925      50218.233      36.893836      36.893836      36.893836    
    993000   0.53225351    -7.7352916     -6.9369227      4.2908256      50218.233      36.893836      36.893836      36.893836    
    994000   0.53361374    -7.7371917     -6.9367824      4.2802893      50218.233      36.893836      36.893836      36.893836    
    995000   0.53530496    -7.7396229     -6.9366768      4.2652791      50218.233      36.893836      36.893836      36.893836    
    996000   0.53453401    -7.7309676     -6.929178       4.3254452      50218.233      36.893836      36.893836      36.893836    
    997000   0.5349021     -7.7413458     -6.9390041      4.2522279      50218.233      36.893836      36.893836      36.893836    
    998000   0.53193382    -7.734088      -6.9361986      4.3080511      50218.233      36.893836      36.893836      36.893836    
    999000   0.53681911    -7.7408454     -6.9356282      4.2594345      50218.233      36.893836      36.893836      36.893836    
   1000000   0.53504154    -7.7377001     -6.9351492      4.2833167      50218.233      36.893836      36.893836      36.893836    
Loop time of 4365 on 1 procs for 1000000 steps with 70304 atoms

Performance: 197938.063 tau/day, 229.095 timesteps/s, 16.106 Matom-step/s
100.0% CPU use with 1 MPI tasks x 1 OpenMP threads

MPI task timing breakdown:
Section |  min time  |  avg time  |  max time  |%varavg| %total
---------------------------------------------------------------
Pair    | 1027.4     | 1027.4     | 1027.4     |   0.0 | 23.54
Neigh   | 39.957     | 39.957     | 39.957     |   0.0 |  0.92
Comm    | 521        | 521        | 521        |   0.0 | 11.94
Output  | 0.75042    | 0.75042    | 0.75042    |   0.0 |  0.02
Modify  | 2336.7     | 2336.7     | 2336.7     |   0.0 | 53.53
Other   |            | 439.2      |            |       | 10.06

Nlocal:          70304 ave       70304 max       70304 min
Histogram: 1 0 0 0 0 0 0 0 0 0
Nghost:          37188 ave       37188 max       37188 min
Histogram: 1 0 0 0 0 0 0 0 0 0
Neighs:              0 ave           0 max           0 min
Histogram: 1 0 0 0 0 0 0 0 0 0

Total # of neighbors = 0
Ave neighs/atom = 0
Neighbor list builds = 211091
Dangerous builds = 0
clear
OMP_NUM_THREADS environment is not set. Defaulting to 1 thread. (src/comm.cpp:98)
  using 1 OpenMP thread(s) per MPI task
package gpu 0
jump dms530.lmp

variable T equal 530
# T = 1000* (temp in LJ unit)
variable f equal 1000
log log.${T}
log log.530
