variable TLJ equal (${T}/1000)
variable TLJ equal (575/1000)
variable NCyle equal 10
variable iStep equal (${f})
variable iStep equal (1000)
variable dumpStep equal (${f}*100)
variable dumpStep equal (1000*100)
variable runStep equal (${f}*100*${NCyle})
variable runStep equal (1000*100*${NCyle})
variable runStep equal (1000*100*10)

units       lj
atom_style  atomic
dimension 3
boundary     p p p
pair_style  lj/cut 2.5
read_data  ../data/T${T}.dat
read_data  ../data/T575.dat
Reading data file ...
  orthogonal box = (0.97250269 0.97250269 0.97250269) to (37.866338 37.866338 37.866338)
  1 by 1 by 1 MPI processor grid
  reading atoms ...
  70304 atoms
  reading velocities ...
  70304 velocities
  read_data CPU = 0.224 seconds
change_box all triclinic
Changing box ...
  triclinic box = (0.97250269 0.97250269 0.97250269) to (37.866338 37.866338 37.866338) with tilt (0 0 0)
mass 1 1
mass 2 1
pair_modify shift yes
pair_coeff  1 1 1 1
pair_coeff  1 2 1.5 0.8
pair_coeff  2 2 0.5 0.88


timestep 0.01
thermo ${iStep}
thermo 1000
reset_timestep 0
thermo_style custom step temp pe etotal press vol lx ly lz
fix             1 all nvt temp ${TLJ}  ${TLJ}  0.1
fix             1 all nvt temp 0.575  ${TLJ}  0.1
fix             1 all nvt temp 0.575  0.575  0.1
thermo_modify flush yes

fix dsf all deform 1 xy  wiggle 0.5  ${f}   units box
fix dsf all deform 1 xy  wiggle 0.5  1000   units box
fix ps1 all ave/time 1 1 ${iStep} c_thermo_press[1] c_thermo_press[2]  c_thermo_press[3] c_thermo_press[4]  c_thermo_press[5] c_thermo_press[6]  file  stress.${T}
fix ps1 all ave/time 1 1 1000 c_thermo_press[1] c_thermo_press[2]  c_thermo_press[3] c_thermo_press[4]  c_thermo_press[5] c_thermo_press[6]  file  stress.${T}
fix ps1 all ave/time 1 1 1000 c_thermo_press[1] c_thermo_press[2]  c_thermo_press[3] c_thermo_press[4]  c_thermo_press[5] c_thermo_press[6]  file  stress.575
dump            1 all custom ${dumpStep} dump.${T} id type x y z
dump            1 all custom 100000 dump.${T} id type x y z
dump            1 all custom 100000 dump.575 id type x y z
dump_modify 1 sort id
fix nodrift all momentum 1  linear 1 1 1
fix com_seed all recenter INIT INIT INIT shift all
run ${runStep}
run 1000000
Generated 0 of 1 mixed pair_coeff terms from geometric mixing rule
Per MPI rank memory allocation (min/avg/max) = 21.18 | 21.18 | 21.18 Mbytes
   Step          Temp          PotEng         TotEng         Press          Volume           Lx             Ly             Lz      
         0   0.57517263    -7.6618309     -6.7990842      4.8936196      50218.233      36.893836      36.893836      36.893836    
      1000   0.57850763    -7.6500821     -6.782333       4.9731779      50218.233      36.893836      36.893836      36.893836    
      2000   0.57381041    -7.6542949     -6.7935915      4.9431724      50218.233      36.893836      36.893836      36.893836    
      3000   0.57629994    -7.6546058     -6.7901682      4.936156       50218.233      36.893836      36.893836      36.893836    
      4000   0.57440968    -7.6506924     -6.7890901      4.9724271      50218.233      36.893836      36.893836      36.893836    
      5000   0.57448441    -7.6548802     -6.7931658      4.9510913      50218.233      36.893836      36.893836      36.893836    
      6000   0.57455247    -7.6511611     -6.7893446      4.9513309      50218.233      36.893836      36.893836      36.893836    
      7000   0.57688661    -7.6552667     -6.7899491      4.9283659      50218.233      36.893836      36.893836      36.893836    
      8000   0.57663741    -7.6537493     -6.7888055      4.94993        50218.233      36.893836      36.893836      36.893836    
      9000   0.57553611    -7.6481737     -6.7848818      4.9845379      50218.233      36.893836      36.893836      36.893836    
     10000   0.57326663    -7.6531469     -6.7932592      4.9455785      50218.233      36.893836      36.893836      36.893836    
     11000   0.57614012    -7.6515011     -6.7873032      4.9736635      50218.233      36.893836      36.893836      36.893836    
     12000   0.57475192    -7.6532491     -6.7911335      4.9537205      50218.233      36.893836      36.893836      36.893836    
     13000   0.574812      -7.6497447     -6.7875389      4.9809846      50218.233      36.893836      36.893836      36.893836    
     14000   0.5744375     -7.655794      -6.79415        4.9314648      50218.233      36.893836      36.893836      36.893836    
     15000   0.56952603    -7.6478662     -6.7935893      4.9860622      50218.233      36.893836      36.893836      36.893836    
     16000   0.57357358    -7.6529978     -6.7926497      4.9437411      50218.233      36.893836      36.893836      36.893836    
     17000   0.57528263    -7.6559327     -6.793021       4.9309515      50218.233      36.893836      36.893836      36.893836    
     18000   0.5789563     -7.6524656     -6.7840436      4.9605317      50218.233      36.893836      36.893836      36.893836    
     19000   0.57512479    -7.6512538     -6.7885789      4.962365       50218.233      36.893836      36.893836      36.893836    
     20000   0.57711173    -7.653136      -6.7874807      4.9493245      50218.233      36.893836      36.893836      36.893836    
     21000   0.57389843    -7.6500899     -6.7892545      4.9836094      50218.233      36.893836      36.893836      36.893836    
     22000   0.57181737    -7.6499238     -6.7922099      4.9822625      50218.233      36.893836      36.893836      36.893836    
     23000   0.57355356    -7.6467732     -6.7864551      5.0070447      50218.233      36.893836      36.893836      36.893836    
     24000   0.57455467    -7.6514265     -6.7896068      4.9581627      50218.233      36.893836      36.893836      36.893836    
     25000   0.5745422     -7.6469165     -6.7851155      4.9968993      50218.233      36.893836      36.893836      36.893836    
     26000   0.57280437    -7.6493127     -6.7901184      4.9665139      50218.233      36.893836      36.893836      36.893836    
     27000   0.5745739     -7.6556552     -6.7938066      4.9343339      50218.233      36.893836      36.893836      36.893836    
     28000   0.57480465    -7.6491942     -6.7869995      4.985646       50218.233      36.893836      36.893836      36.893836    
     29000   0.57222491    -7.6537234     -6.7953982      4.9474824      50218.233      36.893836      36.893836      36.893836    
     30000   0.57393076    -7.6495234     -6.7886395      4.966982       50218.233      36.893836      36.893836      36.893836    
     31000   0.57482421    -7.654816      -6.7925919      4.9316393      50218.233      36.893836      36.893836      36.893836    
     32000   0.57534296    -7.6476978     -6.7846956      5.004769       50218.233      36.893836      36.893836      36.893836    
     33000   0.57561404    -7.6532735     -6.7898647      4.9458442      50218.233      36.893836      36.893836      36.893836    
     34000   0.57335543    -7.6514196     -6.7913987      4.9590952      50218.233      36.893836      36.893836      36.893836    
     35000   0.57493384    -7.6539199     -6.7915314      4.942684       50218.233      36.893836      36.893836      36.893836    
     36000   0.57643137    -7.6519526     -6.7873179      4.9554573      50218.233      36.893836      36.893836      36.893836    
     37000   0.57454685    -7.6504873     -6.7886793      4.9795259      50218.233      36.893836      36.893836      36.893836    
     38000   0.57544884    -7.652597      -6.789436       4.9606401      50218.233      36.893836      36.893836      36.893836    
     39000   0.57184612    -7.6516595     -6.7939025      4.9512214      50218.233      36.893836      36.893836      36.893836    
     40000   0.57181388    -7.6505816     -6.7928729      4.963699       50218.233      36.893836      36.893836      36.893836    
     41000   0.57656228    -7.6501539     -6.7853228      4.97317        50218.233      36.893836      36.893836      36.893836    
     42000   0.57576709    -7.6523014     -6.7886631      4.9542998      50218.233      36.893836      36.893836      36.893836    
     43000   0.57636117    -7.6525359     -6.7880064      4.9565725      50218.233      36.893836      36.893836      36.893836    
     44000   0.57510176    -7.6492999     -6.7866595      4.9847774      50218.233      36.893836      36.893836      36.893836    
     45000   0.57318414    -7.6514219     -6.7916579      4.9739733      50218.233      36.893836      36.893836      36.893836    
     46000   0.5755776     -7.6520646     -6.7887105      4.960604       50218.233      36.893836      36.893836      36.893836    
     47000   0.57526551    -7.6499315     -6.7870455      4.9801809      50218.233      36.893836      36.893836      36.893836    
     48000   0.57687145    -7.6509851     -6.7856902      4.9724796      50218.233      36.893836      36.893836      36.893836    
     49000   0.57720883    -7.6482852     -6.7824843      4.9903828      50218.233      36.893836      36.893836      36.893836    
     50000   0.57701077    -7.6554768     -6.789973       4.9388812      50218.233      36.893836      36.893836      36.893836    
     51000   0.57506426    -7.6530154     -6.7904313      4.9489577      50218.233      36.893836      36.893836      36.893836    
     52000   0.57295517    -7.6499133     -6.7904928      4.9769097      50218.233      36.893836      36.893836      36.893836    
     53000   0.57340719    -7.6550095     -6.7949109      4.9436018      50218.233      36.893836      36.893836      36.893836    
     54000   0.57551351    -7.6546797     -6.7914217      4.9487875      50218.233      36.893836      36.893836      36.893836    
     55000   0.57447607    -7.6501522     -6.7884503      4.9810329      50218.233      36.893836      36.893836      36.893836    
     56000   0.57576173    -7.6490065     -6.7853762      4.9837844      50218.233      36.893836      36.893836      36.893836    
     57000   0.57306204    -7.6487862     -6.7892054      4.9755257      50218.233      36.893836      36.893836      36.893836    
     58000   0.57478845    -7.6549384     -6.792768       4.940656       50218.233      36.893836      36.893836      36.893836    
     59000   0.57484283    -7.6460107     -6.7837587      5.0040923      50218.233      36.893836      36.893836      36.893836    
     60000   0.57788913    -7.6461378     -6.7793164      5.0134895      50218.233      36.893836      36.893836      36.893836    
     61000   0.5761208     -7.6480894     -6.7839205      4.984361       50218.233      36.893836      36.893836      36.893836    
     62000   0.57391885    -7.6521427     -6.7912766      4.9565073      50218.233      36.893836      36.893836      36.893836    
     63000   0.5740351     -7.648851      -6.7878106      4.9763207      50218.233      36.893836      36.893836      36.893836    
     64000   0.57337379    -7.6508897     -6.7908413      4.9625989      50218.233      36.893836      36.893836      36.893836    
     65000   0.57670062    -7.6514366     -6.786398       4.9654252      50218.233      36.893836      36.893836      36.893836    
     66000   0.57144786    -7.6487592     -6.7915996      4.986436       50218.233      36.893836      36.893836      36.893836    
     67000   0.57896216    -7.6482632     -6.7798323      4.9991174      50218.233      36.893836      36.893836      36.893836    
     68000   0.57640799    -7.6472783     -6.7826786      4.993981       50218.233      36.893836      36.893836      36.893836    
     69000   0.57770292    -7.6510833     -6.7845413      4.9792557      50218.233      36.893836      36.893836      36.893836    
     70000   0.57332462    -7.6503208     -6.7903461      4.9688741      50218.233      36.893836      36.893836      36.893836    
     71000   0.57665909    -7.6508302     -6.7858539      4.9732081      50218.233      36.893836      36.893836      36.893836    
     72000   0.5761655     -7.6487111     -6.7844752      4.9884545      50218.233      36.893836      36.893836      36.893836    
     73000   0.57558387    -7.6477809     -6.7844174      4.9975085      50218.233      36.893836      36.893836      36.893836    
     74000   0.57454178    -7.6559801     -6.7941797      4.9288134      50218.233      36.893836      36.893836      36.893836    
     75000   0.57406834    -7.6503219     -6.7892316      4.9726723      50218.233      36.893836      36.893836      36.893836    
     76000   0.57543839    -7.6457699     -6.7826246      5.0174723      50218.233      36.893836      36.893836      36.893836    
     77000   0.57287097    -7.6515261     -6.7922319      4.9477768      50218.233      36.893836      36.893836      36.893836    
     78000   0.57577393    -7.6428936     -6.779245       5.0216504      50218.233      36.893836      36.893836      36.893836    
     79000   0.57594605    -7.6491165     -6.7852098      4.9768268      50218.233      36.893836      36.893836      36.893836    
     80000   0.57684142    -7.6498449     -6.7845951      4.9770075      50218.233      36.893836      36.893836      36.893836    
     81000   0.57523204    -7.6477978     -6.7849621      4.9775872      50218.233      36.893836      36.893836      36.893836    
     82000   0.57511298    -7.6473841     -6.7847269      4.9910432      50218.233      36.893836      36.893836      36.893836    
     83000   0.57606713    -7.6468644     -6.782776       4.9978597      50218.233      36.893836      36.893836      36.893836    
     84000   0.57458252    -7.6489955     -6.787134       4.9768364      50218.233      36.893836      36.893836      36.893836    
     85000   0.57679265    -7.6481892     -6.7830125      4.9954206      50218.233      36.893836      36.893836      36.893836    
     86000   0.57433837    -7.6456394     -6.7841441      4.9966486      50218.233      36.893836      36.893836      36.893836    
     87000   0.57828418    -7.6511393     -6.7837254      4.9650246      50218.233      36.893836      36.893836      36.893836    
     88000   0.57449002    -7.6501821     -6.7884593      4.9654986      50218.233      36.893836      36.893836      36.893836    
     89000   0.57702742    -7.6537658     -6.788237       4.9492138      50218.233      36.893836      36.893836      36.893836    
     90000   0.57511779    -7.6463605     -6.7836961      4.9939636      50218.233      36.893836      36.893836      36.893836    
     91000   0.57206495    -7.6482585     -6.7901733      4.9797236      50218.233      36.893836      36.893836      36.893836    
     92000   0.57311739    -7.6521781     -6.7925143      4.9672341      50218.233      36.893836      36.893836      36.893836    
     93000   0.57458563    -7.6534518     -6.7915856      4.92946        50218.233      36.893836      36.893836      36.893836    
     94000   0.57006107    -7.6493186     -6.7942391      4.9753209      50218.233      36.893836      36.893836      36.893836    
     95000   0.57761233    -7.6453489     -6.7789428      5.0184398      50218.233      36.893836      36.893836      36.893836    
     96000   0.57504732    -7.653096      -6.7905373      4.9485694      50218.233      36.893836      36.893836      36.893836    
     97000   0.57732316    -7.6495596     -6.7835871      4.9715089      50218.233      36.893836      36.893836      36.893836    
     98000   0.57545727    -7.6473742     -6.7842006      5.0029975      50218.233      36.893836      36.893836      36.893836    
     99000   0.57467952    -7.6489714     -6.7869644      4.9790104      50218.233      36.893836      36.893836      36.893836    
    100000   0.57472725    -7.6475944     -6.7855158      4.9875813      50218.233      36.893836      36.893836      36.893836    
    101000   0.57786923    -7.6464239     -6.7796324      5.0116523      50218.233      36.893836      36.893836      36.893836    
    102000   0.57281787    -7.645834      -6.7866194      4.9915259      50218.233      36.893836      36.893836      36.893836    
    103000   0.57529662    -7.6508419     -6.7879093      4.9742585      50218.233      36.893836      36.893836      36.893836    
    104000   0.57607001    -7.6523531     -6.7882604      4.958914       50218.233      36.893836      36.893836      36.893836    
    105000   0.57570406    -7.6507184     -6.7871746      4.9746833      50218.233      36.893836      36.893836      36.893836    
    106000   0.57602965    -7.6490325     -6.7850003      4.9808364      50218.233      36.893836      36.893836      36.893836    
    107000   0.57344093    -7.647194      -6.7870448      4.9858744      50218.233      36.893836      36.893836      36.893836    
    108000   0.57668852    -7.6458142     -6.7807937      5.0011482      50218.233      36.893836      36.893836      36.893836    
    109000   0.57423415    -7.6477117     -6.7863727      4.9985786      50218.233      36.893836      36.893836      36.893836    
    110000   0.58017964    -7.648538      -6.7782809      4.9932197      50218.233      36.893836      36.893836      36.893836    
    111000   0.57624963    -7.6462422     -6.78188        5.0076268      50218.233      36.893836      36.893836      36.893836    
    112000   0.57979988    -7.65222       -6.7825326      4.958911       50218.233      36.893836      36.893836      36.893836    
    113000   0.57535595    -7.6487097     -6.7856881      4.97026        50218.233      36.893836      36.893836      36.893836    
    114000   0.57246034    -7.6475797     -6.7889014      4.9803234      50218.233      36.893836      36.893836      36.893836    
    115000   0.5746752     -7.6517926     -6.789792       4.9685449      50218.233      36.893836      36.893836      36.893836    
    116000   0.57250634    -7.6464355     -6.7876882      4.9983565      50218.233      36.893836      36.893836      36.893836    
    117000   0.57647643    -7.6447076     -6.7800053      5.0120135      50218.233      36.893836      36.893836      36.893836    
    118000   0.57320784    -7.6446659     -6.7848664      5.0048397      50218.233      36.893836      36.893836      36.893836    
    119000   0.57505519    -7.6440421     -6.7814716      5.0114693      50218.233      36.893836      36.893836      36.893836    
    120000   0.57669267    -7.6471686     -6.7821418      4.9920568      50218.233      36.893836      36.893836      36.893836    
    121000   0.57472531    -7.6476264     -6.7855507      4.9968995      50218.233      36.893836      36.893836      36.893836    
    122000   0.57737538    -7.6490142     -6.7829634      4.9944958      50218.233      36.893836      36.893836      36.893836    
    123000   0.57514387    -7.6492584     -6.7865549      4.9705486      50218.233      36.893836      36.893836      36.893836    
    124000   0.57687029    -7.6528822     -6.787589       4.9489291      50218.233      36.893836      36.893836      36.893836    
    125000   0.57394452    -7.6462458     -6.7853412      4.9912734      50218.233      36.893836      36.893836      36.893836    
    126000   0.57841983    -7.647768      -6.7801506      4.9957625      50218.233      36.893836      36.893836      36.893836    
    127000   0.57437473    -7.6465283     -6.7849784      5.0017823      50218.233      36.893836      36.893836      36.893836    
    128000   0.57348258    -7.6493071     -6.7890955      4.9716664      50218.233      36.893836      36.893836      36.893836    
    129000   0.57800826    -7.6502029     -6.7832028      4.9805536      50218.233      36.893836      36.893836      36.893836    
    130000   0.57459246    -7.6476559     -6.7857795      4.982665       50218.233      36.893836      36.893836      36.893836    
    131000   0.5753001     -7.6507556     -6.7878177      4.9686647      50218.233      36.893836      36.893836      36.893836    
    132000   0.5745981     -7.6472074     -6.7853225      5.0046138      50218.233      36.893836      36.893836      36.893836    
    133000   0.57297515    -7.6473541     -6.7879035      4.9942699      50218.233      36.893836      36.893836      36.893836    
    134000   0.57435967    -7.6466244     -6.7850972      4.9965772      50218.233      36.893836      36.893836      36.893836    
    135000   0.57571306    -7.6465239     -6.7829666      5.0047995      50218.233      36.893836      36.893836      36.893836    
    136000   0.57504429    -7.6470296     -6.7844755      5.0038183      50218.233      36.893836      36.893836      36.893836    
    137000   0.57360469    -7.647356      -6.7869612      4.9846152      50218.233      36.893836      36.893836      36.893836    
    138000   0.57200871    -7.6498957     -6.7918948      4.9734175      50218.233      36.893836      36.893836      36.893836    
    139000   0.57413688    -7.648672      -6.7874789      4.9816197      50218.233      36.893836      36.893836      36.893836    
    140000   0.57378476    -7.6445065     -6.7838416      5.0209274      50218.233      36.893836      36.893836      36.893836    
    141000   0.57635548    -7.6483639     -6.783843       4.9822021      50218.233      36.893836      36.893836      36.893836    
    142000   0.57488772    -7.6479976     -6.7856783      4.9840671      50218.233      36.893836      36.893836      36.893836    
    143000   0.57525472    -7.6508477     -6.7879779      4.9716692      50218.233      36.893836      36.893836      36.893836    
    144000   0.57500007    -7.6519999     -6.789512       4.9640233      50218.233      36.893836      36.893836      36.893836    
    145000   0.57913495    -7.6469091     -6.778219       5.0068881      50218.233      36.893836      36.893836      36.893836    
    146000   0.57266948    -7.6479662     -6.7889742      5.0011904      50218.233      36.893836      36.893836      36.893836    
    147000   0.57904295    -7.6475358     -6.7789837      5.0012003      50218.233      36.893836      36.893836      36.893836    
    148000   0.5764421     -7.6456257     -6.7809748      5.0134709      50218.233      36.893836      36.893836      36.893836    
    149000   0.57438471    -7.6466145     -6.7850497      5.0059993      50218.233      36.893836      36.893836      36.893836    
    150000   0.57330456    -7.6515736     -6.791629       4.9608257      50218.233      36.893836      36.893836      36.893836    
    151000   0.57525021    -7.6469871     -6.7841241      4.9956878      50218.233      36.893836      36.893836      36.893836    
    152000   0.57370408    -7.6472841     -6.7867402      4.9921432      50218.233      36.893836      36.893836      36.893836    
    153000   0.57840394    -7.6463245     -6.7787309      5.0042522      50218.233      36.893836      36.893836      36.893836    
    154000   0.57477987    -7.6415383     -6.7793808      5.0278897      50218.233      36.893836      36.893836      36.893836    
    155000   0.57462516    -7.6455306     -6.7836051      4.9874158      50218.233      36.893836      36.893836      36.893836    
    156000   0.57772764    -7.6512811     -6.784702       4.9694902      50218.233      36.893836      36.893836      36.893836    
    157000   0.57230272    -7.6462157     -6.7877738      4.9833457      50218.233      36.893836      36.893836      36.893836    
    158000   0.57595213    -7.6431733     -6.7792574      5.0267308      50218.233      36.893836      36.893836      36.893836    
    159000   0.57526066    -7.6506866     -6.7878079      4.9671713      50218.233      36.893836      36.893836      36.893836    
    160000   0.57041384    -7.6490058     -6.7933972      4.9690812      50218.233      36.893836      36.893836      36.893836    
    161000   0.57352111    -7.6458895     -6.7856201      4.9936493      50218.233      36.893836      36.893836      36.893836    
    162000   0.57641881    -7.6462505     -6.7816346      4.9899462      50218.233      36.893836      36.893836      36.893836    
    163000   0.57635374    -7.6524742     -6.7879558      4.9501649      50218.233      36.893836      36.893836      36.893836    
    164000   0.57719428    -7.6462942     -6.7805151      5.0055713      50218.233      36.893836      36.893836      36.893836    
    165000   0.57508826    -7.6497394     -6.7871193      4.9755275      50218.233      36.893836      36.893836      36.893836    
    166000   0.57081405    -7.6488819     -6.792673       4.9713002      50218.233      36.893836      36.893836      36.893836    
    167000   0.57443778    -7.6536528     -6.7920084      4.9515948      50218.233      36.893836      36.893836      36.893836    
    168000   0.57480869    -7.6496804     -6.7874797      4.9698086      50218.233      36.893836      36.893836      36.893836    
    169000   0.5766589     -7.6441479     -6.7791719      5.0312564      50218.233      36.893836      36.893836      36.893836    
    170000   0.57687517    -7.6475024     -6.782202       4.9952167      50218.233      36.893836      36.893836      36.893836    
    171000   0.57216702    -7.6454902     -6.7872518      5.0117825      50218.233      36.893836      36.893836      36.893836    
    172000   0.57209214    -7.6435832     -6.7854572      5.0038155      50218.233      36.893836      36.893836      36.893836    
    173000   0.57354474    -7.6481015     -6.7877966      4.9724889      50218.233      36.893836      36.893836      36.893836    
    174000   0.57555251    -7.6452865     -6.78197        5.0018967      50218.233      36.893836      36.893836      36.893836    
    175000   0.57280846    -7.6491223     -6.7899218      4.9751749      50218.233      36.893836      36.893836      36.893836    
    176000   0.57559272    -7.6476207     -6.7842439      4.9967801      50218.233      36.893836      36.893836      36.893836    
    177000   0.57363014    -7.6482213     -6.7877883      4.9809276      50218.233      36.893836      36.893836      36.893836    
    178000   0.57242637    -7.6471127     -6.7884854      4.9875839      50218.233      36.893836      36.893836      36.893836    
    179000   0.57693455    -7.6438965     -6.778507       5.0336202      50218.233      36.893836      36.893836      36.893836    
    180000   0.57570451    -7.6441814     -6.7806369      5.0115731      50218.233      36.893836      36.893836      36.893836    
    181000   0.5719394     -7.6421451     -6.7842482      5.0301732      50218.233      36.893836      36.893836      36.893836    
    182000   0.57512038    -7.6480391     -6.7853708      4.9898362      50218.233      36.893836      36.893836      36.893836    
    183000   0.57319976    -7.6458057     -6.7860183      5.0017739      50218.233      36.893836      36.893836      36.893836    
    184000   0.5747699     -7.6479325     -6.7857899      4.9850814      50218.233      36.893836      36.893836      36.893836    
    185000   0.57499446    -7.6473712     -6.7848917      5.002776       50218.233      36.893836      36.893836      36.893836    
    186000   0.57675876    -7.6524992     -6.7873734      4.9382886      50218.233      36.893836      36.893836      36.893836    
    187000   0.5724841     -7.6490788     -6.7903649      4.9687467      50218.233      36.893836      36.893836      36.893836    
    188000   0.57438166    -7.6429343     -6.7813741      5.0154697      50218.233      36.893836      36.893836      36.893836    
    189000   0.57649134    -7.6479605     -6.7832357      4.9907324      50218.233      36.893836      36.893836      36.893836    
    190000   0.57391099    -7.6444691     -6.7836149      5.0121332      50218.233      36.893836      36.893836      36.893836    
    191000   0.57561785    -7.6508257     -6.7874112      4.9705109      50218.233      36.893836      36.893836      36.893836    
    192000   0.57490547    -7.6490774     -6.7867315      4.9795313      50218.233      36.893836      36.893836      36.893836    
    193000   0.5736892     -7.64657       -6.7860485      4.9854711      50218.233      36.893836      36.893836      36.893836    
    194000   0.5754643     -7.6476472     -6.7844631      4.9891236      50218.233      36.893836      36.893836      36.893836    
    195000   0.57346233    -7.6468389     -6.7866576      4.9950284      50218.233      36.893836      36.893836      36.893836    
    196000   0.57152564    -7.6489293     -6.791653       4.9820007      50218.233      36.893836      36.893836      36.893836    
    197000   0.57249175    -7.6489685     -6.790243       4.9730495      50218.233      36.893836      36.893836      36.893836    
    198000   0.57311105    -7.645379      -6.7857246      4.9954763      50218.233      36.893836      36.893836      36.893836    
    199000   0.57677777    -7.6539482     -6.7887939      4.9401839      50218.233      36.893836      36.893836      36.893836    
    200000   0.576787      -7.6484267     -6.7832585      4.9778243      50218.233      36.893836      36.893836      36.893836    
    201000   0.57281828    -7.6495679     -6.7903527      4.9751065      50218.233      36.893836      36.893836      36.893836    
    202000   0.5772619     -7.6530784     -6.7871979      4.9517231      50218.233      36.893836      36.893836      36.893836    
    203000   0.57540412    -7.6469324     -6.7838385      4.9896452      50218.233      36.893836      36.893836      36.893836    
    204000   0.57774562    -7.6436446     -6.7770385      5.0221311      50218.233      36.893836      36.893836      36.893836    
    205000   0.57258714    -7.6475543     -6.7886858      4.9887526      50218.233      36.893836      36.893836      36.893836    
    206000   0.57117517    -7.6471052     -6.7903547      4.9902329      50218.233      36.893836      36.893836      36.893836    
    207000   0.57418141    -7.649307      -6.7880471      4.9757586      50218.233      36.893836      36.893836      36.893836    
    208000   0.57626712    -7.6462002     -6.7818118      5.0115454      50218.233      36.893836      36.893836      36.893836    
    209000   0.57592824    -7.6457538     -6.7818738      5.0107902      50218.233      36.893836      36.893836      36.893836    
    210000   0.57245993    -7.6466679     -6.7879902      4.9944703      50218.233      36.893836      36.893836      36.893836    
    211000   0.57540107    -7.6499841     -6.7868948      4.967875       50218.233      36.893836      36.893836      36.893836    
    212000   0.57344707    -7.6459772     -6.7858189      5.0061196      50218.233      36.893836      36.893836      36.893836    
    213000   0.5737465     -7.6494107     -6.7888031      4.9854325      50218.233      36.893836      36.893836      36.893836    
    214000   0.57526676    -7.6479895     -6.7851016      5.0050924      50218.233      36.893836      36.893836      36.893836    
    215000   0.57578747    -7.6489428     -6.7852739      4.9881805      50218.233      36.893836      36.893836      36.893836    
    216000   0.57507119    -7.6470092     -6.7844147      4.994929       50218.233      36.893836      36.893836      36.893836    
    217000   0.57459858    -7.6508744     -6.7889888      4.9615215      50218.233      36.893836      36.893836      36.893836    
    218000   0.57391735    -7.6448298     -6.7839661      5.0158064      50218.233      36.893836      36.893836      36.893836    
    219000   0.5740868     -7.6506212     -6.7895032      4.9604865      50218.233      36.893836      36.893836      36.893836    
    220000   0.57098458    -7.6529343     -6.7964696      4.9445995      50218.233      36.893836      36.893836      36.893836    
    221000   0.57752858    -7.6490353     -6.7827548      4.9847266      50218.233      36.893836      36.893836      36.893836    
    222000   0.57201489    -7.6518091     -6.793799       4.9554269      50218.233      36.893836      36.893836      36.893836    
    223000   0.57465493    -7.650377      -6.7884069      4.9611976      50218.233      36.893836      36.893836      36.893836    
    224000   0.5731094     -7.6480572     -6.7884053      4.992119       50218.233      36.893836      36.893836      36.893836    
    225000   0.57253648    -7.6516939     -6.7929014      4.9573308      50218.233      36.893836      36.893836      36.893836    
    226000   0.57575584    -7.6507737     -6.7871522      4.9691456      50218.233      36.893836      36.893836      36.893836    
    227000   0.57535826    -7.6502278     -6.7872027      4.9702513      50218.233      36.893836      36.893836      36.893836    
    228000   0.57642317    -7.6538553     -6.7892329      4.955967       50218.233      36.893836      36.893836      36.893836    
    229000   0.57330819    -7.6493826     -6.7894325      4.9724748      50218.233      36.893836      36.893836      36.893836    
    230000   0.57783734    -7.6508749     -6.7841313      4.977864       50218.233      36.893836      36.893836      36.893836    
    231000   0.57708213    -7.6527901     -6.7871792      4.963691       50218.233      36.893836      36.893836      36.893836    
    232000   0.57453293    -7.6467033     -6.7849162      5.0029215      50218.233      36.893836      36.893836      36.893836    
    233000   0.5737395     -7.6488726     -6.7882756      4.9803548      50218.233      36.893836      36.893836      36.893836    
    234000   0.57639713    -7.6487441     -6.7841607      4.9894689      50218.233      36.893836      36.893836      36.893836    
    235000   0.57523796    -7.6449688     -6.7821241      5.0077155      50218.233      36.893836      36.893836      36.893836    
    236000   0.57218074    -7.6499718     -6.7917129      4.9706811      50218.233      36.893836      36.893836      36.893836    
    237000   0.57476318    -7.6476551     -6.7855226      5.0004111      50218.233      36.893836      36.893836      36.893836    
    238000   0.57186433    -7.6455461     -6.7877618      4.9986007      50218.233      36.893836      36.893836      36.893836    
    239000   0.57870368    -7.6463536     -6.7783105      5.0200433      50218.233      36.893836      36.893836      36.893836    
    240000   0.57541377    -7.6490921     -6.7859837      4.9704895      50218.233      36.893836      36.893836      36.893836    
    241000   0.57599514    -7.6480805     -6.7841001      5.0008498      50218.233      36.893836      36.893836      36.893836    
    242000   0.57487116    -7.6448261     -6.7825316      5.0232348      50218.233      36.893836      36.893836      36.893836    
    243000   0.57301146    -7.647037      -6.787532       5.0076369      50218.233      36.893836      36.893836      36.893836    
    244000   0.57172019    -7.6421557     -6.7845876      5.0325383      50218.233      36.893836      36.893836      36.893836    
    245000   0.5759116     -7.6509278     -6.7870727      4.9784731      50218.233      36.893836      36.893836      36.893836    
    246000   0.57579574    -7.6488904     -6.7852091      4.9963674      50218.233      36.893836      36.893836      36.893836    
    247000   0.57674605    -7.6440296     -6.7789229      5.0407766      50218.233      36.893836      36.893836      36.893836    
    248000   0.5714137     -7.651317      -6.7942087      4.9651971      50218.233      36.893836      36.893836      36.893836    
    249000   0.5759999     -7.6531029     -6.7891153      4.954062       50218.233      36.893836      36.893836      36.893836    
    250000   0.57472345    -7.6461092     -6.7840363      5.0145996      50218.233      36.893836      36.893836      36.893836    
    251000   0.57675223    -7.6484329     -6.7833169      4.9841989      50218.233      36.893836      36.893836      36.893836    
    252000   0.57320893    -7.6469193     -6.7871181      5.0015778      50218.233      36.893836      36.893836      36.893836    
    253000   0.57693492    -7.6473579     -6.7819679      5.0138586      50218.233      36.893836      36.893836      36.893836    
    254000   0.57483424    -7.6506929     -6.7884538      4.9848658      50218.233      36.893836      36.893836      36.893836    
    255000   0.57608954    -7.6499044     -6.7857824      4.9883188      50218.233      36.893836      36.893836      36.893836    
    256000   0.57572844    -7.6460562     -6.7824758      5.0023961      50218.233      36.893836      36.893836      36.893836    
    257000   0.57380324    -7.6512451     -6.7905525      4.9601397      50218.233      36.893836      36.893836      36.893836    
    258000   0.57582221    -7.6505561     -6.786835       4.9861668      50218.233      36.893836      36.893836      36.893836    
    259000   0.57830024    -7.6499809     -6.7825429      4.9919183      50218.233      36.893836      36.893836      36.893836    
    260000   0.57595297    -7.6503939     -6.7864768      4.98424        50218.233      36.893836      36.893836      36.893836    
    261000   0.57314679    -7.6487559     -6.789048       4.9818053      50218.233      36.893836      36.893836      36.893836    
    262000   0.57669627    -7.649849      -6.7848169      4.9829157      50218.233      36.893836      36.893836      36.893836    
    263000   0.57410786    -7.648502      -6.7873524      4.982873       50218.233      36.893836      36.893836      36.893836    
    264000   0.57410176    -7.6475715     -6.7864311      4.9903972      50218.233      36.893836      36.893836      36.893836    
    265000   0.57683011    -7.6488776     -6.7836447      4.9941773      50218.233      36.893836      36.893836      36.893836    
    266000   0.57543369    -7.6429363     -6.779798       5.0315737      50218.233      36.893836      36.893836      36.893836    
    267000   0.57460437    -7.6495594     -6.7876651      4.9865324      50218.233      36.893836      36.893836      36.893836    
    268000   0.57743094    -7.6441653     -6.7780313      5.0325395      50218.233      36.893836      36.893836      36.893836    
    269000   0.57480674    -7.6480504     -6.7858526      4.9867897      50218.233      36.893836      36.893836      36.893836    
    270000   0.57458268    -7.6498907     -6.7880289      4.9701017      50218.233      36.893836      36.893836      36.893836    
    271000   0.57406314    -7.6459223     -6.7848399      4.9973385      50218.233      36.893836      36.893836      36.893836    
    272000   0.57695064    -7.6506103     -6.7851966      4.979867       50218.233      36.893836      36.893836      36.893836    
    273000   0.57678297    -7.6468374     -6.7816752      4.9920449      50218.233      36.893836      36.893836      36.893836    
    274000   0.57650724    -7.649755      -6.7850065      4.9779522      50218.233      36.893836      36.893836      36.893836    
    275000   0.57452136    -7.6469373     -6.7851675      4.9951269      50218.233      36.893836      36.893836      36.893836    
    276000   0.57513532    -7.6472627     -6.784572       4.9986966      50218.233      36.893836      36.893836      36.893836    
    277000   0.57552923    -7.6488714     -6.7855898      4.9816667      50218.233      36.893836      36.893836      36.893836    
    278000   0.57511032    -7.6492141     -6.7865609      4.9792487      50218.233      36.893836      36.893836      36.893836    
    279000   0.57914556    -7.6498736     -6.7811676      4.9733997      50218.233      36.893836      36.893836      36.893836    
    280000   0.57518049    -7.6462533     -6.7834949      5.0039061      50218.233      36.893836      36.893836      36.893836    
    281000   0.5728469     -7.6496019     -6.7903438      4.9777576      50218.233      36.893836      36.893836      36.893836    
    282000   0.57410764    -7.6474439     -6.7862947      5.0011374      50218.233      36.893836      36.893836      36.893836    
    283000   0.57831606    -7.6466218     -6.77916        5.0159719      50218.233      36.893836      36.893836      36.893836    
    284000   0.57533918    -7.6504499     -6.7874535      4.9681597      50218.233      36.893836      36.893836      36.893836    
    285000   0.57822715    -7.6522544     -6.784926       4.9725482      50218.233      36.893836      36.893836      36.893836    
    286000   0.57155368    -7.6496634     -6.7923451      4.9679453      50218.233      36.893836      36.893836      36.893836    
    287000   0.57720783    -7.6488274     -6.7830279      4.9950768      50218.233      36.893836      36.893836      36.893836    
    288000   0.57547134    -7.6493507     -6.7861559      4.9732308      50218.233      36.893836      36.893836      36.893836    
    289000   0.57215322    -7.6558563     -6.7976387      4.9339995      50218.233      36.893836      36.893836      36.893836    
    290000   0.57309137    -7.6486833     -6.7890585      4.9818907      50218.233      36.893836      36.893836      36.893836    
    291000   0.57734402    -7.6490974     -6.7830937      4.9924814      50218.233      36.893836      36.893836      36.893836    
    292000   0.57771426    -7.6483436     -6.7817845      4.9924375      50218.233      36.893836      36.893836      36.893836    
    293000   0.57594128    -7.6456221     -6.7817225      5.0204125      50218.233      36.893836      36.893836      36.893836    
    294000   0.57509733    -7.6511215     -6.7884878      4.9636279      50218.233      36.893836      36.893836      36.893836    
    295000   0.57300053    -7.6542162     -6.7947277      4.9535429      50218.233      36.893836      36.893836      36.893836    
    296000   0.57546812    -7.6508295     -6.7876396      4.9855253      50218.233      36.893836      36.893836      36.893836    
    297000   0.57391618    -7.6475616     -6.7866995      5.0075131      50218.233      36.893836      36.893836      36.893836    
    298000   0.57637935    -7.6489752     -6.7844184      4.9918679      50218.233      36.893836      36.893836      36.893836    
    299000   0.5720142     -7.6500384     -6.7920293      4.9702178      50218.233      36.893836      36.893836      36.893836    
    300000   0.57314074    -7.6485562     -6.7888573      5.0002776      50218.233      36.893836      36.893836      36.893836    
    301000   0.57594865    -7.651815      -6.7879043      4.9707189      50218.233      36.893836      36.893836      36.893836    
    302000   0.5766839     -7.6469983     -6.7819847      5.007935       50218.233      36.893836      36.893836      36.893836    
    303000   0.57510935    -7.6520321     -6.7893803      4.9632568      50218.233      36.893836      36.893836      36.893836    
    304000   0.57657183    -7.6501537     -6.7853082      4.9746051      50218.233      36.893836      36.893836      36.893836    
    305000   0.57795329    -7.6481676     -6.78125        5.0026869      50218.233      36.893836      36.893836      36.893836    
    306000   0.57135887    -7.6508163     -6.7937902      4.9662247      50218.233      36.893836      36.893836      36.893836    
    307000   0.57431012    -7.6449567     -6.7835038      5.0263976      50218.233      36.893836      36.893836      36.893836    
    308000   0.57604545    -7.6536958     -6.7896399      4.9483062      50218.233      36.893836      36.893836      36.893836    
    309000   0.57135263    -7.6442283     -6.7872115      5.0204031      50218.233      36.893836      36.893836      36.893836    
    310000   0.57331636    -7.6516297     -6.7916674      4.973962       50218.233      36.893836      36.893836      36.893836    
    311000   0.57527797    -7.6483121     -6.7854075      4.9895676      50218.233      36.893836      36.893836      36.893836    
    312000   0.57664442    -7.6474693     -6.7825149      5.0093751      50218.233      36.893836      36.893836      36.893836    
    313000   0.57673833    -7.6467251     -6.7816299      5.007565       50218.233      36.893836      36.893836      36.893836    
    314000   0.57415929    -7.6452012     -6.7839745      4.9995512      50218.233      36.893836      36.893836      36.893836    
    315000   0.57687787    -7.6469759     -6.7816714      4.9926092      50218.233      36.893836      36.893836      36.893836    
    316000   0.57190373    -7.6461812     -6.7883378      4.9997354      50218.233      36.893836      36.893836      36.893836    
    317000   0.57316812    -7.644742      -6.7850021      5.0094726      50218.233      36.893836      36.893836      36.893836    
    318000   0.57681485    -7.6546943     -6.7894844      4.9422829      50218.233      36.893836      36.893836      36.893836    
    319000   0.57543313    -7.6509098     -6.7877724      4.987354       50218.233      36.893836      36.893836      36.893836    
    320000   0.57388465    -7.6471802     -6.7863655      4.9977956      50218.233      36.893836      36.893836      36.893836    
    321000   0.57242557    -7.6529977     -6.7943715      4.9591468      50218.233      36.893836      36.893836      36.893836    
    322000   0.57433651    -7.6481756     -6.7866831      4.9865964      50218.233      36.893836      36.893836      36.893836    
    323000   0.57191249    -7.6517495     -6.793893       4.9636094      50218.233      36.893836      36.893836      36.893836    
    324000   0.57533439    -7.6481144     -6.7851251      5.0063815      50218.233      36.893836      36.893836      36.893836    
    325000   0.57296807    -7.6490809     -6.789641       4.9760298      50218.233      36.893836      36.893836      36.893836    
    326000   0.57716754    -7.6470444     -6.7813054      4.9995794      50218.233      36.893836      36.893836      36.893836    
    327000   0.57788969    -7.6514609     -6.7846387      4.9677051      50218.233      36.893836      36.893836      36.893836    
    328000   0.57326201    -7.6501228     -6.790242       4.9814956      50218.233      36.893836      36.893836      36.893836    
    329000   0.57459617    -7.6499598     -6.7880778      4.9794648      50218.233      36.893836      36.893836      36.893836    
    330000   0.57304493    -7.6504551     -6.7909         4.9655926      50218.233      36.893836      36.893836      36.893836    
    331000   0.57417995    -7.6526429     -6.7913852      4.9614552      50218.233      36.893836      36.893836      36.893836    
    332000   0.57334541    -7.6522939     -6.792288       4.9638147      50218.233      36.893836      36.893836      36.893836    
    333000   0.57414013    -7.6514038     -6.7902058      4.9776023      50218.233      36.893836      36.893836      36.893836    
    334000   0.5767125     -7.6505372     -6.7854807      4.9811631      50218.233      36.893836      36.893836      36.893836    
    335000   0.57370526    -7.6476186     -6.7870729      4.995468       50218.233      36.893836      36.893836      36.893836    
    336000   0.57457035    -7.6518507     -6.7900075      4.9699115      50218.233      36.893836      36.893836      36.893836    
    337000   0.57372267    -7.6522943     -6.7917225      4.9640233      50218.233      36.893836      36.893836      36.893836    
    338000   0.57884034    -7.6423677     -6.7741196      5.0391325      50218.233      36.893836      36.893836      36.893836    
    339000   0.57343378    -7.6487268     -6.7885884      4.9944497      50218.233      36.893836      36.893836      36.893836    
    340000   0.57468559    -7.6472403     -6.7852242      5.0105191      50218.233      36.893836      36.893836      36.893836    
    341000   0.57746608    -7.6491922     -6.7830054      4.9891338      50218.233      36.893836      36.893836      36.893836    
    342000   0.57542538    -7.6469234     -6.7837977      5.0111424      50218.233      36.893836      36.893836      36.893836    
    343000   0.57111399    -7.6496724     -6.7930136      4.9869075      50218.233      36.893836      36.893836      36.893836    
    344000   0.57452691    -7.6478573     -6.7860792      4.9854892      50218.233      36.893836      36.893836      36.893836    
    345000   0.57345543    -7.6484533     -6.7882824      4.9883761      50218.233      36.893836      36.893836      36.893836    
    346000   0.57716695    -7.6484882     -6.7827501      4.9886387      50218.233      36.893836      36.893836      36.893836    
    347000   0.57626455    -7.6491703     -6.7847857      4.9840832      50218.233      36.893836      36.893836      36.893836    
    348000   0.57307117    -7.6483905     -6.788796       4.9914012      50218.233      36.893836      36.893836      36.893836    
    349000   0.574208      -7.6485018     -6.7872021      4.9946987      50218.233      36.893836      36.893836      36.893836    
    350000   0.57582308    -7.6487271     -6.7850047      4.9801982      50218.233      36.893836      36.893836      36.893836    
    351000   0.57330686    -7.651017      -6.7910689      4.9776821      50218.233      36.893836      36.893836      36.893836    
    352000   0.57272236    -7.6493601     -6.7902888      4.9803957      50218.233      36.893836      36.893836      36.893836    
    353000   0.57515893    -7.6477855     -6.7850594      5.0007625      50218.233      36.893836      36.893836      36.893836    
    354000   0.57148498    -7.6503339     -6.7931187      4.9728661      50218.233      36.893836      36.893836      36.893836    
    355000   0.57625972    -7.6536276     -6.7892503      4.9539706      50218.233      36.893836      36.893836      36.893836    
    356000   0.57341302    -7.6430506     -6.7829433      5.0321722      50218.233      36.893836      36.893836      36.893836    
    357000   0.57349064    -7.6444523     -6.7842285      5.0205175      50218.233      36.893836      36.893836      36.893836    
    358000   0.57503869    -7.6472608     -6.7847151      5.0046762      50218.233      36.893836      36.893836      36.893836    
    359000   0.57300839    -7.6485611     -6.7890607      4.9879791      50218.233      36.893836      36.893836      36.893836    
    360000   0.57665599    -7.643204      -6.7782323      5.0439501      50218.233      36.893836      36.893836      36.893836    
    361000   0.57440381    -7.6499673     -6.7883739      4.9882762      50218.233      36.893836      36.893836      36.893836    
    362000   0.57243591    -7.6471924     -6.7885507      5.0000516      50218.233      36.893836      36.893836      36.893836    
    363000   0.57422932    -7.6480365     -6.7867048      4.9894837      50218.233      36.893836      36.893836      36.893836    
    364000   0.5738831     -7.6546139     -6.7938015      4.9388459      50218.233      36.893836      36.893836      36.893836    
    365000   0.57696198    -7.6488153     -6.7833847      4.9918486      50218.233      36.893836      36.893836      36.893836    
    366000   0.57662776    -7.651958      -6.7870287      4.9748048      50218.233      36.893836      36.893836      36.893836    
    367000   0.57807603    -7.6506842     -6.7835825      4.9813394      50218.233      36.893836      36.893836      36.893836    
    368000   0.57623495    -7.6487132     -6.7843731      4.9802897      50218.233      36.893836      36.893836      36.893836    
    369000   0.57567094    -7.6523013     -6.7888072      4.9633578      50218.233      36.893836      36.893836      36.893836    
    370000   0.57450992    -7.6514896     -6.7897369      4.9641379      50218.233      36.893836      36.893836      36.893836    
    371000   0.57425434    -7.6475902     -6.7862209      4.9885469      50218.233      36.893836      36.893836      36.893836    
    372000   0.57467666    -7.6515611     -6.7895584      4.9691562      50218.233      36.893836      36.893836      36.893836    
    373000   0.57255229    -7.6520236     -6.7932074      4.9511281      50218.233      36.893836      36.893836      36.893836    
    374000   0.57438903    -7.6525973     -6.7910261      4.9550647      50218.233      36.893836      36.893836      36.893836    
    375000   0.5745627     -7.6493017     -6.7874699      4.997535       50218.233      36.893836      36.893836      36.893836    
    376000   0.57390329    -7.652134      -6.7912913      4.9779022      50218.233      36.893836      36.893836      36.893836    
    377000   0.57689995    -7.652702      -6.7873644      4.9660958      50218.233      36.893836      36.893836      36.893836    
    378000   0.57193555    -7.6483468     -6.7904556      4.9870998      50218.233      36.893836      36.893836      36.893836    
    379000   0.57729569    -7.6475441     -6.7816129      5.0045101      50218.233      36.893836      36.893836      36.893836    
    380000   0.57565234    -7.6482739     -6.7848077      4.981608       50218.233      36.893836      36.893836      36.893836    
    381000   0.5703712     -7.6536659     -6.7981212      4.9333737      50218.233      36.893836      36.893836      36.893836    
    382000   0.57586758    -7.6483698     -6.7845807      4.9965617      50218.233      36.893836      36.893836      36.893836    
    383000   0.57537783    -7.6508604     -6.7878059      4.9791091      50218.233      36.893836      36.893836      36.893836    
    384000   0.57667698    -7.6468846     -6.7818814      5.0031041      50218.233      36.893836      36.893836      36.893836    
    385000   0.57379279    -7.6540903     -6.7934133      4.9305781      50218.233      36.893836      36.893836      36.893836    
    386000   0.57273367    -7.6545118     -6.7954235      4.9452265      50218.233      36.893836      36.893836      36.893836    
    387000   0.57619572    -7.6524526     -6.7881713      4.9675861      50218.233      36.893836      36.893836      36.893836    
    388000   0.57446065    -7.6479118     -6.786233       4.9881496      50218.233      36.893836      36.893836      36.893836    
    389000   0.57563308    -7.6512449     -6.7878076      4.9713115      50218.233      36.893836      36.893836      36.893836    
    390000   0.57172748    -7.6498043     -6.7922253      4.9822284      50218.233      36.893836      36.893836      36.893836    
    391000   0.57641779    -7.6500608     -6.7854464      4.9783394      50218.233      36.893836      36.893836      36.893836    
    392000   0.5740093     -7.650366      -6.7893643      4.9769357      50218.233      36.893836      36.893836      36.893836    
    393000   0.57863515    -7.6507833     -6.7828429      4.9874984      50218.233      36.893836      36.893836      36.893836    
    394000   0.57322039    -7.6562968     -6.7964784      4.9290693      50218.233      36.893836      36.893836      36.893836    
    395000   0.57588789    -7.6437289     -6.7799093      5.0234488      50218.233      36.893836      36.893836      36.893836    
    396000   0.57592754    -7.648314      -6.784435       4.982141       50218.233      36.893836      36.893836      36.893836    
    397000   0.57340941    -7.6528264     -6.7927245      4.9466881      50218.233      36.893836      36.893836      36.893836    
    398000   0.57656045    -7.6495402     -6.7847118      4.9910787      50218.233      36.893836      36.893836      36.893836    
    399000   0.57702661    -7.6494521     -6.7839245      4.9876229      50218.233      36.893836      36.893836      36.893836    
    400000   0.57470382    -7.6500485     -6.7880051      4.9775095      50218.233      36.893836      36.893836      36.893836    
    401000   0.57482076    -7.6475718     -6.7853529      5.0014273      50218.233      36.893836      36.893836      36.893836    
    402000   0.56857243    -7.6507456     -6.7978991      4.9679074      50218.233      36.893836      36.893836      36.893836    
    403000   0.57486042    -7.650229      -6.7879506      4.9772714      50218.233      36.893836      36.893836      36.893836    
    404000   0.57535407    -7.6508613     -6.7878424      4.9715392      50218.233      36.893836      36.893836      36.893836    
    405000   0.57404573    -7.6556861     -6.7946298      4.9456783      50218.233      36.893836      36.893836      36.893836    
    406000   0.57415426    -7.6521545     -6.7909354      4.9598162      50218.233      36.893836      36.893836      36.893836    
    407000   0.57552343    -7.6467213     -6.7834485      5.0088525      50218.233      36.893836      36.893836      36.893836    
    408000   0.57631453    -7.6504701     -6.7860106      4.9737072      50218.233      36.893836      36.893836      36.893836    
    409000   0.57725285    -7.6503812     -6.7845142      4.9836828      50218.233      36.893836      36.893836      36.893836    
    410000   0.57448602    -7.652609      -6.7908922      4.9696012      50218.233      36.893836      36.893836      36.893836    
    411000   0.57655534    -7.6484811     -6.7836604      5.0023602      50218.233      36.893836      36.893836      36.893836    
    412000   0.57393277    -7.6580581     -6.7971712      4.9150133      50218.233      36.893836      36.893836      36.893836    
    413000   0.57420508    -7.6474417     -6.7861463      4.9972605      50218.233      36.893836      36.893836      36.893836    
    414000   0.5754748     -7.6509758     -6.7877759      4.9741714      50218.233      36.893836      36.893836      36.893836    
    415000   0.57315113    -7.6520281     -6.7923136      4.9662294      50218.233      36.893836      36.893836      36.893836    
    416000   0.57604455    -7.6492088     -6.7851543      4.9912695      50218.233      36.893836      36.893836      36.893836    
    417000   0.57550359    -7.6491205     -6.7858774      4.9785237      50218.233      36.893836      36.893836      36.893836    
    418000   0.57486634    -7.6487037     -6.7864164      4.9899274      50218.233      36.893836      36.893836      36.893836    
    419000   0.5751447     -7.6493567     -6.7866519      4.9902708      50218.233      36.893836      36.893836      36.893836    
    420000   0.57456788    -7.6518714     -6.7900318      4.9604067      50218.233      36.893836      36.893836      36.893836    
    421000   0.57572517    -7.6555374     -6.7919619      4.9381833      50218.233      36.893836      36.893836      36.893836    
    422000   0.57661286    -7.6518863     -6.7869794      4.9699177      50218.233      36.893836      36.893836      36.893836    
    423000   0.57439445    -7.6509786     -6.7893992      4.9588693      50218.233      36.893836      36.893836      36.893836    
    424000   0.57538249    -7.6525286     -6.7894672      4.9674656      50218.233      36.893836      36.893836      36.893836    
    425000   0.57251862    -7.6511533     -6.7923876      4.9630785      50218.233      36.893836      36.893836      36.893836    
    426000   0.57395875    -7.6545295     -6.7936037      4.9521032      50218.233      36.893836      36.893836      36.893836    
    427000   0.57313081    -7.6501972     -6.7905132      4.9689022      50218.233      36.893836      36.893836      36.893836    
    428000   0.57510277    -7.6541863     -6.7915444      4.9478633      50218.233      36.893836      36.893836      36.893836    
    429000   0.57548877    -7.6516685     -6.7884476      4.9665262      50218.233      36.893836      36.893836      36.893836    
    430000   0.57629488    -7.6510613     -6.7866313      4.9640063      50218.233      36.893836      36.893836      36.893836    
    431000   0.57527982    -7.653148      -6.7902405      4.9621096      50218.233      36.893836      36.893836      36.893836    
    432000   0.5752187     -7.6563405     -6.7935248      4.9372026      50218.233      36.893836      36.893836      36.893836    
    433000   0.57694962    -7.6525334     -6.7871212      4.9617023      50218.233      36.893836      36.893836      36.893836    
    434000   0.57537997    -7.6555291     -6.7924715      4.9556981      50218.233      36.893836      36.893836      36.893836    
    435000   0.57601663    -7.6544649     -6.7904523      4.9529556      50218.233      36.893836      36.893836      36.893836    
    436000   0.57035942    -7.6554456     -6.7999186      4.9195491      50218.233      36.893836      36.893836      36.893836    
    437000   0.57350351    -7.6486387     -6.7883957      4.9793454      50218.233      36.893836      36.893836      36.893836    
    438000   0.57684995    -7.6527847     -6.7875221      4.9664671      50218.233      36.893836      36.893836      36.893836    
    439000   0.57528872    -7.6486299     -6.7857091      4.9928567      50218.233      36.893836      36.893836      36.893836    
    440000   0.57269451    -7.6483156     -6.7892861      4.9935351      50218.233      36.893836      36.893836      36.893836    
    441000   0.57668002    -7.6454764     -6.7804687      5.015552       50218.233      36.893836      36.893836      36.893836    
    442000   0.57380479    -7.6506388     -6.7899438      4.9744193      50218.233      36.893836      36.893836      36.893836    
    443000   0.57858593    -7.6510931     -6.7832266      4.9928878      50218.233      36.893836      36.893836      36.893836    
    444000   0.57298238    -7.6515866     -6.7921253      4.9631393      50218.233      36.893836      36.893836      36.893836    
    445000   0.5706662     -7.6530967     -6.7971096      4.9474523      50218.233      36.893836      36.893836      36.893836    
    446000   0.57647867    -7.6509931     -6.7862874      4.9668782      50218.233      36.893836      36.893836      36.893836    
    447000   0.57531024    -7.6529936     -6.7900405      4.96294        50218.233      36.893836      36.893836      36.893836    
    448000   0.57617603    -7.651017      -6.7867652      4.9599808      50218.233      36.893836      36.893836      36.893836    
    449000   0.5749777     -7.6466738     -6.7842195      5.0134314      50218.233      36.893836      36.893836      36.893836    
    450000   0.57547903    -7.6495389     -6.7863326      4.9977003      50218.233      36.893836      36.893836      36.893836    
    451000   0.57599718    -7.6519586     -6.7879751      4.97436        50218.233      36.893836      36.893836      36.893836    
    452000   0.57324283    -7.64758       -6.787728       5.0024124      50218.233      36.893836      36.893836      36.893836    
    453000   0.57595806    -7.6541452     -6.7902204      4.9506585      50218.233      36.893836      36.893836      36.893836    
    454000   0.57580859    -7.6509007     -6.7872001      4.9695483      50218.233      36.893836      36.893836      36.893836    
    455000   0.57930485    -7.6528025     -6.7838576      4.9694224      50218.233      36.893836      36.893836      36.893836    
    456000   0.57482514    -7.653778      -6.7915525      4.944489       50218.233      36.893836      36.893836      36.893836    
    457000   0.57485024    -7.6495651     -6.787302       4.9767334      50218.233      36.893836      36.893836      36.893836    
    458000   0.57525356    -7.651977      -6.789109       4.9601469      50218.233      36.893836      36.893836      36.893836    
    459000   0.5747744     -7.6516199     -6.7894706      4.9614881      50218.233      36.893836      36.893836      36.893836    
    460000   0.5756476     -7.6481005     -6.7846414      4.9887706      50218.233      36.893836      36.893836      36.893836    
    461000   0.5757324     -7.6499413     -6.786355       4.9776176      50218.233      36.893836      36.893836      36.893836    
    462000   0.57718302    -7.6502938     -6.7845316      4.9835531      50218.233      36.893836      36.893836      36.893836    
    463000   0.57533628    -7.6507365     -6.7877444      4.9704739      50218.233      36.893836      36.893836      36.893836    
    464000   0.57540042    -7.6513805     -6.7882922      4.9671186      50218.233      36.893836      36.893836      36.893836    
    465000   0.57556233    -7.6526763     -6.7893451      4.958778       50218.233      36.893836      36.893836      36.893836    
    466000   0.57777603    -7.6547828     -6.788131       4.9500363      50218.233      36.893836      36.893836      36.893836    
    467000   0.57751206    -7.6571468     -6.790891       4.9180855      50218.233      36.893836      36.893836      36.893836    
    468000   0.5749351     -7.6566502     -6.7942598      4.9071807      50218.233      36.893836      36.893836      36.893836    
    469000   0.57505866    -7.6480794     -6.7855036      4.9980248      50218.233      36.893836      36.893836      36.893836    
    470000   0.57400166    -7.6513105     -6.7903203      4.9671628      50218.233      36.893836      36.893836      36.893836    
    471000   0.57716215    -7.6444413     -6.7787104      5.021323       50218.233      36.893836      36.893836      36.893836    
    472000   0.57480299    -7.6535932     -6.791401       4.9385618      50218.233      36.893836      36.893836      36.893836    
    473000   0.57734822    -7.6543619     -6.7883519      4.945271       50218.233      36.893836      36.893836      36.893836    
    474000   0.57881981    -7.6468073     -6.7785899      5.0031971      50218.233      36.893836      36.893836      36.893836    
    475000   0.57654779    -7.6529852     -6.7881758      4.9558854      50218.233      36.893836      36.893836      36.893836    
    476000   0.57481826    -7.6432565     -6.7810414      5.0201107      50218.233      36.893836      36.893836      36.893836    
    477000   0.57520999    -7.6512865     -6.7884837      4.98108        50218.233      36.893836      36.893836      36.893836    
    478000   0.57481879    -7.6432589     -6.781043       5.0248753      50218.233      36.893836      36.893836      36.893836    
    479000   0.57206351    -7.650527      -6.7924439      4.9669762      50218.233      36.893836      36.893836      36.893836    
    480000   0.57539202    -7.6477103     -6.7846345      4.9879929      50218.233      36.893836      36.893836      36.893836    
    481000   0.57766692    -7.6392542     -6.7727661      5.0470716      50218.233      36.893836      36.893836      36.893836    
    482000   0.57491406    -7.6498311     -6.7874722      4.9803624      50218.233      36.893836      36.893836      36.893836    
    483000   0.575846      -7.6527018     -6.7889451      4.9643034      50218.233      36.893836      36.893836      36.893836    
    484000   0.57381768    -7.6500962     -6.7893819      4.9703791      50218.233      36.893836      36.893836      36.893836    
    485000   0.57383027    -7.6447639     -6.7840307      5.0063459      50218.233      36.893836      36.893836      36.893836    
    486000   0.5760979     -7.6498636     -6.785729       4.9797013      50218.233      36.893836      36.893836      36.893836    
    487000   0.57789822    -7.650952      -6.784117       4.9771518      50218.233      36.893836      36.893836      36.893836    
    488000   0.57734326    -7.6534699     -6.7874674      4.9692429      50218.233      36.893836      36.893836      36.893836    
    489000   0.57552244    -7.6518301     -6.7885587      4.9695644      50218.233      36.893836      36.893836      36.893836    
    490000   0.5729872     -7.6526496     -6.7931811      4.958263       50218.233      36.893836      36.893836      36.893836    
    491000   0.57628143    -7.6582447     -6.7938348      4.9161827      50218.233      36.893836      36.893836      36.893836    
    492000   0.57716774    -7.6521531     -6.7864138      4.9638393      50218.233      36.893836      36.893836      36.893836    
    493000   0.57389767    -7.6486238     -6.7877895      4.9830719      50218.233      36.893836      36.893836      36.893836    
    494000   0.57486401    -7.6511757     -6.7888919      4.960862       50218.233      36.893836      36.893836      36.893836    
    495000   0.57482747    -7.6475325     -6.7853036      4.9901197      50218.233      36.893836      36.893836      36.893836    
    496000   0.5748413     -7.6499232     -6.7876735      4.9714062      50218.233      36.893836      36.893836      36.893836    
    497000   0.5773583     -7.6476069     -6.7815818      5.0025238      50218.233      36.893836      36.893836      36.893836    
    498000   0.57393707    -7.6493424     -6.788449       4.9800687      50218.233      36.893836      36.893836      36.893836    
    499000   0.57295236    -7.6503126     -6.7908963      4.9868113      50218.233      36.893836      36.893836      36.893836    
    500000   0.57489153    -7.6471722     -6.7848472      5.0005533      50218.233      36.893836      36.893836      36.893836    
    501000   0.57204895    -7.6498141     -6.7917529      4.9646792      50218.233      36.893836      36.893836      36.893836    
    502000   0.57545161    -7.6547733     -6.7916082      4.9445884      50218.233      36.893836      36.893836      36.893836    
    503000   0.57523497    -7.6522371     -6.7893969      4.9544369      50218.233      36.893836      36.893836      36.893836    
    504000   0.57787385    -7.6522178     -6.7854194      4.9626827      50218.233      36.893836      36.893836      36.893836    
    505000   0.57321443    -7.6518127     -6.7920033      4.962975       50218.233      36.893836      36.893836      36.893836    
    506000   0.57632498    -7.652034      -6.7875588      4.9667287      50218.233      36.893836      36.893836      36.893836    
    507000   0.57537157    -7.652399      -6.7893539      4.9565028      50218.233      36.893836      36.893836      36.893836    
    508000   0.57342073    -7.6445772     -6.7844583      5.0143803      50218.233      36.893836      36.893836      36.893836    
    509000   0.57538488    -7.6503849     -6.7873199      4.9686804      50218.233      36.893836      36.893836      36.893836    
    510000   0.57562559    -7.6476883     -6.7842622      4.9938141      50218.233      36.893836      36.893836      36.893836    
    511000   0.57638122    -7.6520099     -6.7874504      4.9615227      50218.233      36.893836      36.893836      36.893836    
    512000   0.57322243    -7.648499      -6.7886776      4.9732509      50218.233      36.893836      36.893836      36.893836    
    513000   0.57259678    -7.6548906     -6.7960076      4.9394847      50218.233      36.893836      36.893836      36.893836    
    514000   0.57273065    -7.64823       -6.7891462      4.9766202      50218.233      36.893836      36.893836      36.893836    
    515000   0.57507582    -7.6451544     -6.7825529      5.004331       50218.233      36.893836      36.893836      36.893836    
    516000   0.57516089    -7.6500211     -6.787292       4.9665847      50218.233      36.893836      36.893836      36.893836    
    517000   0.57457854    -7.6478988     -6.7860432      4.9816119      50218.233      36.893836      36.893836      36.893836    
    518000   0.57475829    -7.6521451     -6.79002        4.9623009      50218.233      36.893836      36.893836      36.893836    
    519000   0.57673793    -7.6511172     -6.7860226      4.9792804      50218.233      36.893836      36.893836      36.893836    
    520000   0.57671054    -7.646228      -6.7811745      5.0079265      50218.233      36.893836      36.893836      36.893836    
    521000   0.57688369    -7.6459309     -6.7806177      5.0107082      50218.233      36.893836      36.893836      36.893836    
    522000   0.5734484     -7.6536723     -6.7935119      4.9435853      50218.233      36.893836      36.893836      36.893836    
    523000   0.57932214    -7.6516948     -6.7827239      4.974139       50218.233      36.893836      36.893836      36.893836    
    524000   0.57754605    -7.6499305     -6.7836238      4.9680179      50218.233      36.893836      36.893836      36.893836    
    525000   0.57686296    -7.6509078     -6.7856256      4.9698455      50218.233      36.893836      36.893836      36.893836    
    526000   0.57440254    -7.6530613     -6.7914697      4.9522018      50218.233      36.893836      36.893836      36.893836    
    527000   0.57677243    -7.6515884     -6.7864421      4.9649602      50218.233      36.893836      36.893836      36.893836    
    528000   0.57445818    -7.6548053     -6.7931303      4.9326053      50218.233      36.893836      36.893836      36.893836    
    529000   0.57367605    -7.6456013     -6.7850995      4.994965       50218.233      36.893836      36.893836      36.893836    
    530000   0.57336132    -7.6511567     -6.7911269      4.9596773      50218.233      36.893836      36.893836      36.893836    
    531000   0.57581665    -7.651972      -6.7882593      4.9616963      50218.233      36.893836      36.893836      36.893836    
    532000   0.57421418    -7.6520818     -6.7907728      4.9643269      50218.233      36.893836      36.893836      36.893836    
    533000   0.57666073    -7.6512284     -6.7862496      4.9854446      50218.233      36.893836      36.893836      36.893836    
    534000   0.57698983    -7.6477601     -6.7822877      5.004564       50218.233      36.893836      36.893836      36.893836    
    535000   0.57021035    -7.653222      -6.7979187      4.9465299      50218.233      36.893836      36.893836      36.893836    
    536000   0.57529633    -7.650418      -6.7874858      4.9756649      50218.233      36.893836      36.893836      36.893836    
    537000   0.5741879     -7.6505372     -6.7892676      4.9750646      50218.233      36.893836      36.893836      36.893836    
    538000   0.57286499    -7.656305      -6.7970197      4.9404813      50218.233      36.893836      36.893836      36.893836    
    539000   0.57460255    -7.6514637     -6.7895722      4.9710851      50218.233      36.893836      36.893836      36.893836    
    540000   0.5717495     -7.6463799     -6.7887678      5.0039656      50218.233      36.893836      36.893836      36.893836    
    541000   0.57388334    -7.6503866     -6.7895738      4.9715235      50218.233      36.893836      36.893836      36.893836    
    542000   0.5766001     -7.6567278     -6.7918399      4.930842       50218.233      36.893836      36.893836      36.893836    
    543000   0.57230478    -7.6515122     -6.7930673      4.9494839      50218.233      36.893836      36.893836      36.893836    
    544000   0.57814801    -7.657577      -6.7903673      4.9281976      50218.233      36.893836      36.893836      36.893836    
    545000   0.57490208    -7.6542778     -6.7919369      4.9410781      50218.233      36.893836      36.893836      36.893836    
    546000   0.57464901    -7.6524895     -6.7905283      4.9605109      50218.233      36.893836      36.893836      36.893836    
    547000   0.57636333    -7.6551239     -6.7905912      4.929258       50218.233      36.893836      36.893836      36.893836    
    548000   0.57630938    -7.6482798     -6.783828       4.9998641      50218.233      36.893836      36.893836      36.893836    
    549000   0.57312574    -7.6478726     -6.7881963      4.9852755      50218.233      36.893836      36.893836      36.893836    
    550000   0.57433323    -7.6479815     -6.7864939      4.9968192      50218.233      36.893836      36.893836      36.893836    
    551000   0.57297098    -7.6517185     -6.7922742      4.963931       50218.233      36.893836      36.893836      36.893836    
    552000   0.573352      -7.651689      -6.7916732      4.9576241      50218.233      36.893836      36.893836      36.893836    
    553000   0.57712651    -7.6534775     -6.7878001      4.9503881      50218.233      36.893836      36.893836      36.893836    
    554000   0.5774029     -7.6495843     -6.7834923      4.9805712      50218.233      36.893836      36.893836      36.893836    
    555000   0.5741565     -7.6473864     -6.7861639      4.9884208      50218.233      36.893836      36.893836      36.893836    
    556000   0.57708598    -7.6441533     -6.7785366      5.0295185      50218.233      36.893836      36.893836      36.893836    
    557000   0.57356248    -7.6502457     -6.7899142      4.9686095      50218.233      36.893836      36.893836      36.893836    
    558000   0.57483223    -7.6527631     -6.790527       4.9407262      50218.233      36.893836      36.893836      36.893836    
    559000   0.57342395    -7.6483015     -6.7881778      4.9806655      50218.233      36.893836      36.893836      36.893836    
    560000   0.57779635    -7.6469882     -6.780306       5.0004457      50218.233      36.893836      36.893836      36.893836    
    561000   0.57326945    -7.650118      -6.790226       4.9688084      50218.233      36.893836      36.893836      36.893836    
    562000   0.57504567    -7.6466737     -6.7841174      4.9972903      50218.233      36.893836      36.893836      36.893836    
    563000   0.57510027    -7.6477884     -6.7851503      4.9732589      50218.233      36.893836      36.893836      36.893836    
    564000   0.57753116    -7.6528325     -6.786548       4.9485584      50218.233      36.893836      36.893836      36.893836    
    565000   0.57334401    -7.6442983     -6.7842945      5.0230896      50218.233      36.893836      36.893836      36.893836    
    566000   0.57663605    -7.6451946     -6.7802528      5.0122666      50218.233      36.893836      36.893836      36.893836    
    567000   0.57614864    -7.6453108     -6.7811002      5.0031839      50218.233      36.893836      36.893836      36.893836    
    568000   0.57557802    -7.6465557     -6.783201       4.9987847      50218.233      36.893836      36.893836      36.893836    
    569000   0.57473398    -7.6475823     -6.7854936      4.995569       50218.233      36.893836      36.893836      36.893836    
    570000   0.57396571    -7.6506418     -6.7897055      4.9667162      50218.233      36.893836      36.893836      36.893836    
    571000   0.57585186    -7.6478256     -6.7840601      5.00185        50218.233      36.893836      36.893836      36.893836    
    572000   0.5733723     -7.646034      -6.7859878      5.0019187      50218.233      36.893836      36.893836      36.893836    
    573000   0.57262088    -7.647133      -6.7882139      4.9953631      50218.233      36.893836      36.893836      36.893836    
    574000   0.57630254    -7.6478164     -6.7833749      4.9866242      50218.233      36.893836      36.893836      36.893836    
    575000   0.57503901    -7.6537234     -6.7911772      4.9448393      50218.233      36.893836      36.893836      36.893836    
    576000   0.57460993    -7.645178      -6.7832754      5.0243003      50218.233      36.893836      36.893836      36.893836    
    577000   0.57514672    -7.6497721     -6.7870643      4.9763931      50218.233      36.893836      36.893836      36.893836    
    578000   0.57731528    -7.6457064     -6.7797458      5.013032       50218.233      36.893836      36.893836      36.893836    
    579000   0.57258847    -7.6479658     -6.7890954      4.9796416      50218.233      36.893836      36.893836      36.893836    
    580000   0.57269382    -7.641631      -6.7826025      5.0335778      50218.233      36.893836      36.893836      36.893836    
    581000   0.57592799    -7.6439322     -6.7800525      5.0238143      50218.233      36.893836      36.893836      36.893836    
    582000   0.57215821    -7.6454755     -6.7872504      5.0052629      50218.233      36.893836      36.893836      36.893836    
    583000   0.57640019    -7.6493747     -6.7847867      4.9702044      50218.233      36.893836      36.893836      36.893836    
    584000   0.57416931    -7.6506786     -6.7894369      4.9646943      50218.233      36.893836      36.893836      36.893836    
    585000   0.57176383    -7.6501402     -6.7925067      4.9665283      50218.233      36.893836      36.893836      36.893836    
    586000   0.57283511    -7.6475343     -6.7882938      4.9833018      50218.233      36.893836      36.893836      36.893836    
    587000   0.57603488    -7.6429906     -6.7789506      5.0280434      50218.233      36.893836      36.893836      36.893836    
    588000   0.57305972    -7.6474144     -6.787837       4.9923385      50218.233      36.893836      36.893836      36.893836    
    589000   0.57474066    -7.6483141     -6.7862154      4.9911839      50218.233      36.893836      36.893836      36.893836    
    590000   0.57794833    -7.6493007     -6.7823906      4.9767855      50218.233      36.893836      36.893836      36.893836    
    591000   0.57796648    -7.6433012     -6.7763639      5.0269959      50218.233      36.893836      36.893836      36.893836    
    592000   0.57452391    -7.6460721     -6.7842985      4.9956651      50218.233      36.893836      36.893836      36.893836    
    593000   0.5736532     -7.6467121     -6.7862445      4.9894469      50218.233      36.893836      36.893836      36.893836    
    594000   0.5774952     -7.6478783     -6.7816478      4.9932091      50218.233      36.893836      36.893836      36.893836    
    595000   0.57765296    -7.6504764     -6.7840093      4.9763367      50218.233      36.893836      36.893836      36.893836    
    596000   0.57541978    -7.6465013     -6.7833839      4.9908578      50218.233      36.893836      36.893836      36.893836    
    597000   0.57504794    -7.6465951     -6.7840355      4.9988626      50218.233      36.893836      36.893836      36.893836    
    598000   0.57631773    -7.6427153     -6.778251       5.0342026      50218.233      36.893836      36.893836      36.893836    
    599000   0.57421978    -7.6491577     -6.7878403      4.9905068      50218.233      36.893836      36.893836      36.893836    
    600000   0.57331638    -7.6463396     -6.7863773      5.0038398      50218.233      36.893836      36.893836      36.893836    
    601000   0.5746739     -7.6517989     -6.7898003      4.9586028      50218.233      36.893836      36.893836      36.893836    
    602000   0.57511689    -7.6470675     -6.7844044      4.9946368      50218.233      36.893836      36.893836      36.893836    
    603000   0.57542776    -7.6497594     -6.78663        4.9690982      50218.233      36.893836      36.893836      36.893836    
    604000   0.57748392    -7.6487498     -6.7825363      4.9857858      50218.233      36.893836      36.893836      36.893836    
    605000   0.57607502    -7.6469281     -6.7828279      5.0011525      50218.233      36.893836      36.893836      36.893836    
    606000   0.57544393    -7.6522686     -6.789115       4.965024       50218.233      36.893836      36.893836      36.893836    
    607000   0.57361287    -7.6526915     -6.7922844      4.9465759      50218.233      36.893836      36.893836      36.893836    
    608000   0.57414009    -7.6503222     -6.7891243      4.9713414      50218.233      36.893836      36.893836      36.893836    
    609000   0.5747512     -7.6537544     -6.7916398      4.9347815      50218.233      36.893836      36.893836      36.893836    
    610000   0.57104519    -7.6454645     -6.7889089      5.0053556      50218.233      36.893836      36.893836      36.893836    
    611000   0.57387466    -7.6484913     -6.7876916      4.9905637      50218.233      36.893836      36.893836      36.893836    
    612000   0.57317466    -7.648999      -6.7892493      4.976737       50218.233      36.893836      36.893836      36.893836    
    613000   0.57540739    -7.6537475     -6.7906486      4.9562052      50218.233      36.893836      36.893836      36.893836    
    614000   0.57385216    -7.6514385     -6.7906725      4.9754432      50218.233      36.893836      36.893836      36.893836    
    615000   0.57651861    -7.6525533     -6.7877877      4.9594637      50218.233      36.893836      36.893836      36.893836    
    616000   0.57766199    -7.6456527     -6.779172       5.0148212      50218.233      36.893836      36.893836      36.893836    
    617000   0.57554491    -7.6524797     -6.7891746      4.9735779      50218.233      36.893836      36.893836      36.893836    
    618000   0.57344732    -7.6488412     -6.7886825      4.9956943      50218.233      36.893836      36.893836      36.893836    
    619000   0.57445304    -7.6487992     -6.7871319      4.9793714      50218.233      36.893836      36.893836      36.893836    
    620000   0.57403962    -7.6562809     -6.7952337      4.9206506      50218.233      36.893836      36.893836      36.893836    
    621000   0.57344785    -7.6494151     -6.7892556      4.9700542      50218.233      36.893836      36.893836      36.893836    
    622000   0.57277466    -7.6429521     -6.7838023      5.0161771      50218.233      36.893836      36.893836      36.893836    
    623000   0.57505067    -7.650581      -6.7880173      4.9793617      50218.233      36.893836      36.893836      36.893836    
    624000   0.57463429    -7.6494939     -6.7875547      4.9825242      50218.233      36.893836      36.893836      36.893836    
    625000   0.57584478    -7.6482647     -6.7845098      4.9947088      50218.233      36.893836      36.893836      36.893836    
    626000   0.57575181    -7.6483543     -6.7847389      4.9799385      50218.233      36.893836      36.893836      36.893836    
    627000   0.57499244    -7.649313      -6.7868366      4.9820401      50218.233      36.893836      36.893836      36.893836    
    628000   0.57480859    -7.6503941     -6.7881934      4.9711204      50218.233      36.893836      36.893836      36.893836    
    629000   0.5758487     -7.6514978     -6.7877371      4.9554308      50218.233      36.893836      36.893836      36.893836    
    630000   0.57472121    -7.6533964     -6.7913269      4.9385697      50218.233      36.893836      36.893836      36.893836    
    631000   0.57220624    -7.6512908     -6.7929937      4.9586348      50218.233      36.893836      36.893836      36.893836    
    632000   0.57320394    -7.6515647     -6.7917711      4.9531434      50218.233      36.893836      36.893836      36.893836    
    633000   0.57544559    -7.6520211     -6.788865       4.9750842      50218.233      36.893836      36.893836      36.893836    
    634000   0.57234791    -7.6483544     -6.7898448      4.9971563      50218.233      36.893836      36.893836      36.893836    
    635000   0.57436222    -7.6524639     -6.7909329      4.9485971      50218.233      36.893836      36.893836      36.893836    
    636000   0.57245329    -7.6560794     -6.7974117      4.9342902      50218.233      36.893836      36.893836      36.893836    
    637000   0.57502211    -7.6518862     -6.7893653      4.9744365      50218.233      36.893836      36.893836      36.893836    
    638000   0.57477664    -7.6494314     -6.7872787      4.9788452      50218.233      36.893836      36.893836      36.893836    
    639000   0.57425001    -7.64462       -6.7832572      5.0189953      50218.233      36.893836      36.893836      36.893836    
    640000   0.57403751    -7.6493156     -6.7882716      4.9768559      50218.233      36.893836      36.893836      36.893836    
    641000   0.57368066    -7.6496549     -6.7891462      4.9766564      50218.233      36.893836      36.893836      36.893836    
    642000   0.57645387    -7.6504975     -6.785829       4.9697385      50218.233      36.893836      36.893836      36.893836    
    643000   0.5731862     -7.6562881     -6.796521       4.9328063      50218.233      36.893836      36.893836      36.893836    
    644000   0.57599121    -7.6532728     -6.7892983      4.9678375      50218.233      36.893836      36.893836      36.893836    
    645000   0.57461856    -7.6544753     -6.7925597      4.9566772      50218.233      36.893836      36.893836      36.893836    
    646000   0.57453417    -7.6517541     -6.7899651      4.9716107      50218.233      36.893836      36.893836      36.893836    
    647000   0.57708798    -7.6504513     -6.7848317      4.973401       50218.233      36.893836      36.893836      36.893836    
    648000   0.57411282    -7.6468868     -6.7857298      5.0059768      50218.233      36.893836      36.893836      36.893836    
    649000   0.57629085    -7.6499153     -6.7854913      4.9796891      50218.233      36.893836      36.893836      36.893836    
    650000   0.57217023    -7.6568057     -6.7985625      4.9140649      50218.233      36.893836      36.893836      36.893836    
    651000   0.57685781    -7.6543639     -6.7890895      4.9456816      50218.233      36.893836      36.893836      36.893836    
    652000   0.57810152    -7.6494831     -6.7823432      4.9877057      50218.233      36.893836      36.893836      36.893836    
    653000   0.57074176    -7.6560505     -6.79995        4.9178485      50218.233      36.893836      36.893836      36.893836    
    654000   0.57511843    -7.6573528     -6.7946874      4.9064332      50218.233      36.893836      36.893836      36.893836    
    655000   0.57565014    -7.6541459     -6.7906829      4.9367009      50218.233      36.893836      36.893836      36.893836    
    656000   0.57816349    -7.6551108     -6.787878       4.9455821      50218.233      36.893836      36.893836      36.893836    
    657000   0.57595024    -7.6524262     -6.7885131      4.957042       50218.233      36.893836      36.893836      36.893836    
    658000   0.57335712    -7.6540943     -6.7940708      4.9486191      50218.233      36.893836      36.893836      36.893836    
    659000   0.57551923    -7.6525905     -6.789324       4.9480594      50218.233      36.893836      36.893836      36.893836    
    660000   0.57665376    -7.6482198     -6.7832514      4.9994227      50218.233      36.893836      36.893836      36.893836    
    661000   0.57329744    -7.6496442     -6.7897103      4.9729914      50218.233      36.893836      36.893836      36.893836    
    662000   0.57413658    -7.6529275     -6.7917349      4.9564882      50218.233      36.893836      36.893836      36.893836    
    663000   0.57540701    -7.6571301     -6.7940319      4.926912       50218.233      36.893836      36.893836      36.893836    
    664000   0.57667201    -7.6510927     -6.786097       4.9592196      50218.233      36.893836      36.893836      36.893836    
    665000   0.57322772    -7.6533625     -6.7935332      4.9521874      50218.233      36.893836      36.893836      36.893836    
    666000   0.57654048    -7.6524564     -6.787658       4.9697667      50218.233      36.893836      36.893836      36.893836    
    667000   0.57674283    -7.6510746     -6.7859726      4.9753105      50218.233      36.893836      36.893836      36.893836    
    668000   0.57564689    -7.6465681     -6.7831101      4.9945072      50218.233      36.893836      36.893836      36.893836    
    669000   0.57697939    -7.6496195     -6.7841627      4.9884761      50218.233      36.893836      36.893836      36.893836    
    670000   0.57245773    -7.6545376     -6.7958632      4.9318118      50218.233      36.893836      36.893836      36.893836    
    671000   0.57552196    -7.6496662     -6.7863955      4.9907427      50218.233      36.893836      36.893836      36.893836    
    672000   0.57336976    -7.654639      -6.7945966      4.9393882      50218.233      36.893836      36.893836      36.893836    
    673000   0.57253471    -7.648606      -6.7898162      4.99341        50218.233      36.893836      36.893836      36.893836    
    674000   0.57508103    -7.6510555     -6.7884462      4.9670471      50218.233      36.893836      36.893836      36.893836    
    675000   0.57321186    -7.6476243     -6.7878187      4.9962308      50218.233      36.893836      36.893836      36.893836    
    676000   0.57509481    -7.6502717     -6.7876417      4.9776444      50218.233      36.893836      36.893836      36.893836    
    677000   0.57594754    -7.6483798     -6.7844708      4.9909956      50218.233      36.893836      36.893836      36.893836    
    678000   0.57768508    -7.6458545     -6.7793392      5.024749       50218.233      36.893836      36.893836      36.893836    
    679000   0.575081      -7.6474498     -6.7848405      4.9796927      50218.233      36.893836      36.893836      36.893836    
    680000   0.57404848    -7.6491774     -6.7881169      4.9776929      50218.233      36.893836      36.893836      36.893836    
    681000   0.57560123    -7.6509901     -6.7876005      4.96842        50218.233      36.893836      36.893836      36.893836    
    682000   0.57483389    -7.652674      -6.7904354      4.9474865      50218.233      36.893836      36.893836      36.893836    
    683000   0.57836322    -7.6487975     -6.781265       4.9841909      50218.233      36.893836      36.893836      36.893836    
    684000   0.57346666    -7.6549523     -6.7947646      4.9316231      50218.233      36.893836      36.893836      36.893836    
    685000   0.57808894    -7.647515      -6.7803939      5.0030202      50218.233      36.893836      36.893836      36.893836    
    686000   0.57639981    -7.6509504     -6.786363       4.9637226      50218.233      36.893836      36.893836      36.893836    
    687000   0.57416934    -7.6511191     -6.7898773      4.968577       50218.233      36.893836      36.893836      36.893836    
    688000   0.57249489    -7.6540038     -6.7952736      4.9481599      50218.233      36.893836      36.893836      36.893836    
    689000   0.57464691    -7.6531515     -6.7911934      4.9630018      50218.233      36.893836      36.893836      36.893836    
    690000   0.57561269    -7.6534336     -6.7900269      4.9602561      50218.233      36.893836      36.893836      36.893836    
    691000   0.57247885    -7.6450771     -6.7863711      5.0134423      50218.233      36.893836      36.893836      36.893836    
    692000   0.5763638     -7.6476243     -6.7830909      4.9912415      50218.233      36.893836      36.893836      36.893836    
    693000   0.57414373    -7.648992      -6.7877887      4.9781605      50218.233      36.893836      36.893836      36.893836    
    694000   0.57567685    -7.6482471     -6.7847441      4.9842359      50218.233      36.893836      36.893836      36.893836    
    695000   0.57749405    -7.6517445     -6.7855157      4.9719543      50218.233      36.893836      36.893836      36.893836    
    696000   0.57431729    -7.6466108     -6.7851471      4.9995226      50218.233      36.893836      36.893836      36.893836    
    697000   0.57466655    -7.6469755     -6.7849879      4.9956056      50218.233      36.893836      36.893836      36.893836    
    698000   0.57523579    -7.6527393     -6.7898979      4.9589692      50218.233      36.893836      36.893836      36.893836    
    699000   0.57452892    -7.6555237     -6.7937426      4.9385097      50218.233      36.893836      36.893836      36.893836    
    700000   0.57438156    -7.655739      -6.7941789      4.9278675      50218.233      36.893836      36.893836      36.893836    
    701000   0.57915763    -7.6529092     -6.7841851      4.9631198      50218.233      36.893836      36.893836      36.893836    
    702000   0.576476      -7.6486205     -6.7839188      4.992567       50218.233      36.893836      36.893836      36.893836    
    703000   0.57347092    -7.6489395     -6.7887454      4.9967225      50218.233      36.893836      36.893836      36.893836    
    704000   0.57221489    -7.6516241     -6.793314       4.9681427      50218.233      36.893836      36.893836      36.893836    
    705000   0.57401022    -7.6501867     -6.7891837      4.9796664      50218.233      36.893836      36.893836      36.893836    
    706000   0.57258901    -7.6473446     -6.7884732      4.9855102      50218.233      36.893836      36.893836      36.893836    
    707000   0.57556314    -7.649152      -6.7858196      4.9850663      50218.233      36.893836      36.893836      36.893836    
    708000   0.57607663    -7.6459007     -6.781798       5.0135466      50218.233      36.893836      36.893836      36.893836    
    709000   0.57418436    -7.64974       -6.7884757      4.9711935      50218.233      36.893836      36.893836      36.893836    
    710000   0.57545942    -7.6494472     -6.7862704      4.9751806      50218.233      36.893836      36.893836      36.893836    
    711000   0.57708911    -7.6469236     -6.7813023      5.0010756      50218.233      36.893836      36.893836      36.893836    
    712000   0.57579701    -7.6488963     -6.7852131      4.9850091      50218.233      36.893836      36.893836      36.893836    
    713000   0.5758586     -7.6481185     -6.7843429      4.9889519      50218.233      36.893836      36.893836      36.893836    
    714000   0.57401187    -7.6518811     -6.7908756      4.9596337      50218.233      36.893836      36.893836      36.893836    
    715000   0.57468375    -7.6498862     -6.7878728      4.9797286      50218.233      36.893836      36.893836      36.893836    
    716000   0.574227      -7.6496549     -6.7883267      4.9720087      50218.233      36.893836      36.893836      36.893836    
    717000   0.57509435    -7.6480464     -6.7854171      4.9859151      50218.233      36.893836      36.893836      36.893836    
    718000   0.57376717    -7.6497605     -6.789122       4.9671964      50218.233      36.893836      36.893836      36.893836    
    719000   0.57090576    -7.6540475     -6.797701       4.9331397      50218.233      36.893836      36.893836      36.893836    
    720000   0.57558119    -7.6506432     -6.7872837      4.9608306      50218.233      36.893836      36.893836      36.893836    
    721000   0.57620132    -7.64893       -6.7846403      4.9822043      50218.233      36.893836      36.893836      36.893836    
    722000   0.57295552    -7.6471581     -6.7877371      4.9881827      50218.233      36.893836      36.893836      36.893836    
    723000   0.57349458    -7.6503301     -6.7901005      4.9678693      50218.233      36.893836      36.893836      36.893836    
    724000   0.57534604    -7.65002       -6.7870132      4.9864307      50218.233      36.893836      36.893836      36.893836    
    725000   0.57439898    -7.6500688     -6.7884826      4.9840635      50218.233      36.893836      36.893836      36.893836    
    726000   0.57376041    -7.6482651     -6.7876367      4.9835652      50218.233      36.893836      36.893836      36.893836    
    727000   0.57481228    -7.6466637     -6.7844575      4.984506       50218.233      36.893836      36.893836      36.893836    
    728000   0.57676672    -7.6481326     -6.7829949      4.9928189      50218.233      36.893836      36.893836      36.893836    
    729000   0.57693096    -7.6492521     -6.7838679      4.96994        50218.233      36.893836      36.893836      36.893836    
    730000   0.57233602    -7.6483583     -6.7898665      4.9789452      50218.233      36.893836      36.893836      36.893836    
    731000   0.57527859    -7.6491602     -6.7862546      4.9785363      50218.233      36.893836      36.893836      36.893836    
    732000   0.57373157    -7.6435582     -6.7829731      5.0161721      50218.233      36.893836      36.893836      36.893836    
    733000   0.57408095    -7.6479884     -6.7868792      4.9738172      50218.233      36.893836      36.893836      36.893836    
    734000   0.57577013    -7.6477083     -6.7840654      4.9916971      50218.233      36.893836      36.893836      36.893836    
    735000   0.5748598     -7.6437253     -6.7814478      5.0211337      50218.233      36.893836      36.893836      36.893836    
    736000   0.5732705     -7.6457021     -6.7858085      5.0041661      50218.233      36.893836      36.893836      36.893836    
    737000   0.57426278    -7.6446439     -6.783262       5.0233069      50218.233      36.893836      36.893836      36.893836    
    738000   0.57380628    -7.6478421     -6.7871449      4.9899267      50218.233      36.893836      36.893836      36.893836    
    739000   0.57536629    -7.6473397     -6.7843025      5.0039425      50218.233      36.893836      36.893836      36.893836    
    740000   0.57458794    -7.6458928     -6.7840231      5.0126253      50218.233      36.893836      36.893836      36.893836    
    741000   0.57253289    -7.6464383     -6.7876512      5.0060039      50218.233      36.893836      36.893836      36.893836    
    742000   0.57652859    -7.6475474     -6.7827668      4.9957399      50218.233      36.893836      36.893836      36.893836    
    743000   0.57567015    -7.6469608     -6.7834678      4.9951794      50218.233      36.893836      36.893836      36.893836    
    744000   0.57557164    -7.6485958     -6.7852506      4.9854245      50218.233      36.893836      36.893836      36.893836    
    745000   0.57400058    -7.6512644     -6.7902758      4.9683342      50218.233      36.893836      36.893836      36.893836    
    746000   0.57390354    -7.6494174     -6.7885743      4.9734058      50218.233      36.893836      36.893836      36.893836    
    747000   0.57836974    -7.6504523     -6.78291        4.9740549      50218.233      36.893836      36.893836      36.893836    
    748000   0.57172986    -7.6497536     -6.792171       4.9806279      50218.233      36.893836      36.893836      36.893836    
    749000   0.57598125    -7.6488388     -6.7848792      4.9902884      50218.233      36.893836      36.893836      36.893836    
    750000   0.57730338    -7.6488706     -6.7829278      4.984137       50218.233      36.893836      36.893836      36.893836    
    751000   0.57554983    -7.6529986     -6.7896861      4.9501695      50218.233      36.893836      36.893836      36.893836    
    752000   0.57571197    -7.6518607     -6.788305       4.9723038      50218.233      36.893836      36.893836      36.893836    
    753000   0.57564683    -7.6506426     -6.7871847      4.9676193      50218.233      36.893836      36.893836      36.893836    
    754000   0.57451825    -7.6475495     -6.7857844      4.980852       50218.233      36.893836      36.893836      36.893836    
    755000   0.57379724    -7.6516308     -6.7909472      4.9544325      50218.233      36.893836      36.893836      36.893836    
    756000   0.57719119    -7.6488815     -6.783107       4.9795637      50218.233      36.893836      36.893836      36.893836    
    757000   0.57295317    -7.6514141     -6.7919966      4.9587901      50218.233      36.893836      36.893836      36.893836    
    758000   0.57413239    -7.651758      -6.7905716      4.9701457      50218.233      36.893836      36.893836      36.893836    
    759000   0.57320962    -7.6511185     -6.7913163      4.9640608      50218.233      36.893836      36.893836      36.893836    
    760000   0.57593792    -7.6505568     -6.7866623      4.9712706      50218.233      36.893836      36.893836      36.893836    
    761000   0.57632581    -7.6454797     -6.7810033      5.007196       50218.233      36.893836      36.893836      36.893836    
    762000   0.5764297     -7.6515056     -6.7868734      4.9685462      50218.233      36.893836      36.893836      36.893836    
    763000   0.57561045    -7.6534398     -6.7900365      4.9566784      50218.233      36.893836      36.893836      36.893836    
    764000   0.57274752    -7.6474615     -6.7883525      4.9939072      50218.233      36.893836      36.893836      36.893836    
    765000   0.57811792    -7.6510235     -6.7838589      4.9762749      50218.233      36.893836      36.893836      36.893836    
    766000   0.57584676    -7.6472724     -6.7835146      4.9965007      50218.233      36.893836      36.893836      36.893836    
    767000   0.57394178    -7.6444807     -6.7835803      5.0118576      50218.233      36.893836      36.893836      36.893836    
    768000   0.57468514    -7.6498906     -6.7878752      4.983554       50218.233      36.893836      36.893836      36.893836    
    769000   0.57619762    -7.6477132     -6.7834291      4.9865282      50218.233      36.893836      36.893836      36.893836    
    770000   0.57411839    -7.6487815     -6.7876162      4.9832586      50218.233      36.893836      36.893836      36.893836    
    771000   0.5759304     -7.6510256     -6.7871423      4.9804297      50218.233      36.893836      36.893836      36.893836    
    772000   0.57213745    -7.6448837     -6.7866897      5.016232       50218.233      36.893836      36.893836      36.893836    
    773000   0.57163053    -7.6457557     -6.7883221      4.9953126      50218.233      36.893836      36.893836      36.893836    
    774000   0.57552323    -7.6437391     -6.7804665      5.0171246      50218.233      36.893836      36.893836      36.893836    
    775000   0.57752321    -7.6497589     -6.7834864      4.9851458      50218.233      36.893836      36.893836      36.893836    
    776000   0.57519499    -7.6493921     -6.7866119      4.9847119      50218.233      36.893836      36.893836      36.893836    
    777000   0.57278077    -7.6494585     -6.7902995      4.9851341      50218.233      36.893836      36.893836      36.893836    
    778000   0.57334255    -7.6475286     -6.787527       4.9944782      50218.233      36.893836      36.893836      36.893836    
    779000   0.5735518     -7.6468354     -6.7865199      4.9966114      50218.233      36.893836      36.893836      36.893836    
    780000   0.57659214    -7.6517968     -6.7869209      4.9656569      50218.233      36.893836      36.893836      36.893836    
    781000   0.57585471    -7.6481227     -6.7843529      4.9853173      50218.233      36.893836      36.893836      36.893836    
    782000   0.57454782    -7.6530376     -6.7912281      4.9582773      50218.233      36.893836      36.893836      36.893836    
    783000   0.57731603    -7.649976      -6.7840143      4.9802508      50218.233      36.893836      36.893836      36.893836    
    784000   0.5747292     -7.6474171     -6.7853356      5.0077724      50218.233      36.893836      36.893836      36.893836    
    785000   0.57534334    -7.6482734     -6.7852707      4.9882212      50218.233      36.893836      36.893836      36.893836    
    786000   0.57452344    -7.6511775     -6.7894046      4.9697707      50218.233      36.893836      36.893836      36.893836    
    787000   0.57558739    -7.650446      -6.7870772      4.9732681      50218.233      36.893836      36.893836      36.893836    
    788000   0.57331699    -7.6525116     -6.7925484      4.9658874      50218.233      36.893836      36.893836      36.893836    
    789000   0.57469768    -7.6490394     -6.7870051      4.9730005      50218.233      36.893836      36.893836      36.893836    
    790000   0.57644949    -7.6474352     -6.7827733      4.9899303      50218.233      36.893836      36.893836      36.893836    
    791000   0.57539548    -7.6551573     -6.7920764      4.9373974      50218.233      36.893836      36.893836      36.893836    
    792000   0.57435708    -7.6549969     -6.7934735      4.9302159      50218.233      36.893836      36.893836      36.893836    
    793000   0.57556026    -7.6492104     -6.7858823      4.9849842      50218.233      36.893836      36.893836      36.893836    
    794000   0.57674312    -7.6457568     -6.7806544      5.0156613      50218.233      36.893836      36.893836      36.893836    
    795000   0.57794465    -7.6560731     -6.7891685      4.9295066      50218.233      36.893836      36.893836      36.893836    
    796000   0.57508093    -7.6562704     -6.7936613      4.920507       50218.233      36.893836      36.893836      36.893836    
    797000   0.57110918    -7.6551908     -6.7985392      4.9230811      50218.233      36.893836      36.893836      36.893836    
    798000   0.5752037     -7.652042      -6.7892487      4.9615836      50218.233      36.893836      36.893836      36.893836    
    799000   0.57479566    -7.6498005     -6.7876193      4.978837       50218.233      36.893836      36.893836      36.893836    
    800000   0.57573954    -7.6468681     -6.783271       4.9986707      50218.233      36.893836      36.893836      36.893836    
    801000   0.57515152    -7.6494513     -6.7867363      4.9851201      50218.233      36.893836      36.893836      36.893836    
    802000   0.57595607    -7.6479712     -6.7840494      4.9887003      50218.233      36.893836      36.893836      36.893836    
    803000   0.5735331     -7.6532599     -6.7929725      4.9407165      50218.233      36.893836      36.893836      36.893836    
    804000   0.57675934    -7.6453058     -6.7801791      5.0038354      50218.233      36.893836      36.893836      36.893836    
    805000   0.57541967    -7.6475233     -6.7844061      4.9825668      50218.233      36.893836      36.893836      36.893836    
    806000   0.57389045    -7.6494345     -6.788611       4.9733159      50218.233      36.893836      36.893836      36.893836    
    807000   0.57418105    -7.6469751     -6.7857158      4.9896691      50218.233      36.893836      36.893836      36.893836    
    808000   0.57497963    -7.6518007     -6.7893436      4.9654279      50218.233      36.893836      36.893836      36.893836    
    809000   0.57449458    -7.6468943     -6.7851647      4.9950361      50218.233      36.893836      36.893836      36.893836    
    810000   0.57640974    -7.6480081     -6.7834058      4.99486        50218.233      36.893836      36.893836      36.893836    
    811000   0.57415685    -7.6489686     -6.7877456      4.9822132      50218.233      36.893836      36.893836      36.893836    
    812000   0.57314229    -7.6486902     -6.788989       4.989183       50218.233      36.893836      36.893836      36.893836    
    813000   0.57787303    -7.6504864     -6.7836892      4.9725557      50218.233      36.893836      36.893836      36.893836    
    814000   0.574256      -7.6511881     -6.7898164      4.9660379      50218.233      36.893836      36.893836      36.893836    
    815000   0.57608621    -7.6473324     -6.7832154      4.9857817      50218.233      36.893836      36.893836      36.893836    
    816000   0.57237512    -7.646081      -6.7875305      4.9935643      50218.233      36.893836      36.893836      36.893836    
    817000   0.57519343    -7.6476368     -6.784859       4.9938273      50218.233      36.893836      36.893836      36.893836    
    818000   0.57553115    -7.6491167     -6.7858322      4.9904628      50218.233      36.893836      36.893836      36.893836    
    819000   0.57741252    -7.646108      -6.7800016      5.0036836      50218.233      36.893836      36.893836      36.893836    
    820000   0.57627448    -7.6497689     -6.7853695      4.9820225      50218.233      36.893836      36.893836      36.893836    
    821000   0.57387207    -7.6496529     -6.788857       4.9764112      50218.233      36.893836      36.893836      36.893836    
    822000   0.57228474    -7.6526015     -6.7941866      4.9575556      50218.233      36.893836      36.893836      36.893836    
    823000   0.5759939     -7.65243       -6.7884514      4.9616803      50218.233      36.893836      36.893836      36.893836    
    824000   0.57331286    -7.6492365     -6.7892794      4.9678915      50218.233      36.893836      36.893836      36.893836    
    825000   0.57543693    -7.6531749     -6.7900318      4.9579579      50218.233      36.893836      36.893836      36.893836    
    826000   0.5735179     -7.6482124     -6.7879477      4.9800183      50218.233      36.893836      36.893836      36.893836    
    827000   0.57424126    -7.6507377     -6.7893881      4.9702909      50218.233      36.893836      36.893836      36.893836    
    828000   0.57414236    -7.6493307     -6.7881294      4.9858982      50218.233      36.893836      36.893836      36.893836    
    829000   0.57537233    -7.6491889     -6.7861427      4.9708575      50218.233      36.893836      36.893836      36.893836    
    830000   0.57510101    -7.6444773     -6.7818381      5.0042752      50218.233      36.893836      36.893836      36.893836    
    831000   0.57368628    -7.6499576     -6.7894404      4.980911       50218.233      36.893836      36.893836      36.893836    
    832000   0.57551714    -7.6486209     -6.7853575      4.9874067      50218.233      36.893836      36.893836      36.893836    
    833000   0.57252451    -7.6490597     -6.7902851      4.9801043      50218.233      36.893836      36.893836      36.893836    
    834000   0.57691282    -7.6495956     -6.7842387      4.9874875      50218.233      36.893836      36.893836      36.893836    
    835000   0.57488636    -7.6474693     -6.785152       4.991639       50218.233      36.893836      36.893836      36.893836    
    836000   0.57608797    -7.6491823     -6.7850626      4.986062       50218.233      36.893836      36.893836      36.893836    
    837000   0.57660789    -7.6441186     -6.7792191      5.0320732      50218.233      36.893836      36.893836      36.893836    
    838000   0.57520128    -7.645304      -6.7825143      5.0142586      50218.233      36.893836      36.893836      36.893836    
    839000   0.57172344    -7.6462215     -6.7886485      5.000934       50218.233      36.893836      36.893836      36.893836    
    840000   0.57511166    -7.649856      -6.7872008      4.9788314      50218.233      36.893836      36.893836      36.893836    
    841000   0.5749792     -7.6505434     -6.7880869      4.9681678      50218.233      36.893836      36.893836      36.893836    
    842000   0.57539491    -7.648655      -6.7855749      5.0056109      50218.233      36.893836      36.893836      36.893836    
    843000   0.57740255    -7.6506632     -6.7845717      4.9762581      50218.233      36.893836      36.893836      36.893836    
    844000   0.57776177    -7.6510144     -6.7843841      4.9749331      50218.233      36.893836      36.893836      36.893836    
    845000   0.57594201    -7.6489536     -6.7850529      4.9906314      50218.233      36.893836      36.893836      36.893836    
    846000   0.5760785     -7.6486069     -6.7845014      4.9767577      50218.233      36.893836      36.893836      36.893836    
    847000   0.57729116    -7.6543794     -6.788455       4.9396404      50218.233      36.893836      36.893836      36.893836    
    848000   0.57153726    -7.6467848     -6.7894912      4.9877412      50218.233      36.893836      36.893836      36.893836    
    849000   0.57565197    -7.6475019     -6.7840362      4.9953713      50218.233      36.893836      36.893836      36.893836    
    850000   0.57412369    -7.645564      -6.7843907      4.9967323      50218.233      36.893836      36.893836      36.893836    
    851000   0.57462113    -7.6508637     -6.7889443      4.9746772      50218.233      36.893836      36.893836      36.893836    
    852000   0.57721745    -7.6497278     -6.783914       4.9788338      50218.233      36.893836      36.893836      36.893836    
    853000   0.57529467    -7.6464273     -6.7834976      4.9953682      50218.233      36.893836      36.893836      36.893836    
    854000   0.57443833    -7.6483568     -6.7867115      4.9768166      50218.233      36.893836      36.893836      36.893836    
    855000   0.57644505    -7.652173      -6.7875178      4.9486383      50218.233      36.893836      36.893836      36.893836    
    856000   0.57704382    -7.6509397     -6.7853863      4.9696045      50218.233      36.893836      36.893836      36.893836    
    857000   0.57644949    -7.6456767     -6.7810147      5.0014043      50218.233      36.893836      36.893836      36.893836    
    858000   0.57547915    -7.6498986     -6.7866921      4.9788908      50218.233      36.893836      36.893836      36.893836    
    859000   0.57786493    -7.6457597     -6.7789746      5.012888       50218.233      36.893836      36.893836      36.893836    
    860000   0.57755165    -7.6502136     -6.7838984      4.9720205      50218.233      36.893836      36.893836      36.893836    
    861000   0.57554696    -7.6511677     -6.7878596      4.9625044      50218.233      36.893836      36.893836      36.893836    
    862000   0.5765354     -7.6469945     -6.7822037      5.0122739      50218.233      36.893836      36.893836      36.893836    
    863000   0.57372956    -7.6452774     -6.7846953      5.0078035      50218.233      36.893836      36.893836      36.893836    
    864000   0.57571158    -7.6494531     -6.785898       4.9803885      50218.233      36.893836      36.893836      36.893836    
    865000   0.57311619    -7.6461265     -6.7864645      4.9947119      50218.233      36.893836      36.893836      36.893836    
    866000   0.57464796    -7.6491596     -6.7871999      4.9806379      50218.233      36.893836      36.893836      36.893836    
    867000   0.5726227     -7.6513139     -6.792392       4.9632016      50218.233      36.893836      36.893836      36.893836    
    868000   0.57531453    -7.6470445     -6.784085       4.9992399      50218.233      36.893836      36.893836      36.893836    
    869000   0.57971144    -7.6457424     -6.7761876      5.0043602      50218.233      36.893836      36.893836      36.893836    
    870000   0.57601926    -7.6418527     -6.7778361      5.0392261      50218.233      36.893836      36.893836      36.893836    
    871000   0.57689184    -7.644413      -6.7790875      5.0163516      50218.233      36.893836      36.893836      36.893836    
    872000   0.57403004    -7.646283      -6.7852501      5.0034791      50218.233      36.893836      36.893836      36.893836    
    873000   0.57447501    -7.6467835     -6.7850832      4.9900245      50218.233      36.893836      36.893836      36.893836    
    874000   0.57142126    -7.6450978     -6.7879781      5.0105035      50218.233      36.893836      36.893836      36.893836    
    875000   0.57802151    -7.6466993     -6.7796794      4.9993614      50218.233      36.893836      36.893836      36.893836    
    876000   0.57789201    -7.6468424     -6.7800167      5.0196851      50218.233      36.893836      36.893836      36.893836    
    877000   0.57461828    -7.6443646     -6.7824494      5.0136012      50218.233      36.893836      36.893836      36.893836    
    878000   0.57509787    -7.6451117     -6.7824772      5.0137074      50218.233      36.893836      36.893836      36.893836    
    879000   0.57336017    -7.6479844     -6.7879564      4.9872346      50218.233      36.893836      36.893836      36.893836    
    880000   0.57781593    -7.6445966     -6.777885       5.0152202      50218.233      36.893836      36.893836      36.893836    
    881000   0.57568429    -7.6469763     -6.7834622      5.0063856      50218.233      36.893836      36.893836      36.893836    
    882000   0.57267253    -7.647094      -6.7880974      4.9927414      50218.233      36.893836      36.893836      36.893836    
    883000   0.57512562    -7.6509028     -6.7882267      4.9781281      50218.233      36.893836      36.893836      36.893836    
    884000   0.57572738    -7.6479088     -6.7843301      5.0056006      50218.233      36.893836      36.893836      36.893836    
    885000   0.57637486    -7.6482989     -6.7837489      4.9901415      50218.233      36.893836      36.893836      36.893836    
    886000   0.57319321    -7.6474153     -6.7876377      4.9914749      50218.233      36.893836      36.893836      36.893836    
    887000   0.57344016    -7.6485387     -6.7883907      4.9928196      50218.233      36.893836      36.893836      36.893836    
    888000   0.57558656    -7.6519892     -6.7886216      4.9657256      50218.233      36.893836      36.893836      36.893836    
    889000   0.57422463    -7.6529726     -6.7916479      4.9625801      50218.233      36.893836      36.893836      36.893836    
    890000   0.57697325    -7.651883      -6.7864354      4.9755561      50218.233      36.893836      36.893836      36.893836    
    891000   0.57607535    -7.6499974     -6.7858967      4.976668       50218.233      36.893836      36.893836      36.893836    
    892000   0.57433705    -7.6474232     -6.7859298      4.9948755      50218.233      36.893836      36.893836      36.893836    
    893000   0.57730812    -7.6500211     -6.7840713      4.9836701      50218.233      36.893836      36.893836      36.893836    
    894000   0.57612931    -7.6511643     -6.7869826      4.9724468      50218.233      36.893836      36.893836      36.893836    
    895000   0.57299517    -7.6469117     -6.7874312      4.9973965      50218.233      36.893836      36.893836      36.893836    
    896000   0.57636544    -7.649746      -6.7852102      4.9864434      50218.233      36.893836      36.893836      36.893836    
    897000   0.5742558     -7.6502143     -6.7888428      4.9800675      50218.233      36.893836      36.893836      36.893836    
    898000   0.57500692    -7.6501751     -6.787677       4.9667055      50218.233      36.893836      36.893836      36.893836    
    899000   0.57326797    -7.6454848     -6.7855951      5.0147619      50218.233      36.893836      36.893836      36.893836    
    900000   0.57524186    -7.6464236     -6.7835731      5.008181       50218.233      36.893836      36.893836      36.893836    
    901000   0.57273178    -7.6507134     -6.7916279      4.977453       50218.233      36.893836      36.893836      36.893836    
    902000   0.57440629    -7.6507059     -6.7891087      4.9737705      50218.233      36.893836      36.893836      36.893836    
    903000   0.57602875    -7.6477726     -6.7837417      4.998973       50218.233      36.893836      36.893836      36.893836    
    904000   0.57236336    -7.6514857     -6.7929528      4.9584206      50218.233      36.893836      36.893836      36.893836    
    905000   0.57804829    -7.6454624     -6.7784023      5.0163257      50218.233      36.893836      36.893836      36.893836    
    906000   0.57232404    -7.6518409     -6.7933671      4.962605       50218.233      36.893836      36.893836      36.893836    
    907000   0.57334762    -7.6482523     -6.7882431      4.9894212      50218.233      36.893836      36.893836      36.893836    
    908000   0.57663663    -7.653259      -6.7883164      4.9579535      50218.233      36.893836      36.893836      36.893836    
    909000   0.58054332    -7.6453991     -6.7745965      5.0090636      50218.233      36.893836      36.893836      36.893836    
    910000   0.5764904     -7.6497819     -6.7850586      4.9734506      50218.233      36.893836      36.893836      36.893836    
    911000   0.57604373    -7.650779      -6.7867257      4.9769295      50218.233      36.893836      36.893836      36.893836    
    912000   0.57560072    -7.6500399     -6.7866511      4.9789898      50218.233      36.893836      36.893836      36.893836    
    913000   0.57230223    -7.6509147     -6.7924735      4.965934       50218.233      36.893836      36.893836      36.893836    
    914000   0.57357048    -7.6512872     -6.7909437      4.9671273      50218.233      36.893836      36.893836      36.893836    
    915000   0.57480492    -7.6470323     -6.7848372      5.0001397      50218.233      36.893836      36.893836      36.893836    
    916000   0.57600901    -7.6513849     -6.7873836      4.9586048      50218.233      36.893836      36.893836      36.893836    
    917000   0.57431656    -7.6536662     -6.7922036      4.9618202      50218.233      36.893836      36.893836      36.893836    
    918000   0.5771315     -7.6517835     -6.7860985      4.9635915      50218.233      36.893836      36.893836      36.893836    
    919000   0.57457233    -7.6511739     -6.7893277      4.971168       50218.233      36.893836      36.893836      36.893836    
    920000   0.57397569    -7.6503533     -6.7894021      4.9827191      50218.233      36.893836      36.893836      36.893836    
    921000   0.57532111    -7.6528726     -6.7899032      4.9576966      50218.233      36.893836      36.893836      36.893836    
    922000   0.57378728    -7.6486353     -6.7879667      4.9822106      50218.233      36.893836      36.893836      36.893836    
    923000   0.57525925    -7.6489371     -6.7860605      4.9815392      50218.233      36.893836      36.893836      36.893836    
    924000   0.57366681    -7.6444619     -6.7839739      5.0147124      50218.233      36.893836      36.893836      36.893836    
    925000   0.57509897    -7.6460044     -6.7833682      5.0039236      50218.233      36.893836      36.893836      36.893836    
    926000   0.57760863    -7.6495933     -6.7831926      4.985093       50218.233      36.893836      36.893836      36.893836    
    927000   0.57489547    -7.645809      -6.7834781      5.0076893      50218.233      36.893836      36.893836      36.893836    
    928000   0.57391421    -7.6497044     -6.7888453      4.9717256      50218.233      36.893836      36.893836      36.893836    
    929000   0.57377646    -7.6429247     -6.7822723      5.025951       50218.233      36.893836      36.893836      36.893836    
    930000   0.57649213    -7.645938      -6.7812121      5.0076386      50218.233      36.893836      36.893836      36.893836    
    931000   0.57409039    -7.6472276     -6.7861042      4.992075       50218.233      36.893836      36.893836      36.893836    
    932000   0.5774183     -7.6499695     -6.7838543      4.9764412      50218.233      36.893836      36.893836      36.893836    
    933000   0.57541618    -7.646696      -6.783584       4.9993816      50218.233      36.893836      36.893836      36.893836    
    934000   0.5738167     -7.643949      -6.7832362      5.0221371      50218.233      36.893836      36.893836      36.893836    
    935000   0.57828746    -7.6471034     -6.7796846      4.991435       50218.233      36.893836      36.893836      36.893836    
    936000   0.575174      -7.6517685     -6.7890198      4.9699803      50218.233      36.893836      36.893836      36.893836    
    937000   0.57492119    -7.6488127     -6.7864432      4.9897096      50218.233      36.893836      36.893836      36.893836    
    938000   0.57378468    -7.6490133     -6.7883485      4.9809208      50218.233      36.893836      36.893836      36.893836    
    939000   0.57551096    -7.6508973     -6.7876432      4.9676014      50218.233      36.893836      36.893836      36.893836    
    940000   0.57930131    -7.6464273     -6.7774878      5.0056233      50218.233      36.893836      36.893836      36.893836    
    941000   0.57849377    -7.6448917     -6.7771634      5.0166965      50218.233      36.893836      36.893836      36.893836    
    942000   0.5702358     -7.6513879     -6.7960463      4.9550889      50218.233      36.893836      36.893836      36.893836    
    943000   0.57231633    -7.6468995     -6.7884373      4.9989463      50218.233      36.893836      36.893836      36.893836    
    944000   0.57631021    -7.6531444     -6.7886914      4.9627469      50218.233      36.893836      36.893836      36.893836    
    945000   0.57546512    -7.6522418     -6.7890564      4.9597099      50218.233      36.893836      36.893836      36.893836    
    946000   0.5744086     -7.6506671     -6.7890665      4.9592199      50218.233      36.893836      36.893836      36.893836    
    947000   0.57525423    -7.6512627     -6.7883936      4.973955       50218.233      36.893836      36.893836      36.893836    
    948000   0.57139042    -7.6524448     -6.7953714      4.9644645      50218.233      36.893836      36.893836      36.893836    
    949000   0.57426945    -7.650588      -6.7891961      4.9782644      50218.233      36.893836      36.893836      36.893836    
    950000   0.57652964    -7.6491874     -6.7844052      4.9904322      50218.233      36.893836      36.893836      36.893836    
    951000   0.57737737    -7.6572176     -6.7911638      4.9351393      50218.233      36.893836      36.893836      36.893836    
    952000   0.57662506    -7.6556402     -6.7907149      4.9430698      50218.233      36.893836      36.893836      36.893836    
    953000   0.57340336    -7.6475921     -6.7874993      4.9965552      50218.233      36.893836      36.893836      36.893836    
    954000   0.57605964    -7.6473163     -6.7832392      4.9977         50218.233      36.893836      36.893836      36.893836    
    955000   0.57413666    -7.6482463     -6.7870536      4.9851007      50218.233      36.893836      36.893836      36.893836    
    956000   0.57455627    -7.6515487     -6.7897265      4.968416       50218.233      36.893836      36.893836      36.893836    
    957000   0.5724464     -7.6480629     -6.7894055      5.0002247      50218.233      36.893836      36.893836      36.893836    
    958000   0.57303887    -7.6504353     -6.7908892      4.9603515      50218.233      36.893836      36.893836      36.893836    
    959000   0.57474803    -7.6478602     -6.7857504      5.0029565      50218.233      36.893836      36.893836      36.893836    
    960000   0.57582235    -7.6468592     -6.783138       5.0000078      50218.233      36.893836      36.893836      36.893836    
    961000   0.57703518    -7.6478408     -6.7823003      4.9908843      50218.233      36.893836      36.893836      36.893836    
    962000   0.57551938    -7.6498522     -6.7865854      4.9775662      50218.233      36.893836      36.893836      36.893836    
    963000   0.57748303    -7.6495042     -6.783292       4.9769193      50218.233      36.893836      36.893836      36.893836    
    964000   0.57327122    -7.6504601     -6.7905655      4.9732961      50218.233      36.893836      36.893836      36.893836    
    965000   0.57778462    -7.6498298     -6.7831652      4.9759395      50218.233      36.893836      36.893836      36.893836    
    966000   0.57218769    -7.6529235     -6.7946542      4.9482128      50218.233      36.893836      36.893836      36.893836    
    967000   0.5749632     -7.6500597     -6.7876272      4.96877        50218.233      36.893836      36.893836      36.893836    
    968000   0.57670241    -7.6498982     -6.7848569      4.9715049      50218.233      36.893836      36.893836      36.893836    
    969000   0.57611381    -7.648902      -6.7847436      4.9775378      50218.233      36.893836      36.893836      36.893836    
    970000   0.57254799    -7.651598      -6.7927882      4.9642515      50218.233      36.893836      36.893836      36.893836    
    971000   0.57509802    -7.6503669     -6.7877321      4.9647922      50218.233      36.893836      36.893836      36.893836    
    972000   0.57568706    -7.6500743     -6.786556       4.9878486      50218.233      36.893836      36.893836      36.893836    
    973000   0.57335041    -7.6471544     -6.7871411      5.005309       50218.233      36.893836      36.893836      36.893836    
    974000   0.57608038    -7.651824      -6.7877157      4.963284       50218.233      36.893836      36.893836      36.893836    
    975000   0.57656675    -7.6469939     -6.7821561      4.9911317      50218.233      36.893836      36.893836      36.893836    
    976000   0.57493454    -7.6510361     -6.7886466      4.9687455      50218.233      36.893836      36.893836      36.893836    
    977000   0.57582045    -7.6517444     -6.788026       4.967132       50218.233      36.893836      36.893836      36.893836    
    978000   0.57720931    -7.6477426     -6.7819409      4.9951383      50218.233      36.893836      36.893836      36.893836    
    979000   0.57559389    -7.6509239     -6.7875454      4.9767936      50218.233      36.893836      36.893836      36.893836    
    980000   0.57501301    -7.6463594     -6.7838522      4.9975488      50218.233      36.893836      36.893836      36.893836    
    981000   0.57647896    -7.6491969     -6.7844908      4.9856599      50218.233      36.893836      36.893836      36.893836    
    982000   0.57691051    -7.6546704     -6.7893169      4.944843       50218.233      36.893836      36.893836      36.893836    
    983000   0.57555122    -7.6510973     -6.7877828      4.9780704      50218.233      36.893836      36.893836      36.893836    
    984000   0.57419079    -7.6474765     -6.7862026      5.0024943      50218.233      36.893836      36.893836      36.893836    
    985000   0.57634242    -7.651328      -6.7868266      4.9630169      50218.233      36.893836      36.893836      36.893836    
    986000   0.57229223    -7.6444052     -6.7859791      5.0128947      50218.233      36.893836      36.893836      36.893836    
    987000   0.57540054    -7.6481118     -6.7850232      4.985453       50218.233      36.893836      36.893836      36.893836    
    988000   0.57514559    -7.6491563     -6.7864502      4.9863925      50218.233      36.893836      36.893836      36.893836    
    989000   0.57371549    -7.6481138     -6.7875528      4.9856022      50218.233      36.893836      36.893836      36.893836    
    990000   0.5766006     -7.6522953     -6.7874067      4.956807       50218.233      36.893836      36.893836      36.893836    
    991000   0.57295079    -7.6508324     -6.7914184      4.9628944      50218.233      36.893836      36.893836      36.893836    
    992000   0.57539954    -7.6478938     -6.7848068      4.988721       50218.233      36.893836      36.893836      36.893836    
    993000   0.57570714    -7.6489421     -6.7853936      4.9887228      50218.233      36.893836      36.893836      36.893836    
    994000   0.57624027    -7.65171       -6.7873619      4.9675554      50218.233      36.893836      36.893836      36.893836    
    995000   0.57528799    -7.6482645     -6.7853448      4.9919991      50218.233      36.893836      36.893836      36.893836    
    996000   0.57717138    -7.6475436     -6.7817988      4.988802       50218.233      36.893836      36.893836      36.893836    
    997000   0.57518186    -7.6538419     -6.7910813      4.9488286      50218.233      36.893836      36.893836      36.893836    
    998000   0.5720632     -7.6516727     -6.7935901      4.9577977      50218.233      36.893836      36.893836      36.893836    
    999000   0.57296643    -7.6517055     -6.7922681      4.9444079      50218.233      36.893836      36.893836      36.893836    
   1000000   0.57747928    -7.6549468     -6.7887402      4.9419599      50218.233      36.893836      36.893836      36.893836    
Loop time of 4323.44 on 1 procs for 1000000 steps with 70304 atoms

Performance: 199840.833 tau/day, 231.297 timesteps/s, 16.261 Matom-step/s
100.0% CPU use with 1 MPI tasks x 1 OpenMP threads

MPI task timing breakdown:
Section |  min time  |  avg time  |  max time  |%varavg| %total
---------------------------------------------------------------
Pair    | 1024.9     | 1024.9     | 1024.9     |   0.0 | 23.71
Neigh   | 42.219     | 42.219     | 42.219     |   0.0 |  0.98
Comm    | 534.73     | 534.73     | 534.73     |   0.0 | 12.37
Output  | 0.74809    | 0.74809    | 0.74809    |   0.0 |  0.02
Modify  | 2277.7     | 2277.7     | 2277.7     |   0.0 | 52.68
Other   |            | 443.1      |            |       | 10.25

Nlocal:          70304 ave       70304 max       70304 min
Histogram: 1 0 0 0 0 0 0 0 0 0
Nghost:          37148 ave       37148 max       37148 min
Histogram: 1 0 0 0 0 0 0 0 0 0
Neighs:              0 ave           0 max           0 min
Histogram: 1 0 0 0 0 0 0 0 0 0

Total # of neighbors = 0
Ave neighs/atom = 0
Neighbor list builds = 223783
Dangerous builds = 0
clear
OMP_NUM_THREADS environment is not set. Defaulting to 1 thread. (src/comm.cpp:98)
  using 1 OpenMP thread(s) per MPI task
package gpu 0
jump dms570.lmp

variable T equal 570
# T = 1000* (temp in LJ unit)
variable f equal 1000
log log.${T}
log log.570
