variable TLJ equal (${T}/1000)
variable TLJ equal (605/1000)
variable NCyle equal 10
variable iStep equal (${f})
variable iStep equal (1000)
variable dumpStep equal (${f}*100)
variable dumpStep equal (1000*100)
variable runStep equal (${f}*100*${NCyle})
variable runStep equal (1000*100*${NCyle})
variable runStep equal (1000*100*10)

units       lj
atom_style  atomic
dimension 3
boundary     p p p
pair_style  lj/cut 2.5
read_data  ../data/T${T}.dat
read_data  ../data/T605.dat
Reading data file ...
  orthogonal box = (0.97250269 0.97250269 0.97250269) to (37.866338 37.866338 37.866338)
  1 by 1 by 1 MPI processor grid
  reading atoms ...
  70304 atoms
  reading velocities ...
  70304 velocities
  read_data CPU = 0.224 seconds
change_box all triclinic
Changing box ...
  triclinic box = (0.97250269 0.97250269 0.97250269) to (37.866338 37.866338 37.866338) with tilt (0 0 0)
mass 1 1
mass 2 1
pair_modify shift yes
pair_coeff  1 1 1 1
pair_coeff  1 2 1.5 0.8
pair_coeff  2 2 0.5 0.88


timestep 0.01
thermo ${iStep}
thermo 1000
reset_timestep 0
thermo_style custom step temp pe etotal press vol lx ly lz
fix             1 all nvt temp ${TLJ}  ${TLJ}  0.1
fix             1 all nvt temp 0.605  ${TLJ}  0.1
fix             1 all nvt temp 0.605  0.605  0.1
thermo_modify flush yes

fix dsf all deform 1 xy  wiggle 0.5  ${f}   units box
fix dsf all deform 1 xy  wiggle 0.5  1000   units box
fix ps1 all ave/time 1 1 ${iStep} c_thermo_press[1] c_thermo_press[2]  c_thermo_press[3] c_thermo_press[4]  c_thermo_press[5] c_thermo_press[6]  file  stress.${T}
fix ps1 all ave/time 1 1 1000 c_thermo_press[1] c_thermo_press[2]  c_thermo_press[3] c_thermo_press[4]  c_thermo_press[5] c_thermo_press[6]  file  stress.${T}
fix ps1 all ave/time 1 1 1000 c_thermo_press[1] c_thermo_press[2]  c_thermo_press[3] c_thermo_press[4]  c_thermo_press[5] c_thermo_press[6]  file  stress.605
dump            1 all custom ${dumpStep} dump.${T} id type x y z
dump            1 all custom 100000 dump.${T} id type x y z
dump            1 all custom 100000 dump.605 id type x y z
dump_modify 1 sort id
fix nodrift all momentum 1  linear 1 1 1
fix com_seed all recenter INIT INIT INIT shift all
run ${runStep}
run 1000000
Generated 0 of 1 mixed pair_coeff terms from geometric mixing rule
Per MPI rank memory allocation (min/avg/max) = 21.18 | 21.18 | 21.18 Mbytes
   Step          Temp          PotEng         TotEng         Press          Volume           Lx             Ly             Lz      
         0   0.60600726    -7.5980425     -6.6890446      5.407415       50218.233      36.893836      36.893836      36.893836    
      1000   0.60257012    -7.5898854     -6.6860431      5.4470987      50218.233      36.893836      36.893836      36.893836    
      2000   0.60216428    -7.5866511     -6.6834175      5.479646       50218.233      36.893836      36.893836      36.893836    
      3000   0.60557897    -7.5845055     -6.67615        5.4976596      50218.233      36.893836      36.893836      36.893836    
      4000   0.60642964    -7.5855333     -6.6759018      5.5010876      50218.233      36.893836      36.893836      36.893836    
      5000   0.60272136    -7.588117      -6.6840478      5.4700362      50218.233      36.893836      36.893836      36.893836    
      6000   0.60160287    -7.5878362     -6.6854448      5.4687168      50218.233      36.893836      36.893836      36.893836    
      7000   0.59878025    -7.5859914     -6.6878338      5.4936656      50218.233      36.893836      36.893836      36.893836    
      8000   0.60543614    -7.5892049     -6.6810636      5.4700664      50218.233      36.893836      36.893836      36.893836    
      9000   0.6046653     -7.5868866     -6.6799016      5.4857259      50218.233      36.893836      36.893836      36.893836    
     10000   0.60657197    -7.5795424     -6.6696974      5.5365117      50218.233      36.893836      36.893836      36.893836    
     11000   0.6039649     -7.5885419     -6.6826074      5.4661287      50218.233      36.893836      36.893836      36.893836    
     12000   0.60604438    -7.5860651     -6.6770115      5.4870213      50218.233      36.893836      36.893836      36.893836    
     13000   0.6046416     -7.5881279     -6.6811784      5.4753885      50218.233      36.893836      36.893836      36.893836    
     14000   0.60167565    -7.5859828     -6.6834822      5.4717387      50218.233      36.893836      36.893836      36.893836    
     15000   0.6033004     -7.5889702     -6.6840324      5.4708971      50218.233      36.893836      36.893836      36.893836    
     16000   0.60915949    -7.5897332     -6.676007       5.4580235      50218.233      36.893836      36.893836      36.893836    
     17000   0.60759959    -7.5861738     -6.6747873      5.4880329      50218.233      36.893836      36.893836      36.893836    
     18000   0.60556578    -7.5847343     -6.6763985      5.5005478      50218.233      36.893836      36.893836      36.893836    
     19000   0.60512657    -7.5896761     -6.6819992      5.4697083      50218.233      36.893836      36.893836      36.893836    
     20000   0.60446319    -7.5892642     -6.6825823      5.474444       50218.233      36.893836      36.893836      36.893836    
     21000   0.60242245    -7.5902219     -6.6866011      5.450066       50218.233      36.893836      36.893836      36.893836    
     22000   0.60571241    -7.5909116     -6.6823559      5.4669214      50218.233      36.893836      36.893836      36.893836    
     23000   0.60541485    -7.5839943     -6.675885       5.5051312      50218.233      36.893836      36.893836      36.893836    
     24000   0.60104955    -7.5911832     -6.6896217      5.4372435      50218.233      36.893836      36.893836      36.893836    
     25000   0.60440252    -7.5864085     -6.6798176      5.4729964      50218.233      36.893836      36.893836      36.893836    
     26000   0.60560661    -7.5865654     -6.6781684      5.4809144      50218.233      36.893836      36.893836      36.893836    
     27000   0.60431334    -7.5913851     -6.6849279      5.452661       50218.233      36.893836      36.893836      36.893836    
     28000   0.60396419    -7.5869353     -6.6810019      5.482355       50218.233      36.893836      36.893836      36.893836    
     29000   0.60303416    -7.5891943     -6.6846559      5.453591       50218.233      36.893836      36.893836      36.893836    
     30000   0.60438935    -7.5894301     -6.6828589      5.4612672      50218.233      36.893836      36.893836      36.893836    
     31000   0.60835239    -7.5853281     -6.6728125      5.5005742      50218.233      36.893836      36.893836      36.893836    
     32000   0.60510042    -7.5898801     -6.6822424      5.4647242      50218.233      36.893836      36.893836      36.893836    
     33000   0.60443225    -7.5912135     -6.684578       5.4532842      50218.233      36.893836      36.893836      36.893836    
     34000   0.60368458    -7.5864701     -6.6809561      5.4840981      50218.233      36.893836      36.893836      36.893836    
     35000   0.60565474    -7.5869703     -6.6785011      5.4884133      50218.233      36.893836      36.893836      36.893836    
     36000   0.60765217    -7.5934903     -6.682025       5.4370367      50218.233      36.893836      36.893836      36.893836    
     37000   0.60311735    -7.590566      -6.6859029      5.4544672      50218.233      36.893836      36.893836      36.893836    
     38000   0.60592012    -7.5863407     -6.6774734      5.5011541      50218.233      36.893836      36.893836      36.893836    
     39000   0.60441847    -7.5876086     -6.6809938      5.4841557      50218.233      36.893836      36.893836      36.893836    
     40000   0.6073075     -7.5868398     -6.6758915      5.4782136      50218.233      36.893836      36.893836      36.893836    
     41000   0.60406893    -7.5879064     -6.6818159      5.4864641      50218.233      36.893836      36.893836      36.893836    
     42000   0.60214517    -7.5845493     -6.6813444      5.4914637      50218.233      36.893836      36.893836      36.893836    
     43000   0.60769812    -7.5799521     -6.6684179      5.5378427      50218.233      36.893836      36.893836      36.893836    
     44000   0.60707762    -7.5853924     -6.6747889      5.4975907      50218.233      36.893836      36.893836      36.893836    
     45000   0.6088115     -7.5841806     -6.6709763      5.5068912      50218.233      36.893836      36.893836      36.893836    
     46000   0.60774669    -7.5830924     -6.6714853      5.5108714      50218.233      36.893836      36.893836      36.893836    
     47000   0.60434496    -7.5859847     -6.6794801      5.4967178      50218.233      36.893836      36.893836      36.893836    
     48000   0.60662756    -7.5843318     -6.6744034      5.5010512      50218.233      36.893836      36.893836      36.893836    
     49000   0.61070626    -7.5871065     -6.6710601      5.4864195      50218.233      36.893836      36.893836      36.893836    
     50000   0.60672253    -7.5844249     -6.674354       5.5031128      50218.233      36.893836      36.893836      36.893836    
     51000   0.60522051    -7.5856289     -6.677811       5.4981653      50218.233      36.893836      36.893836      36.893836    
     52000   0.60499955    -7.588702      -6.6812156      5.4682479      50218.233      36.893836      36.893836      36.893836    
     53000   0.60397057    -7.5843188     -6.6783758      5.4934461      50218.233      36.893836      36.893836      36.893836    
     54000   0.60919439    -7.5842779     -6.6704993      5.5100831      50218.233      36.893836      36.893836      36.893836    
     55000   0.60777709    -7.5848232     -6.6731705      5.4896177      50218.233      36.893836      36.893836      36.893836    
     56000   0.60667637    -7.5863598     -6.6763582      5.4879282      50218.233      36.893836      36.893836      36.893836    
     57000   0.60416374    -7.5863604     -6.6801277      5.4780696      50218.233      36.893836      36.893836      36.893836    
     58000   0.60887355    -7.5889575     -6.6756602      5.4764006      50218.233      36.893836      36.893836      36.893836    
     59000   0.60615414    -7.5868132     -6.6775949      5.4800653      50218.233      36.893836      36.893836      36.893836    
     60000   0.60823817    -7.5857633     -6.6734191      5.494624       50218.233      36.893836      36.893836      36.893836    
     61000   0.60520827    -7.5887952     -6.6809957      5.4836238      50218.233      36.893836      36.893836      36.893836    
     62000   0.60119584    -7.5881067     -6.6863258      5.4501745      50218.233      36.893836      36.893836      36.893836    
     63000   0.60599627    -7.5907188     -6.6817374      5.4502668      50218.233      36.893836      36.893836      36.893836    
     64000   0.60415951    -7.5895148     -6.6832885      5.4607874      50218.233      36.893836      36.893836      36.893836    
     65000   0.60318982    -7.5838107     -6.6790389      5.5046057      50218.233      36.893836      36.893836      36.893836    
     66000   0.60597872    -7.5869215     -6.6779663      5.4828053      50218.233      36.893836      36.893836      36.893836    
     67000   0.60073667    -7.5874363     -6.6863441      5.4737762      50218.233      36.893836      36.893836      36.893836    
     68000   0.60578631    -7.5818746     -6.673208       5.5232915      50218.233      36.893836      36.893836      36.893836    
     69000   0.60766081    -7.5854768     -6.6739985      5.4830276      50218.233      36.893836      36.893836      36.893836    
     70000   0.60414864    -7.5854028     -6.6791927      5.4870781      50218.233      36.893836      36.893836      36.893836    
     71000   0.60737526    -7.5897048     -6.6786549      5.4607713      50218.233      36.893836      36.893836      36.893836    
     72000   0.60749569    -7.584095      -6.6728645      5.5030166      50218.233      36.893836      36.893836      36.893836    
     73000   0.6036403     -7.5886504     -6.6832028      5.4632386      50218.233      36.893836      36.893836      36.893836    
     74000   0.60376457    -7.5975147     -6.6918807      5.3990841      50218.233      36.893836      36.893836      36.893836    
     75000   0.60666023    -7.5834357     -6.6734583      5.5228259      50218.233      36.893836      36.893836      36.893836    
     76000   0.60385382    -7.5844836     -6.6787157      5.5087065      50218.233      36.893836      36.893836      36.893836    
     77000   0.60112366    -7.5888837     -6.6872111      5.4634168      50218.233      36.893836      36.893836      36.893836    
     78000   0.60647548    -7.5898058     -6.6801055      5.4734715      50218.233      36.893836      36.893836      36.893836    
     79000   0.60549917    -7.5851995     -6.6769637      5.5045092      50218.233      36.893836      36.893836      36.893836    
     80000   0.60203785    -7.5861985     -6.6831546      5.4905525      50218.233      36.893836      36.893836      36.893836    
     81000   0.60672936    -7.5858272     -6.6757461      5.5075933      50218.233      36.893836      36.893836      36.893836    
     82000   0.60643106    -7.5853674     -6.6757338      5.4957303      50218.233      36.893836      36.893836      36.893836    
     83000   0.6051875     -7.5852147     -6.6774463      5.4936313      50218.233      36.893836      36.893836      36.893836    
     84000   0.60288593    -7.5880601     -6.683744       5.4692575      50218.233      36.893836      36.893836      36.893836    
     85000   0.60690147    -7.58888       -6.6785407      5.4642365      50218.233      36.893836      36.893836      36.893836    
     86000   0.60398014    -7.5879206     -6.6819633      5.467892       50218.233      36.893836      36.893836      36.893836    
     87000   0.60413756    -7.5876007     -6.6814073      5.4703894      50218.233      36.893836      36.893836      36.893836    
     88000   0.60340021    -7.5864536     -6.6813661      5.4753406      50218.233      36.893836      36.893836      36.893836    
     89000   0.60322214    -7.5852044     -6.6803841      5.5023795      50218.233      36.893836      36.893836      36.893836    
     90000   0.6027581     -7.5820876     -6.6779633      5.5150447      50218.233      36.893836      36.893836      36.893836    
     91000   0.60296462    -7.5783357     -6.6739016      5.54323        50218.233      36.893836      36.893836      36.893836    
     92000   0.6031434     -7.5868099     -6.6821076      5.4725031      50218.233      36.893836      36.893836      36.893836    
     93000   0.60569774    -7.5844117     -6.675878       5.500615       50218.233      36.893836      36.893836      36.893836    
     94000   0.6031849     -7.5916879     -6.6869234      5.4423917      50218.233      36.893836      36.893836      36.893836    
     95000   0.60339969    -7.5835743     -6.6784877      5.5155978      50218.233      36.893836      36.893836      36.893836    
     96000   0.60580955    -7.5872281     -6.6785267      5.4840077      50218.233      36.893836      36.893836      36.893836    
     97000   0.60202376    -7.5852299     -6.6822071      5.4827127      50218.233      36.893836      36.893836      36.893836    
     98000   0.60559224    -7.5841688     -6.6757933      5.4928316      50218.233      36.893836      36.893836      36.893836    
     99000   0.60624003    -7.5868692     -6.6775221      5.4805959      50218.233      36.893836      36.893836      36.893836    
    100000   0.60531462    -7.5919698     -6.6840108      5.4509187      50218.233      36.893836      36.893836      36.893836    
    101000   0.60324447    -7.5930535     -6.6881997      5.4242634      50218.233      36.893836      36.893836      36.893836    
    102000   0.60340644    -7.5907156     -6.6856188      5.4498473      50218.233      36.893836      36.893836      36.893836    
    103000   0.60713295    -7.5854959     -6.6748094      5.4935045      50218.233      36.893836      36.893836      36.893836    
    104000   0.60539228    -7.5870477     -6.6789722      5.4915831      50218.233      36.893836      36.893836      36.893836    
    105000   0.60544293    -7.5909494     -6.682798       5.463501       50218.233      36.893836      36.893836      36.893836    
    106000   0.6048998     -7.590538      -6.6832012      5.459276       50218.233      36.893836      36.893836      36.893836    
    107000   0.60595195    -7.5945611     -6.6856461      5.429426       50218.233      36.893836      36.893836      36.893836    
    108000   0.60290974    -7.5886678     -6.6843161      5.4677443      50218.233      36.893836      36.893836      36.893836    
    109000   0.6044259     -7.5865225     -6.6798966      5.4879989      50218.233      36.893836      36.893836      36.893836    
    110000   0.60383622    -7.5914659     -6.6857245      5.4414717      50218.233      36.893836      36.893836      36.893836    
    111000   0.60559133    -7.5851457     -6.6767716      5.4998357      50218.233      36.893836      36.893836      36.893836    
    112000   0.60649045    -7.5919981     -6.6822753      5.466807       50218.233      36.893836      36.893836      36.893836    
    113000   0.60444463    -7.5852541     -6.6786         5.4912993      50218.233      36.893836      36.893836      36.893836    
    114000   0.60513721    -7.5875706     -6.6798777      5.4923846      50218.233      36.893836      36.893836      36.893836    
    115000   0.60507625    -7.5846247     -6.6770233      5.5043162      50218.233      36.893836      36.893836      36.893836    
    116000   0.60443277    -7.5914262     -6.6847899      5.4423935      50218.233      36.893836      36.893836      36.893836    
    117000   0.6068501     -7.5939026     -6.6836404      5.4361699      50218.233      36.893836      36.893836      36.893836    
    118000   0.60278087    -7.5873203     -6.6831619      5.4840284      50218.233      36.893836      36.893836      36.893836    
    119000   0.60641961    -7.5879694     -6.678353       5.4810963      50218.233      36.893836      36.893836      36.893836    
    120000   0.60384425    -7.5864103     -6.6806568      5.490544       50218.233      36.893836      36.893836      36.893836    
    121000   0.6068862     -7.5884564     -6.6781401      5.4728753      50218.233      36.893836      36.893836      36.893836    
    122000   0.604139      -7.5887403     -6.6825447      5.4644589      50218.233      36.893836      36.893836      36.893836    
    123000   0.6047884     -7.5812704     -6.6741007      5.5242578      50218.233      36.893836      36.893836      36.893836    
    124000   0.60483899    -7.5817131     -6.6744676      5.5268081      50218.233      36.893836      36.893836      36.893836    
    125000   0.60586691    -7.5828376     -6.6740502      5.5196998      50218.233      36.893836      36.893836      36.893836    
    126000   0.6064442     -7.589572      -6.6799187      5.4818696      50218.233      36.893836      36.893836      36.893836    
    127000   0.60517974    -7.5894499     -6.6816932      5.4673012      50218.233      36.893836      36.893836      36.893836    
    128000   0.60396744    -7.5842063     -6.678268       5.5088893      50218.233      36.893836      36.893836      36.893836    
    129000   0.60237199    -7.5811012     -6.6775561      5.5190716      50218.233      36.893836      36.893836      36.893836    
    130000   0.60529928    -7.5875657     -6.6796296      5.4726304      50218.233      36.893836      36.893836      36.893836    
    131000   0.60085662    -7.5817411     -6.6804689      5.5071797      50218.233      36.893836      36.893836      36.893836    
    132000   0.60707186    -7.5872172     -6.6766223      5.4885152      50218.233      36.893836      36.893836      36.893836    
    133000   0.60519451    -7.5884142     -6.6806353      5.4829198      50218.233      36.893836      36.893836      36.893836    
    134000   0.60244999    -7.590505      -6.6868429      5.4512267      50218.233      36.893836      36.893836      36.893836    
    135000   0.60657918    -7.5826539     -6.6727981      5.5244919      50218.233      36.893836      36.893836      36.893836    
    136000   0.60721693    -7.5914183     -6.6806059      5.4471953      50218.233      36.893836      36.893836      36.893836    
    137000   0.60770179    -7.5842007     -6.672661       5.5021621      50218.233      36.893836      36.893836      36.893836    
    138000   0.60541653    -7.5911213     -6.6830095      5.4638505      50218.233      36.893836      36.893836      36.893836    
    139000   0.60221952    -7.5850391     -6.6817227      5.4973761      50218.233      36.893836      36.893836      36.893836    
    140000   0.60641582    -7.5838648     -6.674254       5.5081076      50218.233      36.893836      36.893836      36.893836    
    141000   0.60459713    -7.5855311     -6.6786483      5.4919262      50218.233      36.893836      36.893836      36.893836    
    142000   0.60481681    -7.5795448     -6.6723325      5.5306571      50218.233      36.893836      36.893836      36.893836    
    143000   0.60588968    -7.5884809     -6.6796593      5.4725845      50218.233      36.893836      36.893836      36.893836    
    144000   0.60403109    -7.5814907     -6.6754569      5.5358679      50218.233      36.893836      36.893836      36.893836    
    145000   0.60385488    -7.5869124     -6.6811429      5.4820336      50218.233      36.893836      36.893836      36.893836    
    146000   0.605081      -7.5882151     -6.6806065      5.4610552      50218.233      36.893836      36.893836      36.893836    
    147000   0.60452378    -7.5830906     -6.6763178      5.5065124      50218.233      36.893836      36.893836      36.893836    
    148000   0.60438708    -7.5909614     -6.6843937      5.4450231      50218.233      36.893836      36.893836      36.893836    
    149000   0.60842744    -7.5863145     -6.6736863      5.4900561      50218.233      36.893836      36.893836      36.893836    
    150000   0.60456163    -7.5863022     -6.6794726      5.4867233      50218.233      36.893836      36.893836      36.893836    
    151000   0.60697647    -7.5840535     -6.6736017      5.5073544      50218.233      36.893836      36.893836      36.893836    
    152000   0.6058006     -7.5831146     -6.6744266      5.5153653      50218.233      36.893836      36.893836      36.893836    
    153000   0.60541316    -7.5819906     -6.6738837      5.5154577      50218.233      36.893836      36.893836      36.893836    
    154000   0.60642024    -7.5848276     -6.6752102      5.4908532      50218.233      36.893836      36.893836      36.893836    
    155000   0.60526668    -7.5862057     -6.6783186      5.4817681      50218.233      36.893836      36.893836      36.893836    
    156000   0.60450197    -7.5822501     -6.6755101      5.518257       50218.233      36.893836      36.893836      36.893836    
    157000   0.60156334    -7.5861301     -6.6837979      5.477316       50218.233      36.893836      36.893836      36.893836    
    158000   0.60463709    -7.5838564     -6.6769136      5.5013904      50218.233      36.893836      36.893836      36.893836    
    159000   0.60517374    -7.5829482     -6.6752005      5.5017702      50218.233      36.893836      36.893836      36.893836    
    160000   0.60363077    -7.586647      -6.6812137      5.4877423      50218.233      36.893836      36.893836      36.893836    
    161000   0.606245      -7.5826049     -6.6732503      5.5124241      50218.233      36.893836      36.893836      36.893836    
    162000   0.60463148    -7.584646      -6.6777117      5.4987229      50218.233      36.893836      36.893836      36.893836    
    163000   0.60434804    -7.5821489     -6.6756397      5.5200929      50218.233      36.893836      36.893836      36.893836    
    164000   0.60640133    -7.5829192     -6.6733301      5.5165401      50218.233      36.893836      36.893836      36.893836    
    165000   0.60829396    -7.5795995     -6.6671715      5.5469958      50218.233      36.893836      36.893836      36.893836    
    166000   0.60480536    -7.5834481     -6.6762529      5.5021824      50218.233      36.893836      36.893836      36.893836    
    167000   0.6063839     -7.5893306     -6.6797677      5.4741854      50218.233      36.893836      36.893836      36.893836    
    168000   0.60471395    -7.5834063     -6.6763482      5.505551       50218.233      36.893836      36.893836      36.893836    
    169000   0.60617472    -7.5875528     -6.6783036      5.4761271      50218.233      36.893836      36.893836      36.893836    
    170000   0.60216169    -7.5866974     -6.6834677      5.4942026      50218.233      36.893836      36.893836      36.893836    
    171000   0.60607083    -7.5842214     -6.675128       5.5017057      50218.233      36.893836      36.893836      36.893836    
    172000   0.60667369    -7.5859393     -6.6759417      5.4957633      50218.233      36.893836      36.893836      36.893836    
    173000   0.60464176    -7.583983      -6.6770333      5.5036777      50218.233      36.893836      36.893836      36.893836    
    174000   0.60352556    -7.5863343     -6.6810588      5.4949671      50218.233      36.893836      36.893836      36.893836    
    175000   0.60557571    -7.5807403     -6.6723896      5.5315587      50218.233      36.893836      36.893836      36.893836    
    176000   0.60063499    -7.5837115     -6.6827718      5.5045175      50218.233      36.893836      36.893836      36.893836    
    177000   0.60677053    -7.5879103     -6.6777674      5.4796354      50218.233      36.893836      36.893836      36.893836    
    178000   0.60624877    -7.5865162     -6.677156       5.4935375      50218.233      36.893836      36.893836      36.893836    
    179000   0.6055636     -7.5847468     -6.6764144      5.5071106      50218.233      36.893836      36.893836      36.893836    
    180000   0.60764282    -7.5827947     -6.6713435      5.5170334      50218.233      36.893836      36.893836      36.893836    
    181000   0.60568111    -7.582045      -6.6735362      5.5196292      50218.233      36.893836      36.893836      36.893836    
    182000   0.60112512    -7.583683      -6.6820082      5.4993085      50218.233      36.893836      36.893836      36.893836    
    183000   0.60561646    -7.5800567     -6.6716449      5.5269689      50218.233      36.893836      36.893836      36.893836    
    184000   0.60591796    -7.5859118     -6.6770478      5.4989773      50218.233      36.893836      36.893836      36.893836    
    185000   0.60597031    -7.5866058     -6.6776633      5.4813972      50218.233      36.893836      36.893836      36.893836    
    186000   0.60246355    -7.5918994     -6.6882169      5.4539115      50218.233      36.893836      36.893836      36.893836    
    187000   0.60497013    -7.5889292     -6.6814869      5.4792561      50218.233      36.893836      36.893836      36.893836    
    188000   0.60457852    -7.5862421     -6.6793872      5.4880349      50218.233      36.893836      36.893836      36.893836    
    189000   0.6041173     -7.5836312     -6.6774682      5.5146492      50218.233      36.893836      36.893836      36.893836    
    190000   0.60073142    -7.5889557     -6.6878713      5.4496072      50218.233      36.893836      36.893836      36.893836    
    191000   0.60523601    -7.5868471     -6.679006       5.4759828      50218.233      36.893836      36.893836      36.893836    
    192000   0.60465758    -7.5836766     -6.6767032      5.5103306      50218.233      36.893836      36.893836      36.893836    
    193000   0.60947321    -7.5874063     -6.6732095      5.4788847      50218.233      36.893836      36.893836      36.893836    
    194000   0.60660456    -7.5877113     -6.6778174      5.4919651      50218.233      36.893836      36.893836      36.893836    
    195000   0.60319942    -7.5898326     -6.6850464      5.4687053      50218.233      36.893836      36.893836      36.893836    
    196000   0.60551777    -7.5859151     -6.6776513      5.4911342      50218.233      36.893836      36.893836      36.893836    
    197000   0.60500895    -7.5897496     -6.6822491      5.4500411      50218.233      36.893836      36.893836      36.893836    
    198000   0.60398842    -7.5903289     -6.6843592      5.4579651      50218.233      36.893836      36.893836      36.893836    
    199000   0.60680372    -7.5887331     -6.6785404      5.462575       50218.233      36.893836      36.893836      36.893836    
    200000   0.60457267    -7.5902894     -6.6834433      5.4418752      50218.233      36.893836      36.893836      36.893836    
    201000   0.608302      -7.5899339     -6.6774938      5.4704785      50218.233      36.893836      36.893836      36.893836    
    202000   0.60488208    -7.586756      -6.6794458      5.4709961      50218.233      36.893836      36.893836      36.893836    
    203000   0.60851947    -7.5864072     -6.673641       5.4920854      50218.233      36.893836      36.893836      36.893836    
    204000   0.60367676    -7.5894101     -6.6839079      5.4625501      50218.233      36.893836      36.893836      36.893836    
    205000   0.60382328    -7.5925339     -6.6868119      5.4373635      50218.233      36.893836      36.893836      36.893836    
    206000   0.60653727    -7.586908      -6.677115       5.4811656      50218.233      36.893836      36.893836      36.893836    
    207000   0.60630403    -7.5858256     -6.6763825      5.4912745      50218.233      36.893836      36.893836      36.893836    
    208000   0.60172383    -7.5910686     -6.6884957      5.4534433      50218.233      36.893836      36.893836      36.893836    
    209000   0.60268564    -7.5930782     -6.6890626      5.4404253      50218.233      36.893836      36.893836      36.893836    
    210000   0.60264967    -7.5883988     -6.6844372      5.477244       50218.233      36.893836      36.893836      36.893836    
    211000   0.60533328    -7.5896131     -6.6816261      5.454105       50218.233      36.893836      36.893836      36.893836    
    212000   0.60590198    -7.5820357     -6.6731956      5.5167269      50218.233      36.893836      36.893836      36.893836    
    213000   0.60408809    -7.5884031     -6.6822838      5.4677086      50218.233      36.893836      36.893836      36.893836    
    214000   0.60614381    -7.5836588     -6.674456       5.5081401      50218.233      36.893836      36.893836      36.893836    
    215000   0.60612601    -7.5811018     -6.6719257      5.5260838      50218.233      36.893836      36.893836      36.893836    
    216000   0.605025      -7.5934699     -6.6859453      5.4344949      50218.233      36.893836      36.893836      36.893836    
    217000   0.60335167    -7.5876866     -6.682672       5.4852427      50218.233      36.893836      36.893836      36.893836    
    218000   0.60482259    -7.5874173     -6.6801964      5.4758817      50218.233      36.893836      36.893836      36.893836    
    219000   0.60319875    -7.588849      -6.6840638      5.4732791      50218.233      36.893836      36.893836      36.893836    
    220000   0.60456284    -7.5894917     -6.6826604      5.452474       50218.233      36.893836      36.893836      36.893836    
    221000   0.60404155    -7.5853657     -6.6793162      5.4845528      50218.233      36.893836      36.893836      36.893836    
    222000   0.60493258    -7.5863348     -6.6789489      5.4881586      50218.233      36.893836      36.893836      36.893836    
    223000   0.60555399    -7.5900455     -6.6817275      5.4622634      50218.233      36.893836      36.893836      36.893836    
    224000   0.60454642    -7.5886411     -6.6818344      5.4721998      50218.233      36.893836      36.893836      36.893836    
    225000   0.60485096    -7.5866595     -6.679396       5.4820729      50218.233      36.893836      36.893836      36.893836    
    226000   0.60418922    -7.5845664     -6.6782955      5.5011759      50218.233      36.893836      36.893836      36.893836    
    227000   0.60540067    -7.587914      -6.6798259      5.4821196      50218.233      36.893836      36.893836      36.893836    
    228000   0.60529505    -7.5840668     -6.6761371      5.4917786      50218.233      36.893836      36.893836      36.893836    
    229000   0.60482022    -7.5820967     -6.6748793      5.524792       50218.233      36.893836      36.893836      36.893836    
    230000   0.60575361    -7.589038      -6.6804205      5.4639544      50218.233      36.893836      36.893836      36.893836    
    231000   0.60653498    -7.5889016     -6.6791121      5.4679704      50218.233      36.893836      36.893836      36.893836    
    232000   0.60671383    -7.5846639     -6.6746061      5.5208992      50218.233      36.893836      36.893836      36.893836    
    233000   0.60438925    -7.5842486     -6.6776776      5.5129249      50218.233      36.893836      36.893836      36.893836    
    234000   0.60162158    -7.5885385     -6.6861189      5.469421       50218.233      36.893836      36.893836      36.893836    
    235000   0.60647988    -7.5820477     -6.6723408      5.5213602      50218.233      36.893836      36.893836      36.893836    
    236000   0.60313685    -7.5875421     -6.6828497      5.4797641      50218.233      36.893836      36.893836      36.893836    
    237000   0.60223489    -7.5849975     -6.6816581      5.4900295      50218.233      36.893836      36.893836      36.893836    
    238000   0.60300924    -7.5878432     -6.6833422      5.4678371      50218.233      36.893836      36.893836      36.893836    
    239000   0.60873683    -7.5832334     -6.6701411      5.5172677      50218.233      36.893836      36.893836      36.893836    
    240000   0.60476549    -7.5859904     -6.678855       5.4954864      50218.233      36.893836      36.893836      36.893836    
    241000   0.60614047    -7.5868672     -6.6776694      5.4908662      50218.233      36.893836      36.893836      36.893836    
    242000   0.60148061    -7.5833345     -6.6811264      5.499189       50218.233      36.893836      36.893836      36.893836    
    243000   0.60676785    -7.5747138     -6.664575       5.5744941      50218.233      36.893836      36.893836      36.893836    
    244000   0.60421552    -7.5798434     -6.673533       5.5286253      50218.233      36.893836      36.893836      36.893836    
    245000   0.60604534    -7.58882       -6.6797649      5.4701513      50218.233      36.893836      36.893836      36.893836    
    246000   0.60323934    -7.5795812     -6.6747351      5.5294891      50218.233      36.893836      36.893836      36.893836    
    247000   0.60431211    -7.5868097     -6.6803544      5.4890008      50218.233      36.893836      36.893836      36.893836    
    248000   0.60614531    -7.5834092     -6.6742042      5.519255       50218.233      36.893836      36.893836      36.893836    
    249000   0.60357384    -7.5824163     -6.6770684      5.5167118      50218.233      36.893836      36.893836      36.893836    
    250000   0.60504375    -7.5854983     -6.6779456      5.4902687      50218.233      36.893836      36.893836      36.893836    
    251000   0.60689407    -7.581644      -6.6713158      5.5246857      50218.233      36.893836      36.893836      36.893836    
    252000   0.60624841    -7.5833729     -6.6740132      5.516653       50218.233      36.893836      36.893836      36.893836    
    253000   0.60475817    -7.5881894     -6.6810651      5.4736424      50218.233      36.893836      36.893836      36.893836    
    254000   0.60063561    -7.5810579     -6.6801173      5.5247966      50218.233      36.893836      36.893836      36.893836    
    255000   0.60652623    -7.5812568     -6.6714804      5.5208148      50218.233      36.893836      36.893836      36.893836    
    256000   0.60514355    -7.5794225     -6.6717201      5.5341151      50218.233      36.893836      36.893836      36.893836    
    257000   0.60833661    -7.5862871     -6.6737952      5.4983761      50218.233      36.893836      36.893836      36.893836    
    258000   0.60814285    -7.5826806     -6.6704793      5.5149399      50218.233      36.893836      36.893836      36.893836    
    259000   0.60619204    -7.5854221     -6.676147       5.5000988      50218.233      36.893836      36.893836      36.893836    
    260000   0.60289781    -7.591479      -6.6871452      5.4449949      50218.233      36.893836      36.893836      36.893836    
    261000   0.60291244    -7.5890403     -6.6846845      5.457721       50218.233      36.893836      36.893836      36.893836    
    262000   0.60413072    -7.5858658     -6.6796826      5.4904874      50218.233      36.893836      36.893836      36.893836    
    263000   0.60795871    -7.5833629     -6.6714378      5.5103371      50218.233      36.893836      36.893836      36.893836    
    264000   0.60614016    -7.5841806     -6.6749833      5.5103727      50218.233      36.893836      36.893836      36.893836    
    265000   0.60255754    -7.583783      -6.6799595      5.5021537      50218.233      36.893836      36.893836      36.893836    
    266000   0.60522713    -7.5876125     -6.6797847      5.481142       50218.233      36.893836      36.893836      36.893836    
    267000   0.60360965    -7.5850972     -6.6796956      5.5092138      50218.233      36.893836      36.893836      36.893836    
    268000   0.60485273    -7.5813708     -6.6741046      5.5193938      50218.233      36.893836      36.893836      36.893836    
    269000   0.6047573     -7.5830462     -6.6759231      5.4986201      50218.233      36.893836      36.893836      36.893836    
    270000   0.60458731    -7.5862443     -6.6793763      5.5064693      50218.233      36.893836      36.893836      36.893836    
    271000   0.60885172    -7.5811943     -6.6679297      5.5273827      50218.233      36.893836      36.893836      36.893836    
    272000   0.60592101    -7.5837549     -6.6748863      5.5015255      50218.233      36.893836      36.893836      36.893836    
    273000   0.60554952    -7.5861571     -6.6778457      5.4935422      50218.233      36.893836      36.893836      36.893836    
    274000   0.60652737    -7.5816564     -6.6718783      5.5111658      50218.233      36.893836      36.893836      36.893836    
    275000   0.60633299    -7.5886207     -6.6791342      5.474586       50218.233      36.893836      36.893836      36.893836    
    276000   0.6041618     -7.5888955     -6.6826657      5.4839844      50218.233      36.893836      36.893836      36.893836    
    277000   0.60651974    -7.5803166     -6.67055        5.5299374      50218.233      36.893836      36.893836      36.893836    
    278000   0.6053934     -7.586704      -6.6786268      5.4873495      50218.233      36.893836      36.893836      36.893836    
    279000   0.60273383    -7.5824421     -6.6783542      5.5067775      50218.233      36.893836      36.893836      36.893836    
    280000   0.60530333    -7.5888315     -6.6808894      5.4830807      50218.233      36.893836      36.893836      36.893836    
    281000   0.60435642    -7.5857062     -6.6791844      5.5026925      50218.233      36.893836      36.893836      36.893836    
    282000   0.60632326    -7.5814768     -6.6720048      5.5379679      50218.233      36.893836      36.893836      36.893836    
    283000   0.60324003    -7.5825437     -6.6776965      5.5040462      50218.233      36.893836      36.893836      36.893836    
    284000   0.60232205    -7.583788      -6.6803177      5.511283       50218.233      36.893836      36.893836      36.893836    
    285000   0.60497663    -7.584062      -6.6766099      5.5117382      50218.233      36.893836      36.893836      36.893836    
    286000   0.60320175    -7.5871013     -6.6823115      5.4939462      50218.233      36.893836      36.893836      36.893836    
    287000   0.60642669    -7.5812872     -6.6716601      5.5182614      50218.233      36.893836      36.893836      36.893836    
    288000   0.60416169    -7.5842968     -6.6780671      5.5018668      50218.233      36.893836      36.893836      36.893836    
    289000   0.60571493    -7.5808621     -6.6723026      5.5378954      50218.233      36.893836      36.893836      36.893836    
    290000   0.60604537    -7.5863265     -6.6772713      5.4987823      50218.233      36.893836      36.893836      36.893836    
    291000   0.60451092    -7.5823932     -6.6756397      5.5161528      50218.233      36.893836      36.893836      36.893836    
    292000   0.60428669    -7.5797344     -6.6733173      5.5386479      50218.233      36.893836      36.893836      36.893836    
    293000   0.60674022    -7.5831536     -6.6730562      5.5155344      50218.233      36.893836      36.893836      36.893836    
    294000   0.60458384    -7.581877      -6.6750141      5.5320062      50218.233      36.893836      36.893836      36.893836    
    295000   0.6038486     -7.5813338     -6.6755738      5.523839       50218.233      36.893836      36.893836      36.893836    
    296000   0.60441461    -7.5803864     -6.6737774      5.5334426      50218.233      36.893836      36.893836      36.893836    
    297000   0.60781539    -7.5801523     -6.6684422      5.5416516      50218.233      36.893836      36.893836      36.893836    
    298000   0.60702799    -7.5808537     -6.6703247      5.5405836      50218.233      36.893836      36.893836      36.893836    
    299000   0.60431805    -7.578927      -6.6724628      5.5410559      50218.233      36.893836      36.893836      36.893836    
    300000   0.61078006    -7.5870048     -6.6708477      5.4859284      50218.233      36.893836      36.893836      36.893836    
    301000   0.60111548    -7.5882895     -6.6866291      5.471235       50218.233      36.893836      36.893836      36.893836    
    302000   0.60605969    -7.5867698     -6.6776932      5.5003586      50218.233      36.893836      36.893836      36.893836    
    303000   0.60589852    -7.5766474     -6.6678126      5.5563699      50218.233      36.893836      36.893836      36.893836    
    304000   0.60260975    -7.5818664     -6.6779647      5.5209416      50218.233      36.893836      36.893836      36.893836    
    305000   0.60527992    -7.5791017     -6.6711948      5.5426072      50218.233      36.893836      36.893836      36.893836    
    306000   0.607303      -7.5809106     -6.669969       5.5332873      50218.233      36.893836      36.893836      36.893836    
    307000   0.60393153    -7.5790931     -6.6732086      5.5437263      50218.233      36.893836      36.893836      36.893836    
    308000   0.60142014    -7.576471      -6.6743536      5.5624631      50218.233      36.893836      36.893836      36.893836    
    309000   0.60467499    -7.582771      -6.6757714      5.520008       50218.233      36.893836      36.893836      36.893836    
    310000   0.6029778     -7.5860232     -6.6815694      5.4888746      50218.233      36.893836      36.893836      36.893836    
    311000   0.60485195    -7.5824808     -6.6752157      5.5147071      50218.233      36.893836      36.893836      36.893836    
    312000   0.60298694    -7.5850095     -6.680542       5.5003946      50218.233      36.893836      36.893836      36.893836    
    313000   0.60504287    -7.5858566     -6.6783052      5.4961913      50218.233      36.893836      36.893836      36.893836    
    314000   0.60577682    -7.5812392     -6.6725869      5.5271919      50218.233      36.893836      36.893836      36.893836    
    315000   0.60424154    -7.5828655     -6.6765161      5.522904       50218.233      36.893836      36.893836      36.893836    
    316000   0.60521791    -7.5841176     -6.6763036      5.5144472      50218.233      36.893836      36.893836      36.893836    
    317000   0.60522134    -7.5818752     -6.674056       5.5212004      50218.233      36.893836      36.893836      36.893836    
    318000   0.60444727    -7.5836031     -6.6769451      5.495674       50218.233      36.893836      36.893836      36.893836    
    319000   0.60472241    -7.5841426     -6.6770719      5.4825059      50218.233      36.893836      36.893836      36.893836    
    320000   0.60317238    -7.5807934     -6.6760477      5.5291644      50218.233      36.893836      36.893836      36.893836    
    321000   0.6074693     -7.5792253     -6.6680343      5.5422761      50218.233      36.893836      36.893836      36.893836    
    322000   0.60731998    -7.5838032     -6.6728362      5.5094228      50218.233      36.893836      36.893836      36.893836    
    323000   0.60442731    -7.5847662     -6.6781381      5.4900001      50218.233      36.893836      36.893836      36.893836    
    324000   0.60580055    -7.58089       -6.6722021      5.5360671      50218.233      36.893836      36.893836      36.893836    
    325000   0.60198706    -7.5808102     -6.6778424      5.5187897      50218.233      36.893836      36.893836      36.893836    
    326000   0.60794108    -7.5865292     -6.6746306      5.4968963      50218.233      36.893836      36.893836      36.893836    
    327000   0.60447749    -7.5822444     -6.6755411      5.523677       50218.233      36.893836      36.893836      36.893836    
    328000   0.60712887    -7.5816609     -6.6709805      5.5421149      50218.233      36.893836      36.893836      36.893836    
    329000   0.60553394    -7.579117      -6.6708291      5.5509018      50218.233      36.893836      36.893836      36.893836    
    330000   0.60226536    -7.5808814     -6.6774962      5.5256239      50218.233      36.893836      36.893836      36.893836    
    331000   0.60378994    -7.5844248     -6.6787528      5.5058947      50218.233      36.893836      36.893836      36.893836    
    332000   0.6037975     -7.586928      -6.6812446      5.4806757      50218.233      36.893836      36.893836      36.893836    
    333000   0.60303136    -7.5823879     -6.6778538      5.5066968      50218.233      36.893836      36.893836      36.893836    
    334000   0.60556203    -7.582557      -6.6742269      5.5168237      50218.233      36.893836      36.893836      36.893836    
    335000   0.60580942    -7.5848796     -6.6761784      5.5003573      50218.233      36.893836      36.893836      36.893836    
    336000   0.60700314    -7.5832103     -6.6727186      5.5190996      50218.233      36.893836      36.893836      36.893836    
    337000   0.6059534     -7.5803891     -6.6714719      5.520804       50218.233      36.893836      36.893836      36.893836    
    338000   0.60290151    -7.579098      -6.6747586      5.5352699      50218.233      36.893836      36.893836      36.893836    
    339000   0.60495216    -7.5867826     -6.6793672      5.490266       50218.233      36.893836      36.893836      36.893836    
    340000   0.60277782    -7.5805403     -6.6763864      5.5315171      50218.233      36.893836      36.893836      36.893836    
    341000   0.60519191    -7.5836438     -6.6758689      5.5121181      50218.233      36.893836      36.893836      36.893836    
    342000   0.60797625    -7.582455      -6.6705036      5.5250152      50218.233      36.893836      36.893836      36.893836    
    343000   0.60711328    -7.5822378     -6.6715809      5.5122285      50218.233      36.893836      36.893836      36.893836    
    344000   0.6017158     -7.5826677     -6.6801069      5.5031002      50218.233      36.893836      36.893836      36.893836    
    345000   0.60468624    -7.5805234     -6.673507       5.5293923      50218.233      36.893836      36.893836      36.893836    
    346000   0.60425988    -7.5789037     -6.6725268      5.5408699      50218.233      36.893836      36.893836      36.893836    
    347000   0.60163789    -7.5840651     -6.681621       5.4997171      50218.233      36.893836      36.893836      36.893836    
    348000   0.60634815    -7.5835321     -6.6740229      5.506227       50218.233      36.893836      36.893836      36.893836    
    349000   0.60479893    -7.5803316     -6.6731461      5.5404581      50218.233      36.893836      36.893836      36.893836    
    350000   0.60541458    -7.579438      -6.6713291      5.5382293      50218.233      36.893836      36.893836      36.893836    
    351000   0.60392724    -7.5813351     -6.6754571      5.5119486      50218.233      36.893836      36.893836      36.893836    
    352000   0.60354537    -7.5774174     -6.6721122      5.5571985      50218.233      36.893836      36.893836      36.893836    
    353000   0.60601161    -7.5877227     -6.6787182      5.4609476      50218.233      36.893836      36.893836      36.893836    
    354000   0.60274238    -7.5836188     -6.6795181      5.5012493      50218.233      36.893836      36.893836      36.893836    
    355000   0.60625658    -7.5805395     -6.6711676      5.525582       50218.233      36.893836      36.893836      36.893836    
    356000   0.60809719    -7.5786876     -6.6665548      5.5374924      50218.233      36.893836      36.893836      36.893836    
    357000   0.60141522    -7.5795981     -6.6774881      5.5350542      50218.233      36.893836      36.893836      36.893836    
    358000   0.60452395    -7.5821029     -6.6753298      5.5142373      50218.233      36.893836      36.893836      36.893836    
    359000   0.60278832    -7.5843046     -6.680135       5.4926455      50218.233      36.893836      36.893836      36.893836    
    360000   0.60553821    -7.5747495     -6.6664551      5.5690855      50218.233      36.893836      36.893836      36.893836    
    361000   0.60092961    -7.5802546     -6.678873       5.5258363      50218.233      36.893836      36.893836      36.893836    
    362000   0.60586468    -7.5771738     -6.6683897      5.5571366      50218.233      36.893836      36.893836      36.893836    
    363000   0.60692339    -7.5819373     -6.6715651      5.5234844      50218.233      36.893836      36.893836      36.893836    
    364000   0.60519748    -7.5820288     -6.6742455      5.5251609      50218.233      36.893836      36.893836      36.893836    
    365000   0.60951281    -7.5842238     -6.6699676      5.5055807      50218.233      36.893836      36.893836      36.893836    
    366000   0.60522097    -7.583933      -6.6761144      5.498629       50218.233      36.893836      36.893836      36.893836    
    367000   0.60594593    -7.5815147     -6.6726087      5.5162166      50218.233      36.893836      36.893836      36.893836    
    368000   0.60747829    -7.5889915     -6.677787       5.4690548      50218.233      36.893836      36.893836      36.893836    
    369000   0.60515193    -7.5805337     -6.6728187      5.527312       50218.233      36.893836      36.893836      36.893836    
    370000   0.60651651    -7.5852728     -6.675511       5.5039377      50218.233      36.893836      36.893836      36.893836    
    371000   0.60588352    -7.5803697     -6.6715574      5.5350288      50218.233      36.893836      36.893836      36.893836    
    372000   0.60557843    -7.5845665     -6.6762118      5.5043804      50218.233      36.893836      36.893836      36.893836    
    373000   0.60549662    -7.5865971     -6.6783651      5.4866873      50218.233      36.893836      36.893836      36.893836    
    374000   0.60505673    -7.5875854     -6.6800132      5.4708277      50218.233      36.893836      36.893836      36.893836    
    375000   0.60618506    -7.5813697     -6.672105       5.5319274      50218.233      36.893836      36.893836      36.893836    
    376000   0.60574697    -7.5835684     -6.6749609      5.5173566      50218.233      36.893836      36.893836      36.893836    
    377000   0.60535659    -7.5786572     -6.6706352      5.5432428      50218.233      36.893836      36.893836      36.893836    
    378000   0.60528383    -7.5805141     -6.6726013      5.5325484      50218.233      36.893836      36.893836      36.893836    
    379000   0.60715483    -7.5772143     -6.666495       5.5618571      50218.233      36.893836      36.893836      36.893836    
    380000   0.60359433    -7.580079      -6.6747004      5.5325886      50218.233      36.893836      36.893836      36.893836    
    381000   0.60261305    -7.5802179     -6.6763112      5.5395906      50218.233      36.893836      36.893836      36.893836    
    382000   0.60210189    -7.5837752     -6.6806353      5.4848657      50218.233      36.893836      36.893836      36.893836    
    383000   0.60630728    -7.5872209     -6.6777729      5.4810403      50218.233      36.893836      36.893836      36.893836    
    384000   0.60773119    -7.5857282     -6.6741444      5.4898043      50218.233      36.893836      36.893836      36.893836    
    385000   0.60712187    -7.581231      -6.6705612      5.5237377      50218.233      36.893836      36.893836      36.893836    
    386000   0.60375933    -7.5846063     -6.6789802      5.4966787      50218.233      36.893836      36.893836      36.893836    
    387000   0.60316247    -7.5829136     -6.6781828      5.4973894      50218.233      36.893836      36.893836      36.893836    
    388000   0.60369442    -7.5815634     -6.6760347      5.5172389      50218.233      36.893836      36.893836      36.893836    
    389000   0.60568686    -7.5812065     -6.6726892      5.5290135      50218.233      36.893836      36.893836      36.893836    
    390000   0.60298319    -7.5874519     -6.68299        5.4804685      50218.233      36.893836      36.893836      36.893836    
    391000   0.60635442    -7.5813232     -6.6718045      5.5198695      50218.233      36.893836      36.893836      36.893836    
    392000   0.60733631    -7.5802675     -6.669276       5.5326595      50218.233      36.893836      36.893836      36.893836    
    393000   0.60784485    -7.5775037     -6.6657494      5.5580583      50218.233      36.893836      36.893836      36.893836    
    394000   0.60411861    -7.5818984     -6.6757334      5.5201684      50218.233      36.893836      36.893836      36.893836    
    395000   0.60517709    -7.5846545     -6.6769017      5.4909293      50218.233      36.893836      36.893836      36.893836    
    396000   0.6046768     -7.5870826     -6.6800803      5.4736643      50218.233      36.893836      36.893836      36.893836    
    397000   0.60728504    -7.580601      -6.6696863      5.531661       50218.233      36.893836      36.893836      36.893836    
    398000   0.60455203    -7.5833336     -6.6765185      5.5120995      50218.233      36.893836      36.893836      36.893836    
    399000   0.60206184    -7.5751083     -6.6720284      5.5477797      50218.233      36.893836      36.893836      36.893836    
    400000   0.60806184    -7.5864945     -6.6744148      5.4859345      50218.233      36.893836      36.893836      36.893836    
    401000   0.60706415    -7.5852721     -6.6746889      5.4850458      50218.233      36.893836      36.893836      36.893836    
    402000   0.60341072    -7.5806556     -6.6755523      5.529021       50218.233      36.893836      36.893836      36.893836    
    403000   0.60486732    -7.5826521     -6.675364       5.5173278      50218.233      36.893836      36.893836      36.893836    
    404000   0.60567923    -7.5827748     -6.6742689      5.5208366      50218.233      36.893836      36.893836      36.893836    
    405000   0.60574312    -7.5789585     -6.6703568      5.5429388      50218.233      36.893836      36.893836      36.893836    
    406000   0.60552323    -7.584076      -6.675804       5.4996471      50218.233      36.893836      36.893836      36.893836    
    407000   0.59976445    -7.5881919     -6.688558       5.4686304      50218.233      36.893836      36.893836      36.893836    
    408000   0.60527061    -7.5812376     -6.6733446      5.5230804      50218.233      36.893836      36.893836      36.893836    
    409000   0.60414647    -7.5804682     -6.6742614      5.5238886      50218.233      36.893836      36.893836      36.893836    
    410000   0.60619859    -7.5835545     -6.6742696      5.4924057      50218.233      36.893836      36.893836      36.893836    
    411000   0.60516935    -7.5812092     -6.6734681      5.5256521      50218.233      36.893836      36.893836      36.893836    
    412000   0.60424749    -7.5806774     -6.674319       5.5318807      50218.233      36.893836      36.893836      36.893836    
    413000   0.6023515     -7.5789888     -6.6754744      5.5254045      50218.233      36.893836      36.893836      36.893836    
    414000   0.60438027    -7.5834909     -6.6769334      5.5079231      50218.233      36.893836      36.893836      36.893836    
    415000   0.60655912    -7.5842935     -6.6744677      5.4945199      50218.233      36.893836      36.893836      36.893836    
    416000   0.60546396    -7.5794534     -6.6712704      5.5376298      50218.233      36.893836      36.893836      36.893836    
    417000   0.60307739    -7.5798797     -6.6752765      5.5279226      50218.233      36.893836      36.893836      36.893836    
    418000   0.60318561    -7.5823525     -6.6775869      5.524257       50218.233      36.893836      36.893836      36.893836    
    419000   0.60348243    -7.5847803     -6.6795695      5.50772        50218.233      36.893836      36.893836      36.893836    
    420000   0.60434507    -7.5824415     -6.6759368      5.5231692      50218.233      36.893836      36.893836      36.893836    
    421000   0.60575996    -7.5842838     -6.6756568      5.496452       50218.233      36.893836      36.893836      36.893836    
    422000   0.60601326    -7.5821085     -6.6731015      5.5094472      50218.233      36.893836      36.893836      36.893836    
    423000   0.60510871    -7.5810368     -6.6733866      5.52211        50218.233      36.893836      36.893836      36.893836    
    424000   0.60453708    -7.5875292     -6.6807364      5.4733322      50218.233      36.893836      36.893836      36.893836    
    425000   0.60361771    -7.5820353     -6.6766216      5.5228699      50218.233      36.893836      36.893836      36.893836    
    426000   0.60288889    -7.5834162     -6.6790958      5.5011656      50218.233      36.893836      36.893836      36.893836    
    427000   0.60447899    -7.5865162     -6.6798106      5.4922646      50218.233      36.893836      36.893836      36.893836    
    428000   0.60536024    -7.5854017     -6.6773742      5.4839694      50218.233      36.893836      36.893836      36.893836    
    429000   0.60358668    -7.5820884     -6.6767213      5.5053959      50218.233      36.893836      36.893836      36.893836    
    430000   0.60441902    -7.5817992     -6.6751836      5.5263287      50218.233      36.893836      36.893836      36.893836    
    431000   0.60123723    -7.5805194     -6.6786764      5.5459289      50218.233      36.893836      36.893836      36.893836    
    432000   0.60181825    -7.5847168     -6.6820023      5.5008143      50218.233      36.893836      36.893836      36.893836    
    433000   0.60458424    -7.5812769     -6.6744134      5.5177491      50218.233      36.893836      36.893836      36.893836    
    434000   0.60522908    -7.5797628     -6.6719321      5.5233436      50218.233      36.893836      36.893836      36.893836    
    435000   0.60486416    -7.5830532     -6.6757699      5.5241156      50218.233      36.893836      36.893836      36.893836    
    436000   0.60455355    -7.5842312     -6.6774137      5.5015803      50218.233      36.893836      36.893836      36.893836    
    437000   0.60307395    -7.5840185     -6.6794204      5.4967795      50218.233      36.893836      36.893836      36.893836    
    438000   0.60384646    -7.5827442     -6.6769873      5.5083285      50218.233      36.893836      36.893836      36.893836    
    439000   0.60654846    -7.5861285     -6.6763188      5.4929084      50218.233      36.893836      36.893836      36.893836    
    440000   0.60246004    -7.5866991     -6.6830219      5.4676443      50218.233      36.893836      36.893836      36.893836    
    441000   0.60461326    -7.5875796     -6.6806726      5.4789221      50218.233      36.893836      36.893836      36.893836    
    442000   0.60525872    -7.5871516     -6.6792765      5.4772079      50218.233      36.893836      36.893836      36.893836    
    443000   0.60673524    -7.578109      -6.6680191      5.5486792      50218.233      36.893836      36.893836      36.893836    
    444000   0.60422605    -7.5882828     -6.6819566      5.4689424      50218.233      36.893836      36.893836      36.893836    
    445000   0.60534908    -7.5768785     -6.6688678      5.5486291      50218.233      36.893836      36.893836      36.893836    
    446000   0.60437638    -7.5824771     -6.6759254      5.5071692      50218.233      36.893836      36.893836      36.893836    
    447000   0.60250767    -7.5797925     -6.6760438      5.530138       50218.233      36.893836      36.893836      36.893836    
    448000   0.60547568    -7.5851907     -6.6769901      5.4983491      50218.233      36.893836      36.893836      36.893836    
    449000   0.60510497    -7.5809942     -6.6733496      5.5253318      50218.233      36.893836      36.893836      36.893836    
    450000   0.60712266    -7.5871668     -6.6764957      5.481761       50218.233      36.893836      36.893836      36.893836    
    451000   0.60411578    -7.5794878     -6.673327       5.5321611      50218.233      36.893836      36.893836      36.893836    
    452000   0.60742196    -7.5869616     -6.6758416      5.4880462      50218.233      36.893836      36.893836      36.893836    
    453000   0.6066979     -7.576185      -6.6661511      5.5683257      50218.233      36.893836      36.893836      36.893836    
    454000   0.60772125    -7.5810711     -6.6695022      5.5297072      50218.233      36.893836      36.893836      36.893836    
    455000   0.60613606    -7.588937      -6.6797459      5.4644268      50218.233      36.893836      36.893836      36.893836    
    456000   0.60660242    -7.585684      -6.6757933      5.4853173      50218.233      36.893836      36.893836      36.893836    
    457000   0.60463547    -7.5802131     -6.6732728      5.5213582      50218.233      36.893836      36.893836      36.893836    
    458000   0.60716843    -7.5857624     -6.6750227      5.4978232      50218.233      36.893836      36.893836      36.893836    
    459000   0.60572391    -7.5821939     -6.673621       5.5086564      50218.233      36.893836      36.893836      36.893836    
    460000   0.60540554    -7.5853488     -6.6772534      5.4932159      50218.233      36.893836      36.893836      36.893836    
    461000   0.60748151    -7.5848509     -6.6736416      5.5011379      50218.233      36.893836      36.893836      36.893836    
    462000   0.60562634    -7.581007      -6.6725804      5.5268723      50218.233      36.893836      36.893836      36.893836    
    463000   0.60404212    -7.5831836     -6.6771333      5.5188976      50218.233      36.893836      36.893836      36.893836    
    464000   0.60278014    -7.5863896     -6.6822322      5.4843018      50218.233      36.893836      36.893836      36.893836    
    465000   0.60360768    -7.5859085     -6.6805098      5.4956231      50218.233      36.893836      36.893836      36.893836    
    466000   0.60185298    -7.5831951     -6.6804285      5.4968861      50218.233      36.893836      36.893836      36.893836    
    467000   0.60456496    -7.5851193     -6.6782847      5.4992565      50218.233      36.893836      36.893836      36.893836    
    468000   0.59950289    -7.5834251     -6.6841835      5.4997977      50218.233      36.893836      36.893836      36.893836    
    469000   0.60642854    -7.5820997     -6.6724698      5.5334518      50218.233      36.893836      36.893836      36.893836    
    470000   0.60750346    -7.5854774     -6.6742352      5.4994497      50218.233      36.893836      36.893836      36.893836    
    471000   0.60545588    -7.5864349     -6.678264       5.4846626      50218.233      36.893836      36.893836      36.893836    
    472000   0.60499854    -7.5837598     -6.676275       5.5011325      50218.233      36.893836      36.893836      36.893836    
    473000   0.60488645    -7.5850859     -6.6777691      5.4949058      50218.233      36.893836      36.893836      36.893836    
    474000   0.60741684    -7.5884776     -6.6773653      5.4768752      50218.233      36.893836      36.893836      36.893836    
    475000   0.60297121    -7.5892683     -6.6848243      5.4704565      50218.233      36.893836      36.893836      36.893836    
    476000   0.60436862    -7.586213      -6.679673       5.4965187      50218.233      36.893836      36.893836      36.893836    
    477000   0.60743899    -7.5828756     -6.6717301      5.5118785      50218.233      36.893836      36.893836      36.893836    
    478000   0.6070155     -7.5828519     -6.6723416      5.5084836      50218.233      36.893836      36.893836      36.893836    
    479000   0.60726709    -7.5798558     -6.6689681      5.5384303      50218.233      36.893836      36.893836      36.893836    
    480000   0.60376074    -7.5867204     -6.6810922      5.479041       50218.233      36.893836      36.893836      36.893836    
    481000   0.60550698    -7.5844775     -6.6762299      5.5036462      50218.233      36.893836      36.893836      36.893836    
    482000   0.60609446    -7.5813665     -6.6722378      5.5220015      50218.233      36.893836      36.893836      36.893836    
    483000   0.60203244    -7.5830529     -6.680017       5.4991273      50218.233      36.893836      36.893836      36.893836    
    484000   0.60619359    -7.5831721     -6.6738947      5.5156541      50218.233      36.893836      36.893836      36.893836    
    485000   0.60451966    -7.5860428     -6.6792763      5.4892684      50218.233      36.893836      36.893836      36.893836    
    486000   0.60294827    -7.5843324     -6.6799229      5.4918974      50218.233      36.893836      36.893836      36.893836    
    487000   0.60532549    -7.5833444     -6.6753691      5.5109115      50218.233      36.893836      36.893836      36.893836    
    488000   0.6054743     -7.5773818     -6.6691832      5.5484162      50218.233      36.893836      36.893836      36.893836    
    489000   0.60528469    -7.5784075     -6.6704934      5.5542443      50218.233      36.893836      36.893836      36.893836    
    490000   0.60548419    -7.5760824     -6.6678691      5.5645375      50218.233      36.893836      36.893836      36.893836    
    491000   0.60510117    -7.5768402     -6.6692014      5.5477718      50218.233      36.893836      36.893836      36.893836    
    492000   0.60266033    -7.5878813     -6.6839037      5.4782787      50218.233      36.893836      36.893836      36.893836    
    493000   0.60500121    -7.5824628     -6.6749739      5.5255143      50218.233      36.893836      36.893836      36.893836    
    494000   0.60575235    -7.5819722     -6.6733566      5.5237828      50218.233      36.893836      36.893836      36.893836    
    495000   0.60554091    -7.5760322     -6.6677338      5.563648       50218.233      36.893836      36.893836      36.893836    
    496000   0.60277721    -7.5786885     -6.6745355      5.5357172      50218.233      36.893836      36.893836      36.893836    
    497000   0.60534112    -7.5747306     -6.6667318      5.580124       50218.233      36.893836      36.893836      36.893836    
    498000   0.60253283    -7.5764685     -6.6726821      5.5659426      50218.233      36.893836      36.893836      36.893836    
    499000   0.60089192    -7.5798836     -6.6785585      5.5270548      50218.233      36.893836      36.893836      36.893836    
    500000   0.60725468    -7.5794281     -6.668559       5.5411361      50218.233      36.893836      36.893836      36.893836    
    501000   0.60680309    -7.5757427     -6.665551       5.5791733      50218.233      36.893836      36.893836      36.893836    
    502000   0.60640158    -7.5797379     -6.6701485      5.5353872      50218.233      36.893836      36.893836      36.893836    
    503000   0.60436874    -7.5800921     -6.6735518      5.5443323      50218.233      36.893836      36.893836      36.893836    
    504000   0.6049237     -7.5797736     -6.6724009      5.5431638      50218.233      36.893836      36.893836      36.893836    
    505000   0.60704629    -7.5814528     -6.6708963      5.5370601      50218.233      36.893836      36.893836      36.893836    
    506000   0.60548361    -7.5791595     -6.670947       5.5592296      50218.233      36.893836      36.893836      36.893836    
    507000   0.60749266    -7.5730406     -6.6618146      5.6061861      50218.233      36.893836      36.893836      36.893836    
    508000   0.60456897    -7.58392       -6.6770794      5.4934408      50218.233      36.893836      36.893836      36.893836    
    509000   0.60651546    -7.5774733     -6.6677131      5.5632684      50218.233      36.893836      36.893836      36.893836    
    510000   0.60533038    -7.5808902     -6.6729076      5.5308783      50218.233      36.893836      36.893836      36.893836    
    511000   0.6057787     -7.5849568     -6.6763017      5.4975595      50218.233      36.893836      36.893836      36.893836    
    512000   0.60414954    -7.5758404     -6.669629       5.5715593      50218.233      36.893836      36.893836      36.893836    
    513000   0.60710868    -7.5799265     -6.6692764      5.5338184      50218.233      36.893836      36.893836      36.893836    
    514000   0.60560706    -7.5818907     -6.673493       5.5259984      50218.233      36.893836      36.893836      36.893836    
    515000   0.60708064    -7.5844665     -6.6738585      5.5057857      50218.233      36.893836      36.893836      36.893836    
    516000   0.60535692    -7.5836487     -6.6756262      5.5075515      50218.233      36.893836      36.893836      36.893836    
    517000   0.60626316    -7.5831573     -6.6737755      5.5122543      50218.233      36.893836      36.893836      36.893836    
    518000   0.60785844    -7.5794277     -6.667653       5.5419129      50218.233      36.893836      36.893836      36.893836    
    519000   0.60625945    -7.5776352     -6.668259       5.5571662      50218.233      36.893836      36.893836      36.893836    
    520000   0.60315037    -7.5874944     -6.6827817      5.4770711      50218.233      36.893836      36.893836      36.893836    
    521000   0.60823229    -7.5781235     -6.6657881      5.5541384      50218.233      36.893836      36.893836      36.893836    
    522000   0.60370386    -7.5802023     -6.6746594      5.525276       50218.233      36.893836      36.893836      36.893836    
    523000   0.60278952    -7.5826687     -6.6784973      5.5038182      50218.233      36.893836      36.893836      36.893836    
    524000   0.60681705    -7.5836012     -6.6733885      5.5124774      50218.233      36.893836      36.893836      36.893836    
    525000   0.60644264    -7.577609      -6.667958       5.5504855      50218.233      36.893836      36.893836      36.893836    
    526000   0.60468998    -7.5788527     -6.6718307      5.5377335      50218.233      36.893836      36.893836      36.893836    
    527000   0.60716704    -7.5814151     -6.6706775      5.5250225      50218.233      36.893836      36.893836      36.893836    
    528000   0.60360372    -7.5738864     -6.6684937      5.5924189      50218.233      36.893836      36.893836      36.893836    
    529000   0.60408289    -7.5837459     -6.6776344      5.4949519      50218.233      36.893836      36.893836      36.893836    
    530000   0.60450441    -7.5864007     -6.679657       5.4842878      50218.233      36.893836      36.893836      36.893836    
    531000   0.60486882    -7.5900838     -6.6827935      5.469652       50218.233      36.893836      36.893836      36.893836    
    532000   0.60711744    -7.5821105     -6.6714473      5.522988       50218.233      36.893836      36.893836      36.893836    
    533000   0.60118239    -7.582353      -6.6805923      5.511637       50218.233      36.893836      36.893836      36.893836    
    534000   0.60441399    -7.5810423     -6.6744342      5.5293063      50218.233      36.893836      36.893836      36.893836    
    535000   0.60594217    -7.5891912     -6.6802909      5.4591281      50218.233      36.893836      36.893836      36.893836    
    536000   0.60668227    -7.583041      -6.6730305      5.4998158      50218.233      36.893836      36.893836      36.893836    
    537000   0.60627207    -7.5872049     -6.6778097      5.4838394      50218.233      36.893836      36.893836      36.893836    
    538000   0.60588497    -7.584278      -6.6754635      5.491742       50218.233      36.893836      36.893836      36.893836    
    539000   0.60604504    -7.5849071     -6.6758525      5.4838605      50218.233      36.893836      36.893836      36.893836    
    540000   0.60361629    -7.5851938     -6.6797822      5.5062134      50218.233      36.893836      36.893836      36.893836    
    541000   0.60338191    -7.5866472     -6.6815872      5.4830592      50218.233      36.893836      36.893836      36.893836    
    542000   0.60493449    -7.5911988     -6.68381        5.4501854      50218.233      36.893836      36.893836      36.893836    
    543000   0.60398711    -7.5876969     -6.6817291      5.4799804      50218.233      36.893836      36.893836      36.893836    
    544000   0.60437818    -7.5843912     -6.6778368      5.509902       50218.233      36.893836      36.893836      36.893836    
    545000   0.60624519    -7.5849128     -6.6755579      5.508412       50218.233      36.893836      36.893836      36.893836    
    546000   0.60258355    -7.5831568     -6.6792943      5.5080423      50218.233      36.893836      36.893836      36.893836    
    547000   0.60563322    -7.5818826     -6.6734457      5.5232906      50218.233      36.893836      36.893836      36.893836    
    548000   0.60646429    -7.5860174     -6.6763339      5.5082748      50218.233      36.893836      36.893836      36.893836    
    549000   0.60374134    -7.5842677     -6.6786686      5.5188281      50218.233      36.893836      36.893836      36.893836    
    550000   0.60492472    -7.5887501     -6.6813759      5.4799994      50218.233      36.893836      36.893836      36.893836    
    551000   0.60403405    -7.589164      -6.6831259      5.461784       50218.233      36.893836      36.893836      36.893836    
    552000   0.60215366    -7.5821227     -6.6789051      5.5137913      50218.233      36.893836      36.893836      36.893836    
    553000   0.60377964    -7.585445      -6.6797885      5.5047349      50218.233      36.893836      36.893836      36.893836    
    554000   0.6053297     -7.5851044     -6.6771228      5.4822483      50218.233      36.893836      36.893836      36.893836    
    555000   0.6045832     -7.5822736     -6.6754117      5.5136605      50218.233      36.893836      36.893836      36.893836    
    556000   0.60201442    -7.5891125     -6.6861038      5.466693       50218.233      36.893836      36.893836      36.893836    
    557000   0.60535519    -7.5835421     -6.6755222      5.515081       50218.233      36.893836      36.893836      36.893836    
    558000   0.6020448     -7.589118      -6.6860636      5.4627635      50218.233      36.893836      36.893836      36.893836    
    559000   0.60713174    -7.5837176     -6.673033       5.5071467      50218.233      36.893836      36.893836      36.893836    
    560000   0.60592955    -7.5889787     -6.6800973      5.4654456      50218.233      36.893836      36.893836      36.893836    
    561000   0.60575386    -7.5857224     -6.6771045      5.4916653      50218.233      36.893836      36.893836      36.893836    
    562000   0.60459826    -7.5845914     -6.6777069      5.4971309      50218.233      36.893836      36.893836      36.893836    
    563000   0.60306984    -7.5840368     -6.6794449      5.4944141      50218.233      36.893836      36.893836      36.893836    
    564000   0.60399234    -7.5820914     -6.6761158      5.5237521      50218.233      36.893836      36.893836      36.893836    
    565000   0.60741728    -7.5818435     -6.6707306      5.5239958      50218.233      36.893836      36.893836      36.893836    
    566000   0.6031307     -7.5809053     -6.6762222      5.510708       50218.233      36.893836      36.893836      36.893836    
    567000   0.60491002    -7.5835204     -6.6761683      5.5000353      50218.233      36.893836      36.893836      36.893836    
    568000   0.60860299    -7.5856115     -6.67272        5.4940811      50218.233      36.893836      36.893836      36.893836    
    569000   0.6059716     -7.5837149     -6.6747704      5.4898611      50218.233      36.893836      36.893836      36.893836    
    570000   0.60477764    -7.5799129     -6.6727593      5.5227147      50218.233      36.893836      36.893836      36.893836    
    571000   0.6065797     -7.5775093     -6.6676527      5.5547496      50218.233      36.893836      36.893836      36.893836    
    572000   0.60690606    -7.5809935     -6.6706474      5.5181391      50218.233      36.893836      36.893836      36.893836    
    573000   0.6043984     -7.586773      -6.6801883      5.4715914      50218.233      36.893836      36.893836      36.893836    
    574000   0.60175544    -7.5798903     -6.67727        5.5313305      50218.233      36.893836      36.893836      36.893836    
    575000   0.60228089    -7.5904246     -6.6870161      5.4556237      50218.233      36.893836      36.893836      36.893836    
    576000   0.6030884     -7.5835244     -6.6789047      5.5017322      50218.233      36.893836      36.893836      36.893836    
    577000   0.60649833    -7.580776      -6.6710414      5.5197378      50218.233      36.893836      36.893836      36.893836    
    578000   0.60495992    -7.5861942     -6.6787672      5.4845815      50218.233      36.893836      36.893836      36.893836    
    579000   0.60476465    -7.5831918     -6.6760577      5.4981284      50218.233      36.893836      36.893836      36.893836    
    580000   0.60211572    -7.5853887     -6.6822279      5.4947695      50218.233      36.893836      36.893836      36.893836    
    581000   0.60425744    -7.5800605     -6.6736872      5.5294472      50218.233      36.893836      36.893836      36.893836    
    582000   0.60382759    -7.5809862     -6.6752577      5.5127623      50218.233      36.893836      36.893836      36.893836    
    583000   0.60127849    -7.5855491     -6.6836442      5.484772       50218.233      36.893836      36.893836      36.893836    
    584000   0.60624484    -7.5814295     -6.6720752      5.528025       50218.233      36.893836      36.893836      36.893836    
    585000   0.60631151    -7.5799733     -6.670519       5.5264371      50218.233      36.893836      36.893836      36.893836    
    586000   0.60479057    -7.581046      -6.673873       5.5229317      50218.233      36.893836      36.893836      36.893836    
    587000   0.60435914    -7.5814551     -6.6749293      5.5215943      50218.233      36.893836      36.893836      36.893836    
    588000   0.60028079    -7.5832432     -6.6828348      5.5068126      50218.233      36.893836      36.893836      36.893836    
    589000   0.6051382     -7.5807811     -6.6730867      5.5266123      50218.233      36.893836      36.893836      36.893836    
    590000   0.60559194    -7.5799102     -6.6715352      5.5297277      50218.233      36.893836      36.893836      36.893836    
    591000   0.60609136    -7.5791001     -6.6699759      5.5414995      50218.233      36.893836      36.893836      36.893836    
    592000   0.60490904    -7.5797758     -6.6724252      5.5468249      50218.233      36.893836      36.893836      36.893836    
    593000   0.60465884    -7.5805827     -6.6736074      5.5198158      50218.233      36.893836      36.893836      36.893836    
    594000   0.60470043    -7.5807036     -6.6736659      5.5224142      50218.233      36.893836      36.893836      36.893836    
    595000   0.60358618    -7.5831476     -6.6777812      5.5152088      50218.233      36.893836      36.893836      36.893836    
    596000   0.60520605    -7.5827542     -6.6749581      5.5147943      50218.233      36.893836      36.893836      36.893836    
    597000   0.60423445    -7.5817683     -6.6754295      5.5190791      50218.233      36.893836      36.893836      36.893836    
    598000   0.60654729    -7.5846184     -6.6748104      5.4992264      50218.233      36.893836      36.893836      36.893836    
    599000   0.6039207     -7.5878207     -6.6819526      5.4625512      50218.233      36.893836      36.893836      36.893836    
    600000   0.60261587    -7.5835045     -6.6795936      5.5043952      50218.233      36.893836      36.893836      36.893836    
    601000   0.60279265    -7.5875038     -6.6833277      5.4675478      50218.233      36.893836      36.893836      36.893836    
    602000   0.60147309    -7.5792599     -6.6770631      5.5340611      50218.233      36.893836      36.893836      36.893836    
    603000   0.60286936    -7.5832115     -6.6789203      5.4974948      50218.233      36.893836      36.893836      36.893836    
    604000   0.60483458    -7.5872643     -6.6800253      5.4784141      50218.233      36.893836      36.893836      36.893836    
    605000   0.60305249    -7.5794252     -6.6748593      5.5334224      50218.233      36.893836      36.893836      36.893836    
    606000   0.60351388    -7.5759254     -6.6706675      5.5537792      50218.233      36.893836      36.893836      36.893836    
    607000   0.60287197    -7.5850049     -6.6807098      5.4814324      50218.233      36.893836      36.893836      36.893836    
    608000   0.60046791    -7.581178      -6.680489       5.4966921      50218.233      36.893836      36.893836      36.893836    
    609000   0.60639872    -7.585848      -6.6762629      5.4821774      50218.233      36.893836      36.893836      36.893836    
    610000   0.60520453    -7.5871472     -6.6793533      5.4784044      50218.233      36.893836      36.893836      36.893836    
    611000   0.6048254     -7.5810483     -6.6738231      5.5322408      50218.233      36.893836      36.893836      36.893836    
    612000   0.6035043     -7.5842463     -6.6790027      5.4917         50218.233      36.893836      36.893836      36.893836    
    613000   0.60251406    -7.5874982     -6.68374        5.4679854      50218.233      36.893836      36.893836      36.893836    
    614000   0.60573352    -7.5815659     -6.6729785      5.5217027      50218.233      36.893836      36.893836      36.893836    
    615000   0.60339595    -7.5854902     -6.6804091      5.4987759      50218.233      36.893836      36.893836      36.893836    
    616000   0.60708105    -7.5865142     -6.6759056      5.4918473      50218.233      36.893836      36.893836      36.893836    
    617000   0.60306562    -7.5864457     -6.6818601      5.4828058      50218.233      36.893836      36.893836      36.893836    
    618000   0.6041029     -7.588424      -6.6822826      5.4800648      50218.233      36.893836      36.893836      36.893836    
    619000   0.60455806    -7.5779574     -6.6711332      5.5428066      50218.233      36.893836      36.893836      36.893836    
    620000   0.6061919     -7.5818503     -6.6725753      5.5195171      50218.233      36.893836      36.893836      36.893836    
    621000   0.60635434    -7.5850736     -6.675555       5.5149824      50218.233      36.893836      36.893836      36.893836    
    622000   0.60456417    -7.5833781     -6.6765447      5.5071035      50218.233      36.893836      36.893836      36.893836    
    623000   0.6020611     -7.5882562     -6.6851774      5.4635358      50218.233      36.893836      36.893836      36.893836    
    624000   0.60167454    -7.5780532     -6.6755542      5.5366489      50218.233      36.893836      36.893836      36.893836    
    625000   0.60326183    -7.5787579     -6.673878       5.5296149      50218.233      36.893836      36.893836      36.893836    
    626000   0.60662773    -7.5865549     -6.6766262      5.4832597      50218.233      36.893836      36.893836      36.893836    
    627000   0.60218264    -7.58153       -6.6782689      5.519207       50218.233      36.893836      36.893836      36.893836    
    628000   0.60265893    -7.5897254     -6.6857499      5.4644921      50218.233      36.893836      36.893836      36.893836    
    629000   0.60627436    -7.5858626     -6.676464       5.4966383      50218.233      36.893836      36.893836      36.893836    
    630000   0.60656171    -7.5891304     -6.6793008      5.4642348      50218.233      36.893836      36.893836      36.893836    
    631000   0.6067307     -7.5854946     -6.6754115      5.4945303      50218.233      36.893836      36.893836      36.893836    
    632000   0.60763607    -7.5820064     -6.6705653      5.5175688      50218.233      36.893836      36.893836      36.893836    
    633000   0.60624448    -7.5848527     -6.6754989      5.4923417      50218.233      36.893836      36.893836      36.893836    
    634000   0.60496507    -7.5832959     -6.6758612      5.5106509      50218.233      36.893836      36.893836      36.893836    
    635000   0.60250898    -7.5768932     -6.6731426      5.5506221      50218.233      36.893836      36.893836      36.893836    
    636000   0.60488087    -7.5816233     -6.6743149      5.523488       50218.233      36.893836      36.893836      36.893836    
    637000   0.60718849    -7.5762177     -6.6654479      5.5504646      50218.233      36.893836      36.893836      36.893836    
    638000   0.60426095    -7.583839      -6.6774604      5.4993068      50218.233      36.893836      36.893836      36.893836    
    639000   0.60584436    -7.5814685     -6.6727149      5.5284826      50218.233      36.893836      36.893836      36.893836    
    640000   0.60696182    -7.5824055     -6.6719757      5.5049811      50218.233      36.893836      36.893836      36.893836    
    641000   0.60356532    -7.5858554     -6.6805203      5.4838739      50218.233      36.893836      36.893836      36.893836    
    642000   0.60453319    -7.5811888     -6.6744019      5.5164134      50218.233      36.893836      36.893836      36.893836    
    643000   0.60680973    -7.583777      -6.6735753      5.50194        50218.233      36.893836      36.893836      36.893836    
    644000   0.60395585    -7.5835846     -6.6776637      5.4933387      50218.233      36.893836      36.893836      36.893836    
    645000   0.60726666    -7.5855289     -6.6746419      5.5035292      50218.233      36.893836      36.893836      36.893836    
    646000   0.60403393    -7.5802214     -6.6741833      5.5208223      50218.233      36.893836      36.893836      36.893836    
    647000   0.60788466    -7.5861786     -6.6743646      5.482808       50218.233      36.893836      36.893836      36.893836    
    648000   0.60433678    -7.5867333     -6.680241       5.4745306      50218.233      36.893836      36.893836      36.893836    
    649000   0.607503      -7.5836669     -6.6724253      5.4946779      50218.233      36.893836      36.893836      36.893836    
    650000   0.60597976    -7.5825882     -6.6736315      5.5138393      50218.233      36.893836      36.893836      36.893836    
    651000   0.60160548    -7.5823856     -6.6799902      5.5044679      50218.233      36.893836      36.893836      36.893836    
    652000   0.6056675     -7.5869276     -6.6784393      5.4894313      50218.233      36.893836      36.893836      36.893836    
    653000   0.60405778    -7.5796538     -6.67358        5.5238873      50218.233      36.893836      36.893836      36.893836    
    654000   0.60221137    -7.5869601     -6.6836559      5.4610224      50218.233      36.893836      36.893836      36.893836    
    655000   0.60535138    -7.5863501     -6.6783359      5.4821135      50218.233      36.893836      36.893836      36.893836    
    656000   0.60406305    -7.5877716     -6.6816899      5.4630708      50218.233      36.893836      36.893836      36.893836    
    657000   0.60628484    -7.5845862     -6.6751719      5.4910769      50218.233      36.893836      36.893836      36.893836    
    658000   0.60709661    -7.5893399     -6.6787079      5.4629217      50218.233      36.893836      36.893836      36.893836    
    659000   0.60514563    -7.5809457     -6.6732401      5.5249368      50218.233      36.893836      36.893836      36.893836    
    660000   0.60253976    -7.5863937     -6.682597       5.477878       50218.233      36.893836      36.893836      36.893836    
    661000   0.60371874    -7.5867607     -6.6811955      5.4814186      50218.233      36.893836      36.893836      36.893836    
    662000   0.6074125     -7.587504      -6.6763982      5.4848442      50218.233      36.893836      36.893836      36.893836    
    663000   0.60224264    -7.5848916     -6.6815405      5.4807582      50218.233      36.893836      36.893836      36.893836    
    664000   0.60538232    -7.5830359     -6.6749754      5.5149284      50218.233      36.893836      36.893836      36.893836    
    665000   0.60449478    -7.5812881     -6.6745588      5.524602       50218.233      36.893836      36.893836      36.893836    
    666000   0.60294115    -7.5866891     -6.6822902      5.4833499      50218.233      36.893836      36.893836      36.893836    
    667000   0.60812534    -7.5863347     -6.6741596      5.4942609      50218.233      36.893836      36.893836      36.893836    
    668000   0.60613945    -7.5880568     -6.6788606      5.4700144      50218.233      36.893836      36.893836      36.893836    
    669000   0.60462573    -7.5863023     -6.6793766      5.4845969      50218.233      36.893836      36.893836      36.893836    
    670000   0.60328117    -7.5855334     -6.6806245      5.4852047      50218.233      36.893836      36.893836      36.893836    
    671000   0.60401831    -7.5832217     -6.6772071      5.5014197      50218.233      36.893836      36.893836      36.893836    
    672000   0.60423136    -7.587061      -6.6807269      5.4818132      50218.233      36.893836      36.893836      36.893836    
    673000   0.60294       -7.5879367     -6.6835396      5.4641193      50218.233      36.893836      36.893836      36.893836    
    674000   0.60693199    -7.5840625     -6.6736775      5.5155007      50218.233      36.893836      36.893836      36.893836    
    675000   0.60620269    -7.5853682     -6.6760771      5.4986204      50218.233      36.893836      36.893836      36.893836    
    676000   0.60444632    -7.5864472     -6.6797906      5.4911498      50218.233      36.893836      36.893836      36.893836    
    677000   0.60368132    -7.5835715     -6.6780624      5.5146922      50218.233      36.893836      36.893836      36.893836    
    678000   0.60632483    -7.5856985     -6.6762242      5.5026605      50218.233      36.893836      36.893836      36.893836    
    679000   0.60205881    -7.5891976     -6.6861222      5.4619951      50218.233      36.893836      36.893836      36.893836    
    680000   0.60507114    -7.5857504     -6.6781566      5.4855522      50218.233      36.893836      36.893836      36.893836    
    681000   0.60134018    -7.58727       -6.6852725      5.4803805      50218.233      36.893836      36.893836      36.893836    
    682000   0.60553495    -7.5877949     -6.6795054      5.4618072      50218.233      36.893836      36.893836      36.893836    
    683000   0.60485301    -7.5849023     -6.6776357      5.4762386      50218.233      36.893836      36.893836      36.893836    
    684000   0.60444771    -7.5863577     -6.679699       5.481849       50218.233      36.893836      36.893836      36.893836    
    685000   0.60665672    -7.587582      -6.6776099      5.4758825      50218.233      36.893836      36.893836      36.893836    
    686000   0.60741791    -7.5860206     -6.6749067      5.4921666      50218.233      36.893836      36.893836      36.893836    
    687000   0.60694309    -7.5850014     -6.6745998      5.5064437      50218.233      36.893836      36.893836      36.893836    
    688000   0.60743583    -7.5929177     -6.681777       5.4324807      50218.233      36.893836      36.893836      36.893836    
    689000   0.60497023    -7.5869638     -6.6795214      5.4822032      50218.233      36.893836      36.893836      36.893836    
    690000   0.60556545    -7.5837418     -6.6754065      5.51645        50218.233      36.893836      36.893836      36.893836    
    691000   0.60365836    -7.5796674     -6.6741927      5.535075       50218.233      36.893836      36.893836      36.893836    
    692000   0.60641129    -7.5837212     -6.6741172      5.4955938      50218.233      36.893836      36.893836      36.893836    
    693000   0.60525002    -7.5797129     -6.6718507      5.534574       50218.233      36.893836      36.893836      36.893836    
    694000   0.6045569     -7.5858        -6.6789776      5.495014       50218.233      36.893836      36.893836      36.893836    
    695000   0.60600175    -7.5803794     -6.6713897      5.5385519      50218.233      36.893836      36.893836      36.893836    
    696000   0.60568014    -7.5862448     -6.6777375      5.4876823      50218.233      36.893836      36.893836      36.893836    
    697000   0.60364066    -7.5827004     -6.6772523      5.5065081      50218.233      36.893836      36.893836      36.893836    
    698000   0.60549729    -7.5819781     -6.6737451      5.5092903      50218.233      36.893836      36.893836      36.893836    
    699000   0.60519241    -7.5838803     -6.6761046      5.4887868      50218.233      36.893836      36.893836      36.893836    
    700000   0.60535303    -7.5842288     -6.6762121      5.4852836      50218.233      36.893836      36.893836      36.893836    
    701000   0.6029335     -7.5808358     -6.6764484      5.5314475      50218.233      36.893836      36.893836      36.893836    
    702000   0.60290804    -7.5812638     -6.6769146      5.5212227      50218.233      36.893836      36.893836      36.893836    
    703000   0.60514024    -7.5849312     -6.6772337      5.4951734      50218.233      36.893836      36.893836      36.893836    
    704000   0.60746078    -7.5823143     -6.6711361      5.5206181      50218.233      36.893836      36.893836      36.893836    
    705000   0.60436195    -7.5876376     -6.6811076      5.4725738      50218.233      36.893836      36.893836      36.893836    
    706000   0.60705249    -7.5813414     -6.6707756      5.5303886      50218.233      36.893836      36.893836      36.893836    
    707000   0.60187864    -7.5876035     -6.6847984      5.4674411      50218.233      36.893836      36.893836      36.893836    
    708000   0.60784863    -7.5813326     -6.6695727      5.5377369      50218.233      36.893836      36.893836      36.893836    
    709000   0.60477962    -7.5859793     -6.6788228      5.5001559      50218.233      36.893836      36.893836      36.893836    
    710000   0.60765119    -7.5834896     -6.6720257      5.5174712      50218.233      36.893836      36.893836      36.893836    
    711000   0.60735411    -7.5799054     -6.6688872      5.535056       50218.233      36.893836      36.893836      36.893836    
    712000   0.60547368    -7.5827695     -6.6745719      5.5098598      50218.233      36.893836      36.893836      36.893836    
    713000   0.60463898    -7.5829043     -6.6759588      5.50871        50218.233      36.893836      36.893836      36.893836    
    714000   0.60352498    -7.5817058     -6.6764312      5.5175239      50218.233      36.893836      36.893836      36.893836    
    715000   0.60561391    -7.5858191     -6.6774112      5.4889616      50218.233      36.893836      36.893836      36.893836    
    716000   0.6049189     -7.585392      -6.6780266      5.4905435      50218.233      36.893836      36.893836      36.893836    
    717000   0.60245315    -7.5825866     -6.6789198      5.5088804      50218.233      36.893836      36.893836      36.893836    
    718000   0.60455068    -7.5830634     -6.6762503      5.5186887      50218.233      36.893836      36.893836      36.893836    
    719000   0.60580733    -7.5863895     -6.6776914      5.4798556      50218.233      36.893836      36.893836      36.893836    
    720000   0.60443574    -7.5841494     -6.6775087      5.4994332      50218.233      36.893836      36.893836      36.893836    
    721000   0.60524932    -7.5828712     -6.6750102      5.5085477      50218.233      36.893836      36.893836      36.893836    
    722000   0.60641781    -7.5789867     -6.6693729      5.5486087      50218.233      36.893836      36.893836      36.893836    
    723000   0.60309719    -7.5861642     -6.6815312      5.4873495      50218.233      36.893836      36.893836      36.893836    
    724000   0.60396169    -7.582494      -6.6765643      5.5174965      50218.233      36.893836      36.893836      36.893836    
    725000   0.60773719    -7.5826868     -6.671094       5.5220095      50218.233      36.893836      36.893836      36.893836    
    726000   0.60429629    -7.580333      -6.6739015      5.5402675      50218.233      36.893836      36.893836      36.893836    
    727000   0.60449492    -7.5861642     -6.6794347      5.4809558      50218.233      36.893836      36.893836      36.893836    
    728000   0.60502181    -7.5881384     -6.6806186      5.4697116      50218.233      36.893836      36.893836      36.893836    
    729000   0.6030392     -7.5807488     -6.6762028      5.5117726      50218.233      36.893836      36.893836      36.893836    
    730000   0.60377877    -7.5850115     -6.6793562      5.4953475      50218.233      36.893836      36.893836      36.893836    
    731000   0.60584204    -7.5821462     -6.6733961      5.5107977      50218.233      36.893836      36.893836      36.893836    
    732000   0.60689196    -7.5843141     -6.6739891      5.4983273      50218.233      36.893836      36.893836      36.893836    
    733000   0.6076238     -7.58186       -6.6704373      5.5285842      50218.233      36.893836      36.893836      36.893836    
    734000   0.60506485    -7.578125      -6.6705407      5.5588592      50218.233      36.893836      36.893836      36.893836    
    735000   0.60511423    -7.5836896     -6.6760312      5.5058325      50218.233      36.893836      36.893836      36.893836    
    736000   0.60436321    -7.5746395     -6.6681076      5.5724322      50218.233      36.893836      36.893836      36.893836    
    737000   0.60641851    -7.5838836     -6.6742687      5.4974082      50218.233      36.893836      36.893836      36.893836    
    738000   0.60519653    -7.5829259     -6.675144       5.5119387      50218.233      36.893836      36.893836      36.893836    
    739000   0.60506282    -7.5794664     -6.6718851      5.5319435      50218.233      36.893836      36.893836      36.893836    
    740000   0.60429735    -7.5888551     -6.682422       5.4634206      50218.233      36.893836      36.893836      36.893836    
    741000   0.6071452     -7.5833447     -6.6726398      5.5112825      50218.233      36.893836      36.893836      36.893836    
    742000   0.60314105    -7.58443       -6.6797313      5.4875638      50218.233      36.893836      36.893836      36.893836    
    743000   0.60461772    -7.5840412     -6.6771275      5.4912243      50218.233      36.893836      36.893836      36.893836    
    744000   0.60331931    -7.5855321     -6.680566       5.4800863      50218.233      36.893836      36.893836      36.893836    
    745000   0.60497982    -7.5855145     -6.6780577      5.4917935      50218.233      36.893836      36.893836      36.893836    
    746000   0.60680026    -7.5859703     -6.6757828      5.4911471      50218.233      36.893836      36.893836      36.893836    
    747000   0.60872847    -7.5843717     -6.671292       5.5221898      50218.233      36.893836      36.893836      36.893836    
    748000   0.6021959     -7.5853435     -6.6820625      5.4796419      50218.233      36.893836      36.893836      36.893836    
    749000   0.60755862    -7.5820209     -6.6706959      5.5084452      50218.233      36.893836      36.893836      36.893836    
    750000   0.60545495    -7.5807937     -6.6726242      5.5248434      50218.233      36.893836      36.893836      36.893836    
    751000   0.60578566    -7.5875811     -6.6789156      5.4879526      50218.233      36.893836      36.893836      36.893836    
    752000   0.6061973     -7.5844069     -6.6751239      5.5047787      50218.233      36.893836      36.893836      36.893836    
    753000   0.60534024    -7.5857803     -6.6777828      5.5010784      50218.233      36.893836      36.893836      36.893836    
    754000   0.6044376     -7.580743      -6.6740995      5.5329269      50218.233      36.893836      36.893836      36.893836    
    755000   0.60637209    -7.5871113     -6.6775661      5.4844096      50218.233      36.893836      36.893836      36.893836    
    756000   0.6029909     -7.5853565     -6.680883       5.5081052      50218.233      36.893836      36.893836      36.893836    
    757000   0.61007729    -7.5827749     -6.667672       5.5228625      50218.233      36.893836      36.893836      36.893836    
    758000   0.60581324    -7.587472      -6.6787651      5.4844405      50218.233      36.893836      36.893836      36.893836    
    759000   0.60580814    -7.5861466     -6.6774473      5.4912158      50218.233      36.893836      36.893836      36.893836    
    760000   0.60382521    -7.5813003     -6.6755754      5.5170546      50218.233      36.893836      36.893836      36.893836    
    761000   0.60481621    -7.5886739     -6.6814625      5.4697385      50218.233      36.893836      36.893836      36.893836    
    762000   0.60532216    -7.58522       -6.6772497      5.5082624      50218.233      36.893836      36.893836      36.893836    
    763000   0.60654032    -7.5854943     -6.6756968      5.5021603      50218.233      36.893836      36.893836      36.893836    
    764000   0.60309482    -7.5857953     -6.681166       5.4890682      50218.233      36.893836      36.893836      36.893836    
    765000   0.60657353    -7.5875286     -6.6776812      5.4723306      50218.233      36.893836      36.893836      36.893836    
    766000   0.60512827    -7.587589      -6.6799095      5.4782775      50218.233      36.893836      36.893836      36.893836    
    767000   0.60803088    -7.5864835     -6.6744502      5.5007483      50218.233      36.893836      36.893836      36.893836    
    768000   0.60641107    -7.5847707     -6.6751671      5.4993197      50218.233      36.893836      36.893836      36.893836    
    769000   0.60716552    -7.5889137     -6.6781783      5.4597602      50218.233      36.893836      36.893836      36.893836    
    770000   0.60309222    -7.5841701     -6.6795446      5.5084997      50218.233      36.893836      36.893836      36.893836    
    771000   0.60786931    -7.5884555     -6.6766645      5.4847399      50218.233      36.893836      36.893836      36.893836    
    772000   0.60633466    -7.5829694     -6.6734803      5.5089526      50218.233      36.893836      36.893836      36.893836    
    773000   0.60570862    -7.5796505     -6.6711005      5.5399045      50218.233      36.893836      36.893836      36.893836    
    774000   0.60104677    -7.5847785     -6.6832212      5.4844603      50218.233      36.893836      36.893836      36.893836    
    775000   0.60570643    -7.5854445     -6.6768977      5.4867371      50218.233      36.893836      36.893836      36.893836    
    776000   0.60586847    -7.5835237     -6.6747339      5.5038244      50218.233      36.893836      36.893836      36.893836    
    777000   0.60321022    -7.5825539     -6.6777515      5.5078553      50218.233      36.893836      36.893836      36.893836    
    778000   0.60185359    -7.5853477     -6.6825802      5.481295       50218.233      36.893836      36.893836      36.893836    
    779000   0.60546908    -7.5860002     -6.6778095      5.4942808      50218.233      36.893836      36.893836      36.893836    
    780000   0.60608992    -7.5800587     -6.6709368      5.5352849      50218.233      36.893836      36.893836      36.893836    
    781000   0.60266551    -7.5851372     -6.6811518      5.4898011      50218.233      36.893836      36.893836      36.893836    
    782000   0.60271385    -7.5803018     -6.6762438      5.5351224      50218.233      36.893836      36.893836      36.893836    
    783000   0.60539874    -7.5817888     -6.6737036      5.5123262      50218.233      36.893836      36.893836      36.893836    
    784000   0.602299      -7.5776531     -6.6742175      5.5483311      50218.233      36.893836      36.893836      36.893836    
    785000   0.60575603    -7.585933      -6.6773119      5.4812314      50218.233      36.893836      36.893836      36.893836    
    786000   0.6036747     -7.5927089     -6.6872097      5.4296048      50218.233      36.893836      36.893836      36.893836    
    787000   0.60443104    -7.5882074     -6.6815737      5.4847277      50218.233      36.893836      36.893836      36.893836    
    788000   0.60195503    -7.5860339     -6.6831142      5.4870766      50218.233      36.893836      36.893836      36.893836    
    789000   0.60750016    -7.5880688     -6.6768315      5.4750512      50218.233      36.893836      36.893836      36.893836    
    790000   0.60322097    -7.5788429     -6.6740243      5.5423755      50218.233      36.893836      36.893836      36.893836    
    791000   0.60201074    -7.5843773     -6.681374       5.5121682      50218.233      36.893836      36.893836      36.893836    
    792000   0.60688877    -7.5866906     -6.6763703      5.490982       50218.233      36.893836      36.893836      36.893836    
    793000   0.60507348    -7.5887899     -6.6811926      5.470674       50218.233      36.893836      36.893836      36.893836    
    794000   0.60438406    -7.5874228     -6.6808596      5.4729261      50218.233      36.893836      36.893836      36.893836    
    795000   0.60736193    -7.5848594     -6.6738294      5.499269       50218.233      36.893836      36.893836      36.893836    
    796000   0.60744361    -7.5831118     -6.6719593      5.509873       50218.233      36.893836      36.893836      36.893836    
    797000   0.60773919    -7.5850385     -6.6734426      5.5060108      50218.233      36.893836      36.893836      36.893836    
    798000   0.60290091    -7.5838466     -6.6795081      5.5032173      50218.233      36.893836      36.893836      36.893836    
    799000   0.60532653    -7.5875178     -6.6795409      5.4783857      50218.233      36.893836      36.893836      36.893836    
    800000   0.61007804    -7.5823244     -6.6672203      5.5318158      50218.233      36.893836      36.893836      36.893836    
    801000   0.60382858    -7.5844016     -6.6786716      5.5080547      50218.233      36.893836      36.893836      36.893836    
    802000   0.60527833    -7.5847748     -6.6768703      5.4984904      50218.233      36.893836      36.893836      36.893836    
    803000   0.60307335    -7.5880981     -6.6835009      5.4718216      50218.233      36.893836      36.893836      36.893836    
    804000   0.60432498    -7.5851536     -6.678679       5.4975167      50218.233      36.893836      36.893836      36.893836    
    805000   0.60309999    -7.5810172     -6.67638        5.5255932      50218.233      36.893836      36.893836      36.893836    
    806000   0.60556419    -7.5819658     -6.6736324      5.5162352      50218.233      36.893836      36.893836      36.893836    
    807000   0.60544021    -7.5810452     -6.6728978      5.5126297      50218.233      36.893836      36.893836      36.893836    
    808000   0.6060326     -7.5790133     -6.6699773      5.5194022      50218.233      36.893836      36.893836      36.893836    
    809000   0.60682431    -7.5843924     -6.6741689      5.5069701      50218.233      36.893836      36.893836      36.893836    
    810000   0.60784186    -7.5794908     -6.667741       5.5239813      50218.233      36.893836      36.893836      36.893836    
    811000   0.604447      -7.5838866     -6.677229       5.4926494      50218.233      36.893836      36.893836      36.893836    
    812000   0.60707533    -7.582022      -6.671422       5.5206357      50218.233      36.893836      36.893836      36.893836    
    813000   0.60341689    -7.576591      -6.6714785      5.5598059      50218.233      36.893836      36.893836      36.893836    
    814000   0.60422582    -7.5849945     -6.6786687      5.5023803      50218.233      36.893836      36.893836      36.893836    
    815000   0.60662484    -7.5877871     -6.6778628      5.4771511      50218.233      36.893836      36.893836      36.893836    
    816000   0.60542694    -7.585305      -6.6771775      5.5017508      50218.233      36.893836      36.893836      36.893836    
    817000   0.60577861    -7.5866409     -6.6779859      5.5018499      50218.233      36.893836      36.893836      36.893836    
    818000   0.60580044    -7.5844119     -6.6757242      5.5058036      50218.233      36.893836      36.893836      36.893836    
    819000   0.60515144    -7.5832135     -6.6754993      5.5036755      50218.233      36.893836      36.893836      36.893836    
    820000   0.60403235    -7.5874995     -6.6814639      5.4770818      50218.233      36.893836      36.893836      36.893836    
    821000   0.60128289    -7.5808226     -6.6789111      5.521984       50218.233      36.893836      36.893836      36.893836    
    822000   0.60662124    -7.5811643     -6.6712454      5.532642       50218.233      36.893836      36.893836      36.893836    
    823000   0.59872997    -7.5855487     -6.6874665      5.4854514      50218.233      36.893836      36.893836      36.893836    
    824000   0.6031212     -7.5831696     -6.6785007      5.5041459      50218.233      36.893836      36.893836      36.893836    
    825000   0.60591216    -7.5883129     -6.6794576      5.4662074      50218.233      36.893836      36.893836      36.893836    
    826000   0.60638066    -7.5873383     -6.6777802      5.4770732      50218.233      36.893836      36.893836      36.893836    
    827000   0.60241861    -7.5851131     -6.6814981      5.4924345      50218.233      36.893836      36.893836      36.893836    
    828000   0.60352847    -7.5887847     -6.6835049      5.4569179      50218.233      36.893836      36.893836      36.893836    
    829000   0.60343384    -7.5762851     -6.6711473      5.5614158      50218.233      36.893836      36.893836      36.893836    
    830000   0.60906465    -7.5827268     -6.6691429      5.4999981      50218.233      36.893836      36.893836      36.893836    
    831000   0.60219905    -7.5910368     -6.687751       5.4555566      50218.233      36.893836      36.893836      36.893836    
    832000   0.60833866    -7.5822267     -6.6697317      5.5283552      50218.233      36.893836      36.893836      36.893836    
    833000   0.60530664    -7.5807411     -6.672794       5.5300015      50218.233      36.893836      36.893836      36.893836    
    834000   0.60344573    -7.5865022     -6.6813465      5.4855118      50218.233      36.893836      36.893836      36.893836    
    835000   0.60647794    -7.582749      -6.6730451      5.5008152      50218.233      36.893836      36.893836      36.893836    
    836000   0.60467955    -7.5846257     -6.6776193      5.4875326      50218.233      36.893836      36.893836      36.893836    
    837000   0.60511923    -7.582297      -6.6746311      5.5024069      50218.233      36.893836      36.893836      36.893836    
    838000   0.60422117    -7.5816557     -6.6753368      5.512033       50218.233      36.893836      36.893836      36.893836    
    839000   0.60568508    -7.5844397     -6.675925       5.5021852      50218.233      36.893836      36.893836      36.893836    
    840000   0.60582501    -7.5843186     -6.675594       5.4959257      50218.233      36.893836      36.893836      36.893836    
    841000   0.60190374    -7.5850813     -6.6822385      5.4727917      50218.233      36.893836      36.893836      36.893836    
    842000   0.60432129    -7.5885625     -6.6820934      5.4679814      50218.233      36.893836      36.893836      36.893836    
    843000   0.60563053    -7.589238      -6.6808051      5.460934       50218.233      36.893836      36.893836      36.893836    
    844000   0.60699516    -7.5838648     -6.673385       5.5160707      50218.233      36.893836      36.893836      36.893836    
    845000   0.60524706    -7.5844795     -6.6766218      5.5004724      50218.233      36.893836      36.893836      36.893836    
    846000   0.60436004    -7.5861783     -6.6796512      5.4925258      50218.233      36.893836      36.893836      36.893836    
    847000   0.60881277    -7.5840229     -6.6708167      5.502032       50218.233      36.893836      36.893836      36.893836    
    848000   0.6057095     -7.5865662     -6.6780149      5.478455       50218.233      36.893836      36.893836      36.893836    
    849000   0.60308499    -7.5916355     -6.6870209      5.4465616      50218.233      36.893836      36.893836      36.893836    
    850000   0.60935401    -7.5853968     -6.6713788      5.5084298      50218.233      36.893836      36.893836      36.893836    
    851000   0.60524172    -7.5857652     -6.6779156      5.4870243      50218.233      36.893836      36.893836      36.893836    
    852000   0.60481124    -7.589324      -6.6821201      5.4639543      50218.233      36.893836      36.893836      36.893836    
    853000   0.60569485    -7.5891322     -6.6806029      5.473882       50218.233      36.893836      36.893836      36.893836    
    854000   0.60515241    -7.5902083     -6.6824926      5.4579927      50218.233      36.893836      36.893836      36.893836    
    855000   0.60837461    -7.5872698     -6.6747209      5.4909584      50218.233      36.893836      36.893836      36.893836    
    856000   0.60463625    -7.5891279     -6.6821865      5.4694121      50218.233      36.893836      36.893836      36.893836    
    857000   0.6065002     -7.5833435     -6.6736061      5.5004153      50218.233      36.893836      36.893836      36.893836    
    858000   0.60509753    -7.5806483     -6.6730149      5.5284047      50218.233      36.893836      36.893836      36.893836    
    859000   0.6049776     -7.5770279     -6.6695744      5.5559194      50218.233      36.893836      36.893836      36.893836    
    860000   0.60373806    -7.5839147     -6.6783205      5.4979768      50218.233      36.893836      36.893836      36.893836    
    861000   0.60532669    -7.5884458     -6.6804687      5.486141       50218.233      36.893836      36.893836      36.893836    
    862000   0.60652396    -7.5774438     -6.6676708      5.5461492      50218.233      36.893836      36.893836      36.893836    
    863000   0.60777243    -7.5810425     -6.6693969      5.5241536      50218.233      36.893836      36.893836      36.893836    
    864000   0.60415712    -7.5812032     -6.6749804      5.5295233      50218.233      36.893836      36.893836      36.893836    
    865000   0.60436056    -7.582733      -6.676205       5.5146453      50218.233      36.893836      36.893836      36.893836    
    866000   0.60268557    -7.580234      -6.6762185      5.5449505      50218.233      36.893836      36.893836      36.893836    
    867000   0.60600309    -7.5839717     -6.67498        5.5028464      50218.233      36.893836      36.893836      36.893836    
    868000   0.60555843    -7.5831634     -6.6748386      5.5067534      50218.233      36.893836      36.893836      36.893836    
    869000   0.60493226    -7.5884168     -6.6810314      5.4593201      50218.233      36.893836      36.893836      36.893836    
    870000   0.60253411    -7.5842013     -6.680413       5.497879       50218.233      36.893836      36.893836      36.893836    
    871000   0.60441394    -7.5854844     -6.6788764      5.4843318      50218.233      36.893836      36.893836      36.893836    
    872000   0.60466155    -7.5855819     -6.6786025      5.5045708      50218.233      36.893836      36.893836      36.893836    
    873000   0.6048303     -7.5824272     -6.6751947      5.5062615      50218.233      36.893836      36.893836      36.893836    
    874000   0.6063081     -7.5907099     -6.6812607      5.4591081      50218.233      36.893836      36.893836      36.893836    
    875000   0.60280455    -7.5866413     -6.6824473      5.4712819      50218.233      36.893836      36.893836      36.893836    
    876000   0.60585525    -7.5846677     -6.6758977      5.5097288      50218.233      36.893836      36.893836      36.893836    
    877000   0.60674283    -7.5796959     -6.6695946      5.5432764      50218.233      36.893836      36.893836      36.893836    
    878000   0.60628965    -7.5892156     -6.679794       5.4680985      50218.233      36.893836      36.893836      36.893836    
    879000   0.60381279    -7.5812626     -6.6755563      5.5202101      50218.233      36.893836      36.893836      36.893836    
    880000   0.60233057    -7.5847618     -6.6812788      5.4937043      50218.233      36.893836      36.893836      36.893836    
    881000   0.60395183    -7.5843461     -6.6784313      5.5025462      50218.233      36.893836      36.893836      36.893836    
    882000   0.60541762    -7.5876636     -6.67955        5.4842734      50218.233      36.893836      36.893836      36.893836    
    883000   0.60442902    -7.5851914     -6.6785608      5.4877478      50218.233      36.893836      36.893836      36.893836    
    884000   0.60647803    -7.5835373     -6.6738333      5.5000308      50218.233      36.893836      36.893836      36.893836    
    885000   0.60488579    -7.5868791     -6.6795633      5.474685       50218.233      36.893836      36.893836      36.893836    
    886000   0.60217172    -7.588319      -6.6850743      5.4705491      50218.233      36.893836      36.893836      36.893836    
    887000   0.60553849    -7.5869696     -6.6786748      5.4840896      50218.233      36.893836      36.893836      36.893836    
    888000   0.60120432    -7.5902669     -6.6884733      5.4473745      50218.233      36.893836      36.893836      36.893836    
    889000   0.60556503    -7.5853363     -6.6770017      5.5048032      50218.233      36.893836      36.893836      36.893836    
    890000   0.60654384    -7.5818072     -6.6720044      5.5249701      50218.233      36.893836      36.893836      36.893836    
    891000   0.60628756    -7.5859744     -6.676556       5.4954252      50218.233      36.893836      36.893836      36.893836    
    892000   0.60540156    -7.5860455     -6.6779561      5.485827       50218.233      36.893836      36.893836      36.893836    
    893000   0.60551025    -7.5856894     -6.677437       5.4890762      50218.233      36.893836      36.893836      36.893836    
    894000   0.60791804    -7.5929807     -6.6811166      5.4387021      50218.233      36.893836      36.893836      36.893836    
    895000   0.60637581    -7.5876977     -6.6781469      5.4668748      50218.233      36.893836      36.893836      36.893836    
    896000   0.60315277    -7.5846378     -6.6799215      5.4933065      50218.233      36.893836      36.893836      36.893836    
    897000   0.60563015    -7.589807      -6.6813747      5.4683942      50218.233      36.893836      36.893836      36.893836    
    898000   0.60381578    -7.5817194     -6.6760087      5.5164603      50218.233      36.893836      36.893836      36.893836    
    899000   0.60516817    -7.5780106     -6.6702713      5.5547729      50218.233      36.893836      36.893836      36.893836    
    900000   0.60606871    -7.5842188     -6.6751287      5.502548       50218.233      36.893836      36.893836      36.893836    
    901000   0.60411155    -7.5855862     -6.6794318      5.4781006      50218.233      36.893836      36.893836      36.893836    
    902000   0.60191237    -7.5841249     -6.6812692      5.4948685      50218.233      36.893836      36.893836      36.893836    
    903000   0.60345747    -7.5836173     -6.678444       5.5018204      50218.233      36.893836      36.893836      36.893836    
    904000   0.60578307    -7.5873233     -6.6786616      5.4734594      50218.233      36.893836      36.893836      36.893836    
    905000   0.60390007    -7.5849637     -6.6791265      5.4721063      50218.233      36.893836      36.893836      36.893836    
    906000   0.60510452    -7.5806418     -6.6729979      5.5395918      50218.233      36.893836      36.893836      36.893836    
    907000   0.60877415    -7.5885716     -6.6754234      5.4763027      50218.233      36.893836      36.893836      36.893836    
    908000   0.60425999    -7.5806891     -6.674312       5.5192818      50218.233      36.893836      36.893836      36.893836    
    909000   0.60896319    -7.5902449     -6.6768131      5.4527525      50218.233      36.893836      36.893836      36.893836    
    910000   0.60232062    -7.5842444     -6.6807763      5.4984432      50218.233      36.893836      36.893836      36.893836    
    911000   0.60295471    -7.5839582     -6.679539       5.5025896      50218.233      36.893836      36.893836      36.893836    
    912000   0.60624376    -7.5867785     -6.6774258      5.4950838      50218.233      36.893836      36.893836      36.893836    
    913000   0.60401628    -7.5863981     -6.6803865      5.4725872      50218.233      36.893836      36.893836      36.893836    
    914000   0.60283048    -7.5908134     -6.6865806      5.4530711      50218.233      36.893836      36.893836      36.893836    
    915000   0.60747506    -7.5873446     -6.676145       5.476945       50218.233      36.893836      36.893836      36.893836    
    916000   0.60223269    -7.5858718     -6.6825356      5.4832491      50218.233      36.893836      36.893836      36.893836    
    917000   0.60635787    -7.580733      -6.6712091      5.5241238      50218.233      36.893836      36.893836      36.893836    
    918000   0.60354636    -7.5888726     -6.6835659      5.457841       50218.233      36.893836      36.893836      36.893836    
    919000   0.60387417    -7.5838024     -6.6780041      5.5106918      50218.233      36.893836      36.893836      36.893836    
    920000   0.60334655    -7.5868831     -6.6818762      5.4787505      50218.233      36.893836      36.893836      36.893836    
    921000   0.60399429    -7.5851798     -6.6792013      5.4954178      50218.233      36.893836      36.893836      36.893836    
    922000   0.60115914    -7.5900873     -6.6883614      5.4514745      50218.233      36.893836      36.893836      36.893836    
    923000   0.60994597    -7.5887861     -6.6738802      5.4611034      50218.233      36.893836      36.893836      36.893836    
    924000   0.60551414    -7.58612       -6.6778617      5.4885223      50218.233      36.893836      36.893836      36.893836    
    925000   0.60473284    -7.5830787     -6.6759924      5.5068837      50218.233      36.893836      36.893836      36.893836    
    926000   0.60265       -7.5884082     -6.6844461      5.457277       50218.233      36.893836      36.893836      36.893836    
    927000   0.60564088    -7.582736      -6.6742876      5.5121752      50218.233      36.893836      36.893836      36.893836    
    928000   0.60248293    -7.5879029     -6.6841914      5.4634165      50218.233      36.893836      36.893836      36.893836    
    929000   0.60505623    -7.5869389     -6.6793674      5.4698676      50218.233      36.893836      36.893836      36.893836    
    930000   0.60668855    -7.5817296     -6.6717097      5.5077842      50218.233      36.893836      36.893836      36.893836    
    931000   0.6093521     -7.5826111     -6.668596       5.5059151      50218.233      36.893836      36.893836      36.893836    
    932000   0.60788287    -7.5790596     -6.6672483      5.5565         50218.233      36.893836      36.893836      36.893836    
    933000   0.60369636    -7.5843231     -6.6787914      5.4909512      50218.233      36.893836      36.893836      36.893836    
    934000   0.60070935    -7.5834679     -6.6824167      5.5040599      50218.233      36.893836      36.893836      36.893836    
    935000   0.60650838    -7.5870492     -6.6772996      5.4800528      50218.233      36.893836      36.893836      36.893836    
    936000   0.60604527    -7.5832903     -6.6742353      5.5126682      50218.233      36.893836      36.893836      36.893836    
    937000   0.60554358    -7.5867106     -6.6784081      5.4780131      50218.233      36.893836      36.893836      36.893836    
    938000   0.60804408    -7.5919769     -6.6799237      5.4542318      50218.233      36.893836      36.893836      36.893836    
    939000   0.60629799    -7.5865101     -6.677076       5.4953968      50218.233      36.893836      36.893836      36.893836    
    940000   0.6030082     -7.5858167     -6.6813173      5.4874154      50218.233      36.893836      36.893836      36.893836    
    941000   0.60437009    -7.5847756     -6.6782334      5.4990906      50218.233      36.893836      36.893836      36.893836    
    942000   0.60465153    -7.5841645     -6.6772001      5.5071701      50218.233      36.893836      36.893836      36.893836    
    943000   0.6055363     -7.5800049     -6.6717134      5.5264523      50218.233      36.893836      36.893836      36.893836    
    944000   0.60302306    -7.58377       -6.6792483      5.4948635      50218.233      36.893836      36.893836      36.893836    
    945000   0.60447196    -7.5825184     -6.6758234      5.5123709      50218.233      36.893836      36.893836      36.893836    
    946000   0.60514224    -7.5834645     -6.675764       5.5113971      50218.233      36.893836      36.893836      36.893836    
    947000   0.6044888     -7.5967854     -6.6900651      5.4053707      50218.233      36.893836      36.893836      36.893836    
    948000   0.60704573    -7.5824775     -6.6719218      5.5170223      50218.233      36.893836      36.893836      36.893836    
    949000   0.60010035    -7.5789288     -6.6787911      5.539943       50218.233      36.893836      36.893836      36.893836    
    950000   0.60491176    -7.5797234     -6.6723687      5.5417551      50218.233      36.893836      36.893836      36.893836    
    951000   0.60440785    -7.5862323     -6.6796334      5.4862734      50218.233      36.893836      36.893836      36.893836    
    952000   0.60364591    -7.5845458     -6.6790898      5.5050295      50218.233      36.893836      36.893836      36.893836    
    953000   0.60215464    -7.5843874     -6.6811683      5.4965911      50218.233      36.893836      36.893836      36.893836    
    954000   0.6082755     -7.5840633     -6.671663       5.4952084      50218.233      36.893836      36.893836      36.893836    
    955000   0.60658017    -7.5795553     -6.669698       5.5427332      50218.233      36.893836      36.893836      36.893836    
    956000   0.60632962    -7.5880994     -6.6786179      5.4688139      50218.233      36.893836      36.893836      36.893836    
    957000   0.60674734    -7.5829552     -6.6728471      5.5103347      50218.233      36.893836      36.893836      36.893836    
    958000   0.606012      -7.5859967     -6.6769916      5.4890355      50218.233      36.893836      36.893836      36.893836    
    959000   0.60725628    -7.5822014     -6.6713299      5.5223255      50218.233      36.893836      36.893836      36.893836    
    960000   0.60500285    -7.5866398     -6.6791484      5.4808639      50218.233      36.893836      36.893836      36.893836    
    961000   0.60484113    -7.5778909     -6.6706421      5.5439032      50218.233      36.893836      36.893836      36.893836    
    962000   0.60363186    -7.5819527     -6.6765178      5.5149353      50218.233      36.893836      36.893836      36.893836    
    963000   0.60559548    -7.5866534     -6.6782731      5.4795249      50218.233      36.893836      36.893836      36.893836    
    964000   0.60387672    -7.5898623     -6.6840601      5.455683       50218.233      36.893836      36.893836      36.893836    
    965000   0.60335562    -7.5860766     -6.681056       5.4828175      50218.233      36.893836      36.893836      36.893836    
    966000   0.6049893     -7.5875278     -6.6800568      5.4763305      50218.233      36.893836      36.893836      36.893836    
    967000   0.60447338    -7.5887742     -6.682077       5.4638358      50218.233      36.893836      36.893836      36.893836    
    968000   0.60461131    -7.5876701     -6.6807661      5.4714859      50218.233      36.893836      36.893836      36.893836    
    969000   0.60862879    -7.5856131     -6.6726829      5.4947819      50218.233      36.893836      36.893836      36.893836    
    970000   0.60729645    -7.5869742     -6.6760425      5.4818571      50218.233      36.893836      36.893836      36.893836    
    971000   0.60666774    -7.5856212     -6.6756325      5.4936953      50218.233      36.893836      36.893836      36.893836    
    972000   0.60710136    -7.5856466     -6.6750075      5.4980721      50218.233      36.893836      36.893836      36.893836    
    973000   0.60711798    -7.5856764     -6.6750124      5.4954789      50218.233      36.893836      36.893836      36.893836    
    974000   0.60426953    -7.5837827     -6.6773913      5.4988192      50218.233      36.893836      36.893836      36.893836    
    975000   0.60654856    -7.5901041     -6.6802942      5.4624155      50218.233      36.893836      36.893836      36.893836    
    976000   0.60453654    -7.5842133     -6.6774213      5.4985081      50218.233      36.893836      36.893836      36.893836    
    977000   0.60512904    -7.5883662     -6.6806855      5.4716206      50218.233      36.893836      36.893836      36.893836    
    978000   0.60828713    -7.5889634     -6.6765457      5.4689385      50218.233      36.893836      36.893836      36.893836    
    979000   0.60562502    -7.5940355     -6.6856109      5.4262209      50218.233      36.893836      36.893836      36.893836    
    980000   0.60264459    -7.5862133     -6.6822593      5.4903806      50218.233      36.893836      36.893836      36.893836    
    981000   0.60216952    -7.5866029     -6.6833615      5.4725957      50218.233      36.893836      36.893836      36.893836    
    982000   0.60199361    -7.5875639     -6.6845864      5.4727197      50218.233      36.893836      36.893836      36.893836    
    983000   0.60582435    -7.5908355     -6.6821119      5.4559035      50218.233      36.893836      36.893836      36.893836    
    984000   0.606378      -7.592312      -6.6827579      5.4519617      50218.233      36.893836      36.893836      36.893836    
    985000   0.6047        -7.5867738     -6.6797367      5.4877768      50218.233      36.893836      36.893836      36.893836    
    986000   0.60430886    -7.5870283     -6.6805779      5.4893613      50218.233      36.893836      36.893836      36.893836    
    987000   0.60696951    -7.5917643     -6.681323       5.4530661      50218.233      36.893836      36.893836      36.893836    
    988000   0.60479369    -7.590344      -6.6831664      5.4481518      50218.233      36.893836      36.893836      36.893836    
    989000   0.60949012    -7.5880001     -6.6737779      5.4912816      50218.233      36.893836      36.893836      36.893836    
    990000   0.60460488    -7.5947391     -6.6878447      5.4162177      50218.233      36.893836      36.893836      36.893836    
    991000   0.60146151    -7.5855058     -6.6833264      5.4806889      50218.233      36.893836      36.893836      36.893836    
    992000   0.60270167    -7.5898217     -6.6857821      5.4408383      50218.233      36.893836      36.893836      36.893836    
    993000   0.60673065    -7.5833126     -6.6732296      5.5052008      50218.233      36.893836      36.893836      36.893836    
    994000   0.60573475    -7.5855826     -6.6769934      5.4925593      50218.233      36.893836      36.893836      36.893836    
    995000   0.60311298    -7.5811575     -6.6765009      5.5151667      50218.233      36.893836      36.893836      36.893836    
    996000   0.60301771    -7.5858468     -6.6813331      5.4811241      50218.233      36.893836      36.893836      36.893836    
    997000   0.60559476    -7.5908915     -6.6825123      5.4467291      50218.233      36.893836      36.893836      36.893836    
    998000   0.60827922    -7.5853024     -6.6728965      5.4864286      50218.233      36.893836      36.893836      36.893836    
    999000   0.60963601    -7.584143      -6.669702       5.5113182      50218.233      36.893836      36.893836      36.893836    
   1000000   0.60593772    -7.5844584     -6.6755647      5.5044295      50218.233      36.893836      36.893836      36.893836    
Loop time of 4384.48 on 1 procs for 1000000 steps with 70304 atoms

Performance: 197058.815 tau/day, 228.077 timesteps/s, 16.035 Matom-step/s
100.0% CPU use with 1 MPI tasks x 1 OpenMP threads

MPI task timing breakdown:
Section |  min time  |  avg time  |  max time  |%varavg| %total
---------------------------------------------------------------
Pair    | 1077.4     | 1077.4     | 1077.4     |   0.0 | 24.57
Neigh   | 43.898     | 43.898     | 43.898     |   0.0 |  1.00
Comm    | 547.42     | 547.42     | 547.42     |   0.0 | 12.49
Output  | 0.75043    | 0.75043    | 0.75043    |   0.0 |  0.02
Modify  | 2280.7     | 2280.7     | 2280.7     |   0.0 | 52.02
Other   |            | 434.3      |            |       |  9.91

Nlocal:          70304 ave       70304 max       70304 min
Histogram: 1 0 0 0 0 0 0 0 0 0
Nghost:          37181 ave       37181 max       37181 min
Histogram: 1 0 0 0 0 0 0 0 0 0
Neighs:              0 ave           0 max           0 min
Histogram: 1 0 0 0 0 0 0 0 0 0

Total # of neighbors = 0
Ave neighs/atom = 0
Neighbor list builds = 235037
Dangerous builds = 0
Total wall time: 10:57:05
