variable TLJ equal (${T}/1000)
variable TLJ equal (570/1000)
variable NCyle equal 10
variable iStep equal (${f})
variable iStep equal (1000)
variable dumpStep equal (${f}*100)
variable dumpStep equal (1000*100)
variable runStep equal (${f}*100*${NCyle})
variable runStep equal (1000*100*${NCyle})
variable runStep equal (1000*100*10)

units       lj
atom_style  atomic
dimension 3
boundary     p p p
pair_style  lj/cut 2.5
read_data  ../data/T${T}.dat
read_data  ../data/T570.dat
Reading data file ...
  orthogonal box = (0.97250269 0.97250269 0.97250269) to (37.866338 37.866338 37.866338)
  1 by 1 by 1 MPI processor grid
  reading atoms ...
  70304 atoms
  reading velocities ...
  70304 velocities
  read_data CPU = 0.224 seconds
change_box all triclinic
Changing box ...
  triclinic box = (0.97250269 0.97250269 0.97250269) to (37.866338 37.866338 37.866338) with tilt (0 0 0)
mass 1 1
mass 2 1
pair_modify shift yes
pair_coeff  1 1 1 1
pair_coeff  1 2 1.5 0.8
pair_coeff  2 2 0.5 0.88


timestep 0.01
thermo ${iStep}
thermo 1000
reset_timestep 0
thermo_style custom step temp pe etotal press vol lx ly lz
fix             1 all nvt temp ${TLJ}  ${TLJ}  0.1
fix             1 all nvt temp 0.57  ${TLJ}  0.1
fix             1 all nvt temp 0.57  0.57  0.1
thermo_modify flush yes

fix dsf all deform 1 xy  wiggle 0.5  ${f}   units box
fix dsf all deform 1 xy  wiggle 0.5  1000   units box
fix ps1 all ave/time 1 1 ${iStep} c_thermo_press[1] c_thermo_press[2]  c_thermo_press[3] c_thermo_press[4]  c_thermo_press[5] c_thermo_press[6]  file  stress.${T}
fix ps1 all ave/time 1 1 1000 c_thermo_press[1] c_thermo_press[2]  c_thermo_press[3] c_thermo_press[4]  c_thermo_press[5] c_thermo_press[6]  file  stress.${T}
fix ps1 all ave/time 1 1 1000 c_thermo_press[1] c_thermo_press[2]  c_thermo_press[3] c_thermo_press[4]  c_thermo_press[5] c_thermo_press[6]  file  stress.570
dump            1 all custom ${dumpStep} dump.${T} id type x y z
dump            1 all custom 100000 dump.${T} id type x y z
dump            1 all custom 100000 dump.570 id type x y z
dump_modify 1 sort id
fix nodrift all momentum 1  linear 1 1 1
fix com_seed all recenter INIT INIT INIT shift all
run ${runStep}
run 1000000
Generated 0 of 1 mixed pair_coeff terms from geometric mixing rule
Per MPI rank memory allocation (min/avg/max) = 21.18 | 21.18 | 21.18 Mbytes
   Step          Temp          PotEng         TotEng         Press          Volume           Lx             Ly             Lz      
         0   0.56860665    -7.6698997     -6.8170019      4.8328745      50218.233      36.893836      36.893836      36.893836    
      1000   0.57011244    -7.6607281     -6.8055716      4.8797685      50218.233      36.893836      36.893836      36.893836    
      2000   0.57246401    -7.6574856     -6.7988018      4.9008068      50218.233      36.893836      36.893836      36.893836    
      3000   0.57127368    -7.6577863     -6.800888       4.920805       50218.233      36.893836      36.893836      36.893836    
      4000   0.57078393    -7.6565047     -6.800341       4.9163497      50218.233      36.893836      36.893836      36.893836    
      5000   0.56956724    -7.6632055     -6.8088667      4.8838498      50218.233      36.893836      36.893836      36.893836    
      6000   0.56387182    -7.6605758     -6.8147801      4.8844071      50218.233      36.893836      36.893836      36.893836    
      7000   0.57282512    -7.6574413     -6.7982158      4.917395       50218.233      36.893836      36.893836      36.893836    
      8000   0.56977615    -7.6606983     -6.8060463      4.8909364      50218.233      36.893836      36.893836      36.893836    
      9000   0.57014824    -7.65898       -6.8037698      4.9123171      50218.233      36.893836      36.893836      36.893836    
     10000   0.570872      -7.659497      -6.8032012      4.9060669      50218.233      36.893836      36.893836      36.893836    
     11000   0.56680232    -7.6606011     -6.8104097      4.8880132      50218.233      36.893836      36.893836      36.893836    
     12000   0.5713531     -7.661506      -6.8044886      4.8810805      50218.233      36.893836      36.893836      36.893836    
     13000   0.56846896    -7.6632314     -6.8105401      4.8614989      50218.233      36.893836      36.893836      36.893836    
     14000   0.57024397    -7.664676      -6.8093222      4.8734753      50218.233      36.893836      36.893836      36.893836    
     15000   0.57121552    -7.6604135     -6.8036024      4.8816999      50218.233      36.893836      36.893836      36.893836    
     16000   0.5699092     -7.6617603     -6.8069087      4.879356       50218.233      36.893836      36.893836      36.893836    
     17000   0.56936343    -7.6617729     -6.8077399      4.8845702      50218.233      36.893836      36.893836      36.893836    
     18000   0.56912102    -7.659876      -6.8062067      4.8990827      50218.233      36.893836      36.893836      36.893836    
     19000   0.56895905    -7.6604377     -6.8070112      4.8992404      50218.233      36.893836      36.893836      36.893836    
     20000   0.56871526    -7.6621737     -6.809113       4.8780625      50218.233      36.893836      36.893836      36.893836    
     21000   0.57340845    -7.6651151     -6.8050146      4.861941       50218.233      36.893836      36.893836      36.893836    
     22000   0.57375131    -7.6568543     -6.7962396      4.9298611      50218.233      36.893836      36.893836      36.893836    
     23000   0.56817367    -7.6689205     -6.8166721      4.8356369      50218.233      36.893836      36.893836      36.893836    
     24000   0.56943351    -7.6652533     -6.8111152      4.8521576      50218.233      36.893836      36.893836      36.893836    
     25000   0.5697669     -7.6614451     -6.8068069      4.8905824      50218.233      36.893836      36.893836      36.893836    
     26000   0.57108933    -7.6619996     -6.8053778      4.8737062      50218.233      36.893836      36.893836      36.893836    
     27000   0.56887579    -7.6654531     -6.8121515      4.8593986      50218.233      36.893836      36.893836      36.893836    
     28000   0.57141481    -7.6624395     -6.8053294      4.879662       50218.233      36.893836      36.893836      36.893836    
     29000   0.57283879    -7.6612237     -6.8019778      4.8946944      50218.233      36.893836      36.893836      36.893836    
     30000   0.57200858    -7.6623725     -6.8043718      4.8753656      50218.233      36.893836      36.893836      36.893836    
     31000   0.57102123    -7.6628176     -6.806298       4.883609       50218.233      36.893836      36.893836      36.893836    
     32000   0.5697976     -7.6637106     -6.8090264      4.8669499      50218.233      36.893836      36.893836      36.893836    
     33000   0.57233036    -7.6623406     -6.8038573      4.8795307      50218.233      36.893836      36.893836      36.893836    
     34000   0.56981856    -7.6583158     -6.8036001      4.916027       50218.233      36.893836      36.893836      36.893836    
     35000   0.57094139    -7.6565088     -6.8001089      4.9180962      50218.233      36.893836      36.893836      36.893836    
     36000   0.57036578    -7.6605028     -6.8049663      4.8960555      50218.233      36.893836      36.893836      36.893836    
     37000   0.56820586    -7.6591479     -6.8068512      4.9027969      50218.233      36.893836      36.893836      36.893836    
     38000   0.57346942    -7.6660029     -6.805811       4.8567749      50218.233      36.893836      36.893836      36.893836    
     39000   0.5697334     -7.6611595     -6.8065716      4.8925662      50218.233      36.893836      36.893836      36.893836    
     40000   0.56804099    -7.6634579     -6.8114085      4.8716028      50218.233      36.893836      36.893836      36.893836    
     41000   0.56785106    -7.6639334     -6.8121689      4.8709578      50218.233      36.893836      36.893836      36.893836    
     42000   0.56762322    -7.6664453     -6.8150226      4.8518861      50218.233      36.893836      36.893836      36.893836    
     43000   0.57091176    -7.6619706     -6.8056151      4.8824168      50218.233      36.893836      36.893836      36.893836    
     44000   0.56906003    -7.6614641     -6.8078861      4.8977613      50218.233      36.893836      36.893836      36.893836    
     45000   0.57304253    -7.6643642     -6.8048126      4.8678412      50218.233      36.893836      36.893836      36.893836    
     46000   0.57063088    -7.663755      -6.8078208      4.8657383      50218.233      36.893836      36.893836      36.893836    
     47000   0.56854355    -7.6639906     -6.8111874      4.8649199      50218.233      36.893836      36.893836      36.893836    
     48000   0.57428822    -7.6650002     -6.8035802      4.8693148      50218.233      36.893836      36.893836      36.893836    
     49000   0.57102528    -7.6617133     -6.8051876      4.879358       50218.233      36.893836      36.893836      36.893836    
     50000   0.56831321    -7.6632859     -6.8108282      4.8697714      50218.233      36.893836      36.893836      36.893836    
     51000   0.57181655    -7.6651341     -6.8074215      4.8812304      50218.233      36.893836      36.893836      36.893836    
     52000   0.57099003    -7.6590121     -6.8025392      4.8982977      50218.233      36.893836      36.893836      36.893836    
     53000   0.56840791    -7.6629961     -6.8103963      4.8769344      50218.233      36.893836      36.893836      36.893836    
     54000   0.56845201    -7.6651484     -6.8124826      4.8646256      50218.233      36.893836      36.893836      36.893836    
     55000   0.57037395    -7.6654468     -6.8098981      4.8585672      50218.233      36.893836      36.893836      36.893836    
     56000   0.56883271    -7.6631102     -6.8098733      4.8691274      50218.233      36.893836      36.893836      36.893836    
     57000   0.57505834    -7.6566771     -6.7941019      4.9208495      50218.233      36.893836      36.893836      36.893836    
     58000   0.56667295    -7.6619797     -6.8119824      4.8889036      50218.233      36.893836      36.893836      36.893836    
     59000   0.56599282    -7.662363      -6.8133858      4.8670157      50218.233      36.893836      36.893836      36.893836    
     60000   0.57006371    -7.6619334     -6.80685        4.8853008      50218.233      36.893836      36.893836      36.893836    
     61000   0.57281378    -7.6604658     -6.8012573      4.8990449      50218.233      36.893836      36.893836      36.893836    
     62000   0.56873889    -7.6612361     -6.8081399      4.899872       50218.233      36.893836      36.893836      36.893836    
     63000   0.57054243    -7.6622354     -6.8064339      4.8955682      50218.233      36.893836      36.893836      36.893836    
     64000   0.56864293    -7.6592812     -6.8063289      4.912621       50218.233      36.893836      36.893836      36.893836    
     65000   0.56690005    -7.6618796     -6.8115416      4.8887259      50218.233      36.893836      36.893836      36.893836    
     66000   0.57176573    -7.6614873     -6.8038509      4.8905071      50218.233      36.893836      36.893836      36.893836    
     67000   0.56916681    -7.6577303     -6.8039922      4.9189311      50218.233      36.893836      36.893836      36.893836    
     68000   0.5689929     -7.6627696     -6.8092924      4.8787677      50218.233      36.893836      36.893836      36.893836    
     69000   0.57008239    -7.6604066     -6.8052952      4.8998753      50218.233      36.893836      36.893836      36.893836    
     70000   0.56718624    -7.6606306     -6.8098633      4.8941455      50218.233      36.893836      36.893836      36.893836    
     71000   0.57071632    -7.6655253     -6.809463       4.8606419      50218.233      36.893836      36.893836      36.893836    
     72000   0.5686286     -7.6627051     -6.8097743      4.8779171      50218.233      36.893836      36.893836      36.893836    
     73000   0.57254695    -7.6586614     -6.7998532      4.9240898      50218.233      36.893836      36.893836      36.893836    
     74000   0.57194764    -7.6631149     -6.8052056      4.8824942      50218.233      36.893836      36.893836      36.893836    
     75000   0.56843154    -7.6623629     -6.8097277      4.8829653      50218.233      36.893836      36.893836      36.893836    
     76000   0.5714587     -7.6594306     -6.8022547      4.9141126      50218.233      36.893836      36.893836      36.893836    
     77000   0.57195513    -7.6585845     -6.800664       4.9178488      50218.233      36.893836      36.893836      36.893836    
     78000   0.56951917    -7.6617491     -6.8074825      4.8844283      50218.233      36.893836      36.893836      36.893836    
     79000   0.57156324    -7.6609087     -6.803576       4.8899501      50218.233      36.893836      36.893836      36.893836    
     80000   0.57043706    -7.6594935     -6.80385        4.9031838      50218.233      36.893836      36.893836      36.893836    
     81000   0.5686946     -7.6625776     -6.8095479      4.8813425      50218.233      36.893836      36.893836      36.893836    
     82000   0.56953427    -7.6573131     -6.8030238      4.9237135      50218.233      36.893836      36.893836      36.893836    
     83000   0.56913946    -7.6529342     -6.7992372      4.946241       50218.233      36.893836      36.893836      36.893836    
     84000   0.57140713    -7.6581627     -6.8010642      4.9202392      50218.233      36.893836      36.893836      36.893836    
     85000   0.5687865     -7.6663944     -6.8132267      4.8492966      50218.233      36.893836      36.893836      36.893836    
     86000   0.56969606    -7.6593457     -6.8048138      4.9061707      50218.233      36.893836      36.893836      36.893836    
     87000   0.57100156    -7.6548785     -6.7983884      4.9394713      50218.233      36.893836      36.893836      36.893836    
     88000   0.56803277    -7.6577439     -6.8057068      4.9117886      50218.233      36.893836      36.893836      36.893836    
     89000   0.56738766    -7.6599595     -6.8088901      4.8955243      50218.233      36.893836      36.893836      36.893836    
     90000   0.5703892     -7.6591687     -6.8035971      4.8926943      50218.233      36.893836      36.893836      36.893836    
     91000   0.57072923    -7.6636525     -6.8075708      4.8537479      50218.233      36.893836      36.893836      36.893836    
     92000   0.56613262    -7.662785      -6.8135982      4.870846       50218.233      36.893836      36.893836      36.893836    
     93000   0.56906936    -7.6559869     -6.802395       4.9348086      50218.233      36.893836      36.893836      36.893836    
     94000   0.57153069    -7.6600622     -6.8027784      4.9033797      50218.233      36.893836      36.893836      36.893836    
     95000   0.56769843    -7.6546226     -6.8030871      4.9231641      50218.233      36.893836      36.893836      36.893836    
     96000   0.56629156    -7.6544415     -6.8050163      4.9311728      50218.233      36.893836      36.893836      36.893836    
     97000   0.56789131    -7.6564556     -6.8046308      4.9191457      50218.233      36.893836      36.893836      36.893836    
     98000   0.56960944    -7.6631812     -6.8087792      4.8798372      50218.233      36.893836      36.893836      36.893836    
     99000   0.57320375    -7.6605255     -6.8007321      4.902932       50218.233      36.893836      36.893836      36.893836    
    100000   0.56959709    -7.6597071     -6.8053236      4.8950754      50218.233      36.893836      36.893836      36.893836    
    101000   0.56800458    -7.6606052     -6.8086104      4.8897454      50218.233      36.893836      36.893836      36.893836    
    102000   0.56871824    -7.6629304     -6.8098652      4.9021735      50218.233      36.893836      36.893836      36.893836    
    103000   0.57157045    -7.6600192     -6.8026758      4.9112223      50218.233      36.893836      36.893836      36.893836    
    104000   0.57131886    -7.6580941     -6.801128       4.9186915      50218.233      36.893836      36.893836      36.893836    
    105000   0.56981565    -7.6589095     -6.8041982      4.9171705      50218.233      36.893836      36.893836      36.893836    
    106000   0.57155312    -7.6596949     -6.8023774      4.9069527      50218.233      36.893836      36.893836      36.893836    
    107000   0.56810511    -7.6571859     -6.8050404      4.9233421      50218.233      36.893836      36.893836      36.893836    
    108000   0.57205294    -7.6596596     -6.8015924      4.9186504      50218.233      36.893836      36.893836      36.893836    
    109000   0.57036706    -7.6637161     -6.8081777      4.8799273      50218.233      36.893836      36.893836      36.893836    
    110000   0.56876502    -7.6640565     -6.8109211      4.8631199      50218.233      36.893836      36.893836      36.893836    
    111000   0.56969931    -7.6622326     -6.8076957      4.8938834      50218.233      36.893836      36.893836      36.893836    
    112000   0.57088508    -7.664658      -6.8083426      4.8792797      50218.233      36.893836      36.893836      36.893836    
    113000   0.56991463    -7.6581576     -6.8032979      4.9162931      50218.233      36.893836      36.893836      36.893836    
    114000   0.57093017    -7.658569      -6.8021859      4.9238565      50218.233      36.893836      36.893836      36.893836    
    115000   0.56849753    -7.6588035     -6.8060694      4.9245956      50218.233      36.893836      36.893836      36.893836    
    116000   0.57230925    -7.6614786     -6.8030269      4.8986825      50218.233      36.893836      36.893836      36.893836    
    117000   0.57040964    -7.6549591     -6.7993568      4.9440512      50218.233      36.893836      36.893836      36.893836    
    118000   0.56920191    -7.6564291     -6.8026383      4.9231702      50218.233      36.893836      36.893836      36.893836    
    119000   0.56914526    -7.6530665     -6.7993608      4.9539664      50218.233      36.893836      36.893836      36.893836    
    120000   0.57193238    -7.6593314     -6.801445       4.9044757      50218.233      36.893836      36.893836      36.893836    
    121000   0.57291668    -7.6556181     -6.7962553      4.9444799      50218.233      36.893836      36.893836      36.893836    
    122000   0.57246543    -7.655703      -6.7970171      4.930799       50218.233      36.893836      36.893836      36.893836    
    123000   0.56968221    -7.6561538     -6.8016426      4.9284675      50218.233      36.893836      36.893836      36.893836    
    124000   0.57123484    -7.6574983     -6.8006582      4.9140583      50218.233      36.893836      36.893836      36.893836    
    125000   0.57026184    -7.6565506     -6.80117        4.920218       50218.233      36.893836      36.893836      36.893836    
    126000   0.57162331    -7.6560858     -6.798663       4.9289393      50218.233      36.893836      36.893836      36.893836    
    127000   0.56836615    -7.6640744     -6.8115373      4.8660325      50218.233      36.893836      36.893836      36.893836    
    128000   0.56739326    -7.653505      -6.8024272      4.9392632      50218.233      36.893836      36.893836      36.893836    
    129000   0.57097354    -7.6609915     -6.8045433      4.8818418      50218.233      36.893836      36.893836      36.893836    
    130000   0.57083063    -7.6566892     -6.8004555      4.9089461      50218.233      36.893836      36.893836      36.893836    
    131000   0.56941115    -7.6603435     -6.8062389      4.8897605      50218.233      36.893836      36.893836      36.893836    
    132000   0.57187099    -7.6592094     -6.8014151      4.9133885      50218.233      36.893836      36.893836      36.893836    
    133000   0.57005813    -7.6618749     -6.8067999      4.8798389      50218.233      36.893836      36.893836      36.893836    
    134000   0.57203058    -7.6611083     -6.8030746      4.8888458      50218.233      36.893836      36.893836      36.893836    
    135000   0.56714395    -7.6649287     -6.8142249      4.8574588      50218.233      36.893836      36.893836      36.893836    
    136000   0.57275856    -7.6548523     -6.7957267      4.9246616      50218.233      36.893836      36.893836      36.893836    
    137000   0.57071749    -7.6570163     -6.8009523      4.912411       50218.233      36.893836      36.893836      36.893836    
    138000   0.57072648    -7.6573126     -6.8012351      4.9167721      50218.233      36.893836      36.893836      36.893836    
    139000   0.56948298    -7.6594946     -6.8052823      4.9017485      50218.233      36.893836      36.893836      36.893836    
    140000   0.56844326    -7.651624      -6.7989712      4.936449       50218.233      36.893836      36.893836      36.893836    
    141000   0.56842143    -7.6575828     -6.8049628      4.9066433      50218.233      36.893836      36.893836      36.893836    
    142000   0.56958791    -7.6567222     -6.8023525      4.9254468      50218.233      36.893836      36.893836      36.893836    
    143000   0.5679328     -7.6566919     -6.8048048      4.9179481      50218.233      36.893836      36.893836      36.893836    
    144000   0.5682437     -7.6543947     -6.8020413      4.9337804      50218.233      36.893836      36.893836      36.893836    
    145000   0.56913468    -7.6585285     -6.8048387      4.9016483      50218.233      36.893836      36.893836      36.893836    
    146000   0.56864563    -7.6618091     -6.8088528      4.8866155      50218.233      36.893836      36.893836      36.893836    
    147000   0.56939341    -7.6637656     -6.8096877      4.864744       50218.233      36.893836      36.893836      36.893836    
    148000   0.57126968    -7.6601216     -6.8032293      4.8997906      50218.233      36.893836      36.893836      36.893836    
    149000   0.57086509    -7.6582219     -6.8019364      4.9054852      50218.233      36.893836      36.893836      36.893836    
    150000   0.56956095    -7.6572241     -6.8028948      4.9140834      50218.233      36.893836      36.893836      36.893836    
    151000   0.56690403    -7.6621715     -6.8118276      4.8807854      50218.233      36.893836      36.893836      36.893836    
    152000   0.56993703    -7.6573295     -6.8024361      4.9036177      50218.233      36.893836      36.893836      36.893836    
    153000   0.56813395    -7.6577756     -6.8055868      4.9078047      50218.233      36.893836      36.893836      36.893836    
    154000   0.57161305    -7.6575352     -6.8001278      4.9185695      50218.233      36.893836      36.893836      36.893836    
    155000   0.57108108    -7.6544383     -6.7978289      4.9410319      50218.233      36.893836      36.893836      36.893836    
    156000   0.57159506    -7.6560397     -6.7986593      4.9297146      50218.233      36.893836      36.893836      36.893836    
    157000   0.56728705    -7.6572074     -6.8062889      4.9316294      50218.233      36.893836      36.893836      36.893836    
    158000   0.56995348    -7.657298      -6.80238        4.9180769      50218.233      36.893836      36.893836      36.893836    
    159000   0.5673929     -7.6596324     -6.8085552      4.8906261      50218.233      36.893836      36.893836      36.893836    
    160000   0.5682419     -7.6589984     -6.8066476      4.9006005      50218.233      36.893836      36.893836      36.893836    
    161000   0.5693232     -7.6583878     -6.8044151      4.9089898      50218.233      36.893836      36.893836      36.893836    
    162000   0.57138241    -7.6603168     -6.8032554      4.897103       50218.233      36.893836      36.893836      36.893836    
    163000   0.56990934    -7.6535181     -6.7986662      4.9326491      50218.233      36.893836      36.893836      36.893836    
    164000   0.5700036     -7.6581982     -6.803205       4.9121363      50218.233      36.893836      36.893836      36.893836    
    165000   0.57180227    -7.6613906     -6.8036994      4.897431       50218.233      36.893836      36.893836      36.893836    
    166000   0.57024391    -7.6571886     -6.8018349      4.9213378      50218.233      36.893836      36.893836      36.893836    
    167000   0.57484468    -7.6553711     -6.7931163      4.9461357      50218.233      36.893836      36.893836      36.893836    
    168000   0.57280499    -7.6566063     -6.797411       4.9332557      50218.233      36.893836      36.893836      36.893836    
    169000   0.57211775    -7.658832      -6.8006676      4.9044895      50218.233      36.893836      36.893836      36.893836    
    170000   0.56845252    -7.6553049     -6.8026382      4.9383798      50218.233      36.893836      36.893836      36.893836    
    171000   0.56970747    -7.6602297     -6.8056806      4.8971248      50218.233      36.893836      36.893836      36.893836    
    172000   0.56878134    -7.6556812     -6.8025214      4.9090553      50218.233      36.893836      36.893836      36.893836    
    173000   0.56696013    -7.6605492     -6.8101211      4.8913027      50218.233      36.893836      36.893836      36.893836    
    174000   0.56953497    -7.6570396     -6.8027493      4.9167094      50218.233      36.893836      36.893836      36.893836    
    175000   0.56860781    -7.6591368     -6.8062372      4.8989639      50218.233      36.893836      36.893836      36.893836    
    176000   0.57007995    -7.6544863     -6.7993785      4.9318719      50218.233      36.893836      36.893836      36.893836    
    177000   0.56746967    -7.6554554     -6.804263       4.9124266      50218.233      36.893836      36.893836      36.893836    
    178000   0.5692595     -7.6574618     -6.8035847      4.9061939      50218.233      36.893836      36.893836      36.893836    
    179000   0.57068619    -7.6603871     -6.80437        4.893765       50218.233      36.893836      36.893836      36.893836    
    180000   0.57267953    -7.6575087     -6.7985016      4.9215251      50218.233      36.893836      36.893836      36.893836    
    181000   0.56900974    -7.6591571     -6.8056547      4.9053421      50218.233      36.893836      36.893836      36.893836    
    182000   0.57080543    -7.6553131     -6.7991172      4.9330421      50218.233      36.893836      36.893836      36.893836    
    183000   0.57070439    -7.6552962     -6.7992518      4.9298509      50218.233      36.893836      36.893836      36.893836    
    184000   0.56987734    -7.6539745     -6.7991706      4.9409609      50218.233      36.893836      36.893836      36.893836    
    185000   0.57039732    -7.6571885     -6.8016047      4.9131332      50218.233      36.893836      36.893836      36.893836    
    186000   0.57003776    -7.6599311     -6.8048866      4.8947336      50218.233      36.893836      36.893836      36.893836    
    187000   0.5741554     -7.6633463     -6.8021255      4.8762339      50218.233      36.893836      36.893836      36.893836    
    188000   0.56814036    -7.6601496     -6.8079511      4.8870121      50218.233      36.893836      36.893836      36.893836    
    189000   0.57213401    -7.6564742     -6.7982854      4.915219       50218.233      36.893836      36.893836      36.893836    
    190000   0.57325019    -7.6616627     -6.8017997      4.8917289      50218.233      36.893836      36.893836      36.893836    
    191000   0.56939452    -7.6539156     -6.7998359      4.9354326      50218.233      36.893836      36.893836      36.893836    
    192000   0.57027943    -7.6585739     -6.8031669      4.9094787      50218.233      36.893836      36.893836      36.893836    
    193000   0.56975612    -7.6617172     -6.8070952      4.8888887      50218.233      36.893836      36.893836      36.893836    
    194000   0.57128107    -7.6575273     -6.8006179      4.9171801      50218.233      36.893836      36.893836      36.893836    
    195000   0.57029376    -7.6575842     -6.8021558      4.9130249      50218.233      36.893836      36.893836      36.893836    
    196000   0.57108398    -7.6620114     -6.8053976      4.885332       50218.233      36.893836      36.893836      36.893836    
    197000   0.57146173    -7.6588036     -6.8016231      4.8961732      50218.233      36.893836      36.893836      36.893836    
    198000   0.5696178     -7.6568722     -6.8024577      4.9242737      50218.233      36.893836      36.893836      36.893836    
    199000   0.56874695    -7.6609964     -6.8078881      4.879433       50218.233      36.893836      36.893836      36.893836    
    200000   0.57058685    -7.6585282     -6.8026601      4.8998426      50218.233      36.893836      36.893836      36.893836    
    201000   0.57045061    -7.6592685     -6.8036048      4.8996146      50218.233      36.893836      36.893836      36.893836    
    202000   0.56645996    -7.6589964     -6.8093185      4.9003935      50218.233      36.893836      36.893836      36.893836    
    203000   0.56744095    -7.6594475     -6.8082982      4.8999416      50218.233      36.893836      36.893836      36.893836    
    204000   0.57242657    -7.6579088     -6.7992811      4.914637       50218.233      36.893836      36.893836      36.893836    
    205000   0.57246689    -7.6510371     -6.792349       4.9521753      50218.233      36.893836      36.893836      36.893836    
    206000   0.57020604    -7.6592133     -6.8039165      4.898307       50218.233      36.893836      36.893836      36.893836    
    207000   0.5698058     -7.661687      -6.8069904      4.8795986      50218.233      36.893836      36.893836      36.893836    
    208000   0.56984496    -7.6588541     -6.8040989      4.9009307      50218.233      36.893836      36.893836      36.893836    
    209000   0.57007911    -7.6543399     -6.7992334      4.9376919      50218.233      36.893836      36.893836      36.893836    
    210000   0.56925485    -7.6563765     -6.8025064      4.9231228      50218.233      36.893836      36.893836      36.893836    
    211000   0.56844417    -7.6570041     -6.80435        4.9086353      50218.233      36.893836      36.893836      36.893836    
    212000   0.56863171    -7.6585959     -6.8056605      4.8983064      50218.233      36.893836      36.893836      36.893836    
    213000   0.57096622    -7.6576789     -6.8012417      4.9166208      50218.233      36.893836      36.893836      36.893836    
    214000   0.5665128     -7.6603683     -6.8106111      4.894265       50218.233      36.893836      36.893836      36.893836    
    215000   0.56951892    -7.6593488     -6.8050825      4.9106476      50218.233      36.893836      36.893836      36.893836    
    216000   0.56961265    -7.6576802     -6.8032734      4.9043146      50218.233      36.893836      36.893836      36.893836    
    217000   0.56803013    -7.6565151     -6.804482       4.9229097      50218.233      36.893836      36.893836      36.893836    
    218000   0.56955358    -7.6564026     -6.8020844      4.9096958      50218.233      36.893836      36.893836      36.893836    
    219000   0.57014847    -7.6593629     -6.8041524      4.8945391      50218.233      36.893836      36.893836      36.893836    
    220000   0.57189646    -7.6561957     -6.7983632      4.9201131      50218.233      36.893836      36.893836      36.893836    
    221000   0.57391551    -7.6545705     -6.7937095      4.9402183      50218.233      36.893836      36.893836      36.893836    
    222000   0.57135994    -7.6578406     -6.8008129      4.9251005      50218.233      36.893836      36.893836      36.893836    
    223000   0.57016047    -7.6551895     -6.799961       4.9330476      50218.233      36.893836      36.893836      36.893836    
    224000   0.57054064    -7.6554168     -6.799618       4.9446604      50218.233      36.893836      36.893836      36.893836    
    225000   0.56841494    -7.656597      -6.8039867      4.9193394      50218.233      36.893836      36.893836      36.893836    
    226000   0.57008741    -7.6615453     -6.8064263      4.8862777      50218.233      36.893836      36.893836      36.893836    
    227000   0.56910107    -7.6555213     -6.8018818      4.9371523      50218.233      36.893836      36.893836      36.893836    
    228000   0.56933791    -7.658394      -6.8043993      4.9060568      50218.233      36.893836      36.893836      36.893836    
    229000   0.57189476    -7.6571631     -6.7993332      4.9106483      50218.233      36.893836      36.893836      36.893836    
    230000   0.56910932    -7.6558085     -6.8021566      4.9160144      50218.233      36.893836      36.893836      36.893836    
    231000   0.57148125    -7.6569516     -6.799742       4.9233573      50218.233      36.893836      36.893836      36.893836    
    232000   0.56766336    -7.6563537     -6.8048708      4.9153951      50218.233      36.893836      36.893836      36.893836    
    233000   0.56891732    -7.6540383     -6.8006744      4.9344093      50218.233      36.893836      36.893836      36.893836    
    234000   0.56785076    -7.6560315     -6.8042675      4.9254992      50218.233      36.893836      36.893836      36.893836    
    235000   0.5724114     -7.6554303     -6.7968254      4.9303921      50218.233      36.893836      36.893836      36.893836    
    236000   0.57006916    -7.6577928     -6.8027012      4.9195978      50218.233      36.893836      36.893836      36.893836    
    237000   0.57327287    -7.6611842     -6.8012872      4.8905118      50218.233      36.893836      36.893836      36.893836    
    238000   0.57280302    -7.6553962     -6.7962039      4.9382256      50218.233      36.893836      36.893836      36.893836    
    239000   0.56680534    -7.6542571     -6.8040612      4.9328626      50218.233      36.893836      36.893836      36.893836    
    240000   0.56967649    -7.6534382     -6.7989357      4.9343787      50218.233      36.893836      36.893836      36.893836    
    241000   0.56870109    -7.6520493     -6.7990098      4.9486292      50218.233      36.893836      36.893836      36.893836    
    242000   0.56996561    -7.654693      -6.7997567      4.9347328      50218.233      36.893836      36.893836      36.893836    
    243000   0.57193986    -7.6537171     -6.7958195      4.9460257      50218.233      36.893836      36.893836      36.893836    
    244000   0.56868459    -7.6553798     -6.802365       4.9258473      50218.233      36.893836      36.893836      36.893836    
    245000   0.56638029    -7.6539429     -6.8043846      4.9321555      50218.233      36.893836      36.893836      36.893836    
    246000   0.57055117    -7.6526195     -6.7968049      4.9427657      50218.233      36.893836      36.893836      36.893836    
    247000   0.57164943    -7.6549316     -6.7974697      4.9270486      50218.233      36.893836      36.893836      36.893836    
    248000   0.57163434    -7.6515351     -6.7940958      4.9657423      50218.233      36.893836      36.893836      36.893836    
    249000   0.57025825    -7.6533595     -6.7979843      4.9476118      50218.233      36.893836      36.893836      36.893836    
    250000   0.57158102    -7.6551816     -6.7978222      4.9445512      50218.233      36.893836      36.893836      36.893836    
    251000   0.57140189    -7.6615422     -6.8044516      4.8838349      50218.233      36.893836      36.893836      36.893836    
    252000   0.57009855    -7.652421      -6.7972853      4.9501177      50218.233      36.893836      36.893836      36.893836    
    253000   0.56684163    -7.6541551     -6.8039047      4.9433025      50218.233      36.893836      36.893836      36.893836    
    254000   0.56895014    -7.6563246     -6.8029116      4.9107103      50218.233      36.893836      36.893836      36.893836    
    255000   0.57038123    -7.6524847     -6.7969251      4.954044       50218.233      36.893836      36.893836      36.893836    
    256000   0.5672857     -7.6542884     -6.803372       4.9271421      50218.233      36.893836      36.893836      36.893836    
    257000   0.57287956    -7.6606047     -6.8012976      4.8888577      50218.233      36.893836      36.893836      36.893836    
    258000   0.57141237    -7.6521737     -6.7950673      4.9631481      50218.233      36.893836      36.893836      36.893836    
    259000   0.57200794    -7.6524725     -6.7944728      4.9566418      50218.233      36.893836      36.893836      36.893836    
    260000   0.56816962    -7.6582334     -6.8059911      4.9077402      50218.233      36.893836      36.893836      36.893836    
    261000   0.56960354    -7.6633252     -6.8089321      4.8654363      50218.233      36.893836      36.893836      36.893836    
    262000   0.56999792    -7.6560116     -6.8010268      4.9266435      50218.233      36.893836      36.893836      36.893836    
    263000   0.56856153    -7.6540664     -6.8012362      4.9397777      50218.233      36.893836      36.893836      36.893836    
    264000   0.56911847    -7.6541511     -6.8004855      4.9390666      50218.233      36.893836      36.893836      36.893836    
    265000   0.57039206    -7.6567882     -6.8012123      4.9186976      50218.233      36.893836      36.893836      36.893836    
    266000   0.57217121    -7.6558158     -6.7975712      4.9198592      50218.233      36.893836      36.893836      36.893836    
    267000   0.57145322    -7.6567576     -6.79959        4.9202467      50218.233      36.893836      36.893836      36.893836    
    268000   0.57139575    -7.6557114     -6.79863        4.9289358      50218.233      36.893836      36.893836      36.893836    
    269000   0.57031005    -7.6549049     -6.799452       4.920952       50218.233      36.893836      36.893836      36.893836    
    270000   0.57100111    -7.6565818     -6.8000924      4.9164923      50218.233      36.893836      36.893836      36.893836    
    271000   0.56791922    -7.6521736     -6.8003069      4.944001       50218.233      36.893836      36.893836      36.893836    
    272000   0.569726      -7.6572512     -6.8026743      4.9108623      50218.233      36.893836      36.893836      36.893836    
    273000   0.57103359    -7.6493511     -6.7928129      4.9792334      50218.233      36.893836      36.893836      36.893836    
    274000   0.56671314    -7.6578988     -6.8078411      4.9020498      50218.233      36.893836      36.893836      36.893836    
    275000   0.56607461    -7.6533267     -6.8042268      4.9392588      50218.233      36.893836      36.893836      36.893836    
    276000   0.56911924    -7.6597719     -6.8061052      4.8922907      50218.233      36.893836      36.893836      36.893836    
    277000   0.57150773    -7.6525799     -6.7953304      4.9489694      50218.233      36.893836      36.893836      36.893836    
    278000   0.57208598    -7.6535846     -6.7954678      4.9521742      50218.233      36.893836      36.893836      36.893836    
    279000   0.56800334    -7.6627322     -6.8107393      4.8720652      50218.233      36.893836      36.893836      36.893836    
    280000   0.56825529    -7.6549781     -6.8026073      4.9337408      50218.233      36.893836      36.893836      36.893836    
    281000   0.57223209    -7.6504668     -6.7921309      4.9760243      50218.233      36.893836      36.893836      36.893836    
    282000   0.5713683     -7.6501248     -6.7930846      4.9635133      50218.233      36.893836      36.893836      36.893836    
    283000   0.56568018    -7.6570259     -6.8085177      4.9034929      50218.233      36.893836      36.893836      36.893836    
    284000   0.56874753    -7.6569608     -6.8038517      4.9233415      50218.233      36.893836      36.893836      36.893836    
    285000   0.57057944    -7.6580597     -6.8022028      4.9059396      50218.233      36.893836      36.893836      36.893836    
    286000   0.57181671    -7.659269      -6.8015561      4.9077666      50218.233      36.893836      36.893836      36.893836    
    287000   0.57053689    -7.658014      -6.8022209      4.8978832      50218.233      36.893836      36.893836      36.893836    
    288000   0.5697592     -7.6578124     -6.8031857      4.9092764      50218.233      36.893836      36.893836      36.893836    
    289000   0.56930957    -7.6539754     -6.8000232      4.92122        50218.233      36.893836      36.893836      36.893836    
    290000   0.57147049    -7.6543788     -6.7971853      4.9303251      50218.233      36.893836      36.893836      36.893836    
    291000   0.57139244    -7.6616536     -6.8045771      4.8875926      50218.233      36.893836      36.893836      36.893836    
    292000   0.57032103    -7.6589562     -6.8034868      4.9068474      50218.233      36.893836      36.893836      36.893836    
    293000   0.56932264    -7.6583109     -6.804339       4.909849       50218.233      36.893836      36.893836      36.893836    
    294000   0.5724641     -7.6565888     -6.7979048      4.9222897      50218.233      36.893836      36.893836      36.893836    
    295000   0.57043608    -7.6538668     -6.7982249      4.9387068      50218.233      36.893836      36.893836      36.893836    
    296000   0.57114061    -7.6598171     -6.8031183      4.8973049      50218.233      36.893836      36.893836      36.893836    
    297000   0.56722       -7.6577242     -6.8069063      4.908432       50218.233      36.893836      36.893836      36.893836    
    298000   0.57094186    -7.6579117     -6.8015111      4.9130778      50218.233      36.893836      36.893836      36.893836    
    299000   0.56955105    -7.6600707     -6.8057563      4.9071313      50218.233      36.893836      36.893836      36.893836    
    300000   0.56969048    -7.6569787     -6.8024552      4.9120842      50218.233      36.893836      36.893836      36.893836    
    301000   0.56974461    -7.6584199     -6.8038151      4.9077857      50218.233      36.893836      36.893836      36.893836    
    302000   0.56952527    -7.657185      -6.8029092      4.9116648      50218.233      36.893836      36.893836      36.893836    
    303000   0.56929609    -7.6610915     -6.8071595      4.8765734      50218.233      36.893836      36.893836      36.893836    
    304000   0.57363169    -7.6574239     -6.7969886      4.9073284      50218.233      36.893836      36.893836      36.893836    
    305000   0.56880677    -7.6568852     -6.8036872      4.9117751      50218.233      36.893836      36.893836      36.893836    
    306000   0.56855141    -7.6534905     -6.8006755      4.926958       50218.233      36.893836      36.893836      36.893836    
    307000   0.57120248    -7.6595781     -6.8027865      4.9022271      50218.233      36.893836      36.893836      36.893836    
    308000   0.57274499    -7.6601187     -6.8010134      4.8884932      50218.233      36.893836      36.893836      36.893836    
    309000   0.57022089    -7.6606269     -6.8053077      4.8903135      50218.233      36.893836      36.893836      36.893836    
    310000   0.56954145    -7.6548709     -6.8005709      4.9246292      50218.233      36.893836      36.893836      36.893836    
    311000   0.56866458    -7.6614507     -6.808466       4.8773519      50218.233      36.893836      36.893836      36.893836    
    312000   0.57150714    -7.6560303     -6.7987818      4.9384843      50218.233      36.893836      36.893836      36.893836    
    313000   0.57050738    -7.6576784     -6.8019295      4.9096005      50218.233      36.893836      36.893836      36.893836    
    314000   0.56954471    -7.6569016     -6.8025967      4.9072111      50218.233      36.893836      36.893836      36.893836    
    315000   0.56767843    -7.6646909     -6.8131854      4.8594377      50218.233      36.893836      36.893836      36.893836    
    316000   0.5698928     -7.6578966     -6.8030695      4.9140277      50218.233      36.893836      36.893836      36.893836    
    317000   0.56828772    -7.6607999     -6.8083805      4.8772956      50218.233      36.893836      36.893836      36.893836    
    318000   0.56911405    -7.65927       -6.8056111      4.8932556      50218.233      36.893836      36.893836      36.893836    
    319000   0.57069613    -7.6614934     -6.8054614      4.8760186      50218.233      36.893836      36.893836      36.893836    
    320000   0.57357222    -7.6569138     -6.7965677      4.9234322      50218.233      36.893836      36.893836      36.893836    
    321000   0.56849895    -7.6564659     -6.8037296      4.9238691      50218.233      36.893836      36.893836      36.893836    
    322000   0.56932774    -7.6559987     -6.8020192      4.9251218      50218.233      36.893836      36.893836      36.893836    
    323000   0.56989793    -7.6619157     -6.807081       4.8833018      50218.233      36.893836      36.893836      36.893836    
    324000   0.57013965    -7.6619903     -6.806793       4.8756482      50218.233      36.893836      36.893836      36.893836    
    325000   0.57003024    -7.6567647     -6.8017315      4.9208627      50218.233      36.893836      36.893836      36.893836    
    326000   0.57380332    -7.6550693     -6.7943766      4.9440094      50218.233      36.893836      36.893836      36.893836    
    327000   0.57150157    -7.6560111     -6.7987709      4.9250985      50218.233      36.893836      36.893836      36.893836    
    328000   0.57116446    -7.6596983     -6.8029638      4.9013112      50218.233      36.893836      36.893836      36.893836    
    329000   0.5712899     -7.653919      -6.7969963      4.944694       50218.233      36.893836      36.893836      36.893836    
    330000   0.56785475    -7.6609072     -6.8091372      4.8799559      50218.233      36.893836      36.893836      36.893836    
    331000   0.57377554    -7.6555692     -6.7949181      4.9372284      50218.233      36.893836      36.893836      36.893836    
    332000   0.56897238    -7.6549048     -6.8014584      4.9295336      50218.233      36.893836      36.893836      36.893836    
    333000   0.5698112     -7.6572226     -6.802518       4.9207725      50218.233      36.893836      36.893836      36.893836    
    334000   0.56876798    -7.6623907     -6.8092509      4.8816004      50218.233      36.893836      36.893836      36.893836    
    335000   0.57024068    -7.6572891     -6.8019403      4.9198279      50218.233      36.893836      36.893836      36.893836    
    336000   0.57053732    -7.654267      -6.7984732      4.9429568      50218.233      36.893836      36.893836      36.893836    
    337000   0.57039648    -7.6641897     -6.8086072      4.855962       50218.233      36.893836      36.893836      36.893836    
    338000   0.56928518    -7.6583614     -6.8044458      4.9013078      50218.233      36.893836      36.893836      36.893836    
    339000   0.56941133    -7.6571795     -6.8030747      4.9056565      50218.233      36.893836      36.893836      36.893836    
    340000   0.56932484    -7.6555373     -6.8015622      4.9232049      50218.233      36.893836      36.893836      36.893836    
    341000   0.57317853    -7.6555179     -6.7957623      4.9295323      50218.233      36.893836      36.893836      36.893836    
    342000   0.57273315    -7.6573219     -6.7982344      4.9229604      50218.233      36.893836      36.893836      36.893836    
    343000   0.56798318    -7.6577333     -6.8057707      4.918559       50218.233      36.893836      36.893836      36.893836    
    344000   0.57242159    -7.6583055     -6.7996854      4.9127021      50218.233      36.893836      36.893836      36.893836    
    345000   0.57080733    -7.65974       -6.8035412      4.9114508      50218.233      36.893836      36.893836      36.893836    
    346000   0.57167839    -7.658874      -6.8013686      4.9054574      50218.233      36.893836      36.893836      36.893836    
    347000   0.57193857    -7.6560144     -6.7981187      4.9326864      50218.233      36.893836      36.893836      36.893836    
    348000   0.5665873     -7.6590228     -6.8091539      4.902547       50218.233      36.893836      36.893836      36.893836    
    349000   0.57022253    -7.6612716     -6.8059499      4.8875654      50218.233      36.893836      36.893836      36.893836    
    350000   0.56925649    -7.6588089     -6.8049363      4.9121338      50218.233      36.893836      36.893836      36.893836    
    351000   0.56816129    -7.6592161     -6.8069863      4.9224573      50218.233      36.893836      36.893836      36.893836    
    352000   0.56932954    -7.6574912     -6.803509       4.9268859      50218.233      36.893836      36.893836      36.893836    
    353000   0.57129775    -7.6570083     -6.8000738      4.9228283      50218.233      36.893836      36.893836      36.893836    
    354000   0.56825301    -7.660589      -6.8082216      4.907402       50218.233      36.893836      36.893836      36.893836    
    355000   0.56736834    -7.6583478     -6.8073074      4.9144282      50218.233      36.893836      36.893836      36.893836    
    356000   0.56848948    -7.659772      -6.8070499      4.904862       50218.233      36.893836      36.893836      36.893836    
    357000   0.56975414    -7.6601586     -6.8055396      4.8932133      50218.233      36.893836      36.893836      36.893836    
    358000   0.56798824    -7.6586402     -6.8066699      4.9129697      50218.233      36.893836      36.893836      36.893836    
    359000   0.57109149    -7.6571239     -6.8004988      4.9109863      50218.233      36.893836      36.893836      36.893836    
    360000   0.57142455    -7.6587817     -6.801657       4.9250754      50218.233      36.893836      36.893836      36.893836    
    361000   0.56669082    -7.6557117     -6.8056875      4.9265343      50218.233      36.893836      36.893836      36.893836    
    362000   0.57026493    -7.6581777     -6.8027925      4.9164291      50218.233      36.893836      36.893836      36.893836    
    363000   0.57099915    -7.6598219     -6.8033354      4.9135272      50218.233      36.893836      36.893836      36.893836    
    364000   0.57004968    -7.656099      -6.8010367      4.9302217      50218.233      36.893836      36.893836      36.893836    
    365000   0.56773129    -7.662169      -6.8105842      4.8778747      50218.233      36.893836      36.893836      36.893836    
    366000   0.56755677    -7.6586409     -6.8073178      4.9025404      50218.233      36.893836      36.893836      36.893836    
    367000   0.56920058    -7.6590997     -6.805311       4.9114904      50218.233      36.893836      36.893836      36.893836    
    368000   0.5672932     -7.6580522     -6.8071245      4.9214052      50218.233      36.893836      36.893836      36.893836    
    369000   0.57205648    -7.6601577     -6.8020852      4.9043523      50218.233      36.893836      36.893836      36.893836    
    370000   0.57022449    -7.6584584     -6.8031338      4.9168869      50218.233      36.893836      36.893836      36.893836    
    371000   0.57137416    -7.6588644     -6.8018153      4.921708       50218.233      36.893836      36.893836      36.893836    
    372000   0.57312038    -7.6585162     -6.7988479      4.9137599      50218.233      36.893836      36.893836      36.893836    
    373000   0.5672295     -7.6565863     -6.8057541      4.9116463      50218.233      36.893836      36.893836      36.893836    
    374000   0.57024169    -7.6560086     -6.8006582      4.9351077      50218.233      36.893836      36.893836      36.893836    
    375000   0.57010583    -7.6614743     -6.8063277      4.8746928      50218.233      36.893836      36.893836      36.893836    
    376000   0.56885504    -7.6600128     -6.8067424      4.8984471      50218.233      36.893836      36.893836      36.893836    
    377000   0.56667388    -7.6579        -6.8079013      4.9076375      50218.233      36.893836      36.893836      36.893836    
    378000   0.57238813    -7.6559672     -6.7973972      4.928716       50218.233      36.893836      36.893836      36.893836    
    379000   0.57040406    -7.6563374     -6.8007435      4.9307591      50218.233      36.893836      36.893836      36.893836    
    380000   0.57087089    -7.6625795     -6.8062853      4.8830212      50218.233      36.893836      36.893836      36.893836    
    381000   0.56855065    -7.6582262     -6.8054124      4.9170737      50218.233      36.893836      36.893836      36.893836    
    382000   0.56961946    -7.6587753     -6.8043583      4.9037985      50218.233      36.893836      36.893836      36.893836    
    383000   0.57288193    -7.6619534     -6.8026427      4.8819956      50218.233      36.893836      36.893836      36.893836    
    384000   0.56942269    -7.6591905     -6.8050686      4.9087889      50218.233      36.893836      36.893836      36.893836    
    385000   0.56959777    -7.6545748     -6.8001903      4.9333991      50218.233      36.893836      36.893836      36.893836    
    386000   0.57023631    -7.6575338     -6.8021915      4.9297104      50218.233      36.893836      36.893836      36.893836    
    387000   0.57126344    -7.6594276     -6.8025447      4.9188714      50218.233      36.893836      36.893836      36.893836    
    388000   0.56824357    -7.661271      -6.8089178      4.888236       50218.233      36.893836      36.893836      36.893836    
    389000   0.57407291    -7.6560138     -6.7949167      4.9380086      50218.233      36.893836      36.893836      36.893836    
    390000   0.56896138    -7.6555927     -6.8021628      4.942307       50218.233      36.893836      36.893836      36.893836    
    391000   0.57111       -7.6572882     -6.8006353      4.9243834      50218.233      36.893836      36.893836      36.893836    
    392000   0.57013023    -7.6614558     -6.8062726      4.8873434      50218.233      36.893836      36.893836      36.893836    
    393000   0.56803496    -7.6577046     -6.8056643      4.9176871      50218.233      36.893836      36.893836      36.893836    
    394000   0.5705752     -7.6588763     -6.8030257      4.8997146      50218.233      36.893836      36.893836      36.893836    
    395000   0.56910619    -7.6610198     -6.8073727      4.8935369      50218.233      36.893836      36.893836      36.893836    
    396000   0.56972733    -7.6539479     -6.7993691      4.9391222      50218.233      36.893836      36.893836      36.893836    
    397000   0.57109525    -7.6560579     -6.7994272      4.9270023      50218.233      36.893836      36.893836      36.893836    
    398000   0.57121108    -7.6574078     -6.8006034      4.9134821      50218.233      36.893836      36.893836      36.893836    
    399000   0.57398843    -7.6548628     -6.7938924      4.9477947      50218.233      36.893836      36.893836      36.893836    
    400000   0.56904883    -7.6578746     -6.8043135      4.911979       50218.233      36.893836      36.893836      36.893836    
    401000   0.57135079    -7.6644613     -6.8074473      4.8678937      50218.233      36.893836      36.893836      36.893836    
    402000   0.57232352    -7.6599812     -6.8015081      4.9086083      50218.233      36.893836      36.893836      36.893836    
    403000   0.57034683    -7.6582935     -6.8027854      4.9239834      50218.233      36.893836      36.893836      36.893836    
    404000   0.57125778    -7.660828      -6.8039535      4.9107508      50218.233      36.893836      36.893836      36.893836    
    405000   0.56899753    -7.6561932     -6.8027091      4.9231347      50218.233      36.893836      36.893836      36.893836    
    406000   0.57070638    -7.6554105     -6.7993631      4.9363703      50218.233      36.893836      36.893836      36.893836    
    407000   0.56855759    -7.6606366     -6.8078123      4.8995149      50218.233      36.893836      36.893836      36.893836    
    408000   0.56965253    -7.6579756     -6.8035089      4.9195518      50218.233      36.893836      36.893836      36.893836    
    409000   0.57004632    -7.658613      -6.8035557      4.9146507      50218.233      36.893836      36.893836      36.893836    
    410000   0.5691294     -7.6653701     -6.8116881      4.8658372      50218.233      36.893836      36.893836      36.893836    
    411000   0.5749544     -7.6620554     -6.7996361      4.885099       50218.233      36.893836      36.893836      36.893836    
    412000   0.56931829    -7.6579658     -6.8040005      4.8978874      50218.233      36.893836      36.893836      36.893836    
    413000   0.56809529    -7.6623077     -6.8101769      4.8945002      50218.233      36.893836      36.893836      36.893836    
    414000   0.56810075    -7.6621451     -6.8100061      4.8867813      50218.233      36.893836      36.893836      36.893836    
    415000   0.57128       -7.661465      -6.8045572      4.8869517      50218.233      36.893836      36.893836      36.893836    
    416000   0.56909225    -7.6571211     -6.8034948      4.9078541      50218.233      36.893836      36.893836      36.893836    
    417000   0.57066565    -7.6607491     -6.8047628      4.8916112      50218.233      36.893836      36.893836      36.893836    
    418000   0.57046258    -7.6554797     -6.7997981      4.9424573      50218.233      36.893836      36.893836      36.893836    
    419000   0.57182485    -7.6599806     -6.8022555      4.8957024      50218.233      36.893836      36.893836      36.893836    
    420000   0.57094003    -7.6576266     -6.8012287      4.915592       50218.233      36.893836      36.893836      36.893836    
    421000   0.5693215     -7.6529188     -6.7989487      4.9488522      50218.233      36.893836      36.893836      36.893836    
    422000   0.56954052    -7.6547933     -6.8004947      4.9378558      50218.233      36.893836      36.893836      36.893836    
    423000   0.57425264    -7.6604093     -6.7990425      4.899241       50218.233      36.893836      36.893836      36.893836    
    424000   0.56916842    -7.6584701     -6.8047296      4.9043404      50218.233      36.893836      36.893836      36.893836    
    425000   0.57126856    -7.6639413     -6.8070506      4.8870173      50218.233      36.893836      36.893836      36.893836    
    426000   0.57022064    -7.6564732     -6.8011544      4.9277484      50218.233      36.893836      36.893836      36.893836    
    427000   0.57307379    -7.66051       -6.8009115      4.8993298      50218.233      36.893836      36.893836      36.893836    
    428000   0.57401263    -7.6570443     -6.7960376      4.9248062      50218.233      36.893836      36.893836      36.893836    
    429000   0.56857671    -7.6522278     -6.7993748      4.9572562      50218.233      36.893836      36.893836      36.893836    
    430000   0.57074182    -7.6610763     -6.8049758      4.8878818      50218.233      36.893836      36.893836      36.893836    
    431000   0.56858048    -7.6588566     -6.805998       4.9163622      50218.233      36.893836      36.893836      36.893836    
    432000   0.5696532     -7.6531726     -6.798705       4.9402738      50218.233      36.893836      36.893836      36.893836    
    433000   0.57288226    -7.658624      -6.7993128      4.901861       50218.233      36.893836      36.893836      36.893836    
    434000   0.57155069    -7.6563909     -6.7990771      4.9143906      50218.233      36.893836      36.893836      36.893836    
    435000   0.57046239    -7.6569648     -6.8012834      4.9213914      50218.233      36.893836      36.893836      36.893836    
    436000   0.57269005    -7.6577775     -6.7987546      4.919082       50218.233      36.893836      36.893836      36.893836    
    437000   0.56813336    -7.6589282     -6.8067403      4.9018296      50218.233      36.893836      36.893836      36.893836    
    438000   0.56626778    -7.6600509     -6.8106614      4.8960746      50218.233      36.893836      36.893836      36.893836    
    439000   0.5681465     -7.6634546     -6.8112469      4.8715359      50218.233      36.893836      36.893836      36.893836    
    440000   0.56744162    -7.6552232     -6.8040728      4.9301701      50218.233      36.893836      36.893836      36.893836    
    441000   0.56927735    -7.6586818     -6.8047779      4.9103566      50218.233      36.893836      36.893836      36.893836    
    442000   0.57140382    -7.6559388     -6.7988452      4.9216647      50218.233      36.893836      36.893836      36.893836    
    443000   0.56814794    -7.6611552     -6.8089454      4.8823648      50218.233      36.893836      36.893836      36.893836    
    444000   0.56825509    -7.6594634     -6.8070929      4.8867375      50218.233      36.893836      36.893836      36.893836    
    445000   0.57162387    -7.6548613     -6.7974377      4.9456897      50218.233      36.893836      36.893836      36.893836    
    446000   0.57108022    -7.6591309     -6.8025228      4.8932457      50218.233      36.893836      36.893836      36.893836    
    447000   0.56808202    -7.6550992     -6.8029883      4.9250796      50218.233      36.893836      36.893836      36.893836    
    448000   0.56824213    -7.6618804     -6.8095293      4.8917603      50218.233      36.893836      36.893836      36.893836    
    449000   0.56958275    -7.6597691     -6.8054071      4.903594       50218.233      36.893836      36.893836      36.893836    
    450000   0.57241467    -7.6632907     -6.8046809      4.8720352      50218.233      36.893836      36.893836      36.893836    
    451000   0.56799509    -7.6628405     -6.81086        4.874931       50218.233      36.893836      36.893836      36.893836    
    452000   0.56921462    -7.6637028     -6.8098931      4.856931       50218.233      36.893836      36.893836      36.893836    
    453000   0.57213242    -7.6627258     -6.8045393      4.8836535      50218.233      36.893836      36.893836      36.893836    
    454000   0.57072294    -7.6608442     -6.804772       4.8766791      50218.233      36.893836      36.893836      36.893836    
    455000   0.56978381    -7.6612616     -6.8065981      4.8910214      50218.233      36.893836      36.893836      36.893836    
    456000   0.56923537    -7.6638887     -6.8100477      4.8876059      50218.233      36.893836      36.893836      36.893836    
    457000   0.56984465    -7.6640145     -6.8092597      4.8650241      50218.233      36.893836      36.893836      36.893836    
    458000   0.57142626    -7.6602639     -6.8031367      4.8817291      50218.233      36.893836      36.893836      36.893836    
    459000   0.57182689    -7.6640028     -6.8062746      4.868841       50218.233      36.893836      36.893836      36.893836    
    460000   0.56855459    -7.6623489     -6.8095292      4.867381       50218.233      36.893836      36.893836      36.893836    
    461000   0.57033611    -7.6592505     -6.8037585      4.9048499      50218.233      36.893836      36.893836      36.893836    
    462000   0.56928184    -7.6617281     -6.8078175      4.8813033      50218.233      36.893836      36.893836      36.893836    
    463000   0.57199146    -7.6632701     -6.8052951      4.8750682      50218.233      36.893836      36.893836      36.893836    
    464000   0.57031895    -7.6636679     -6.8082016      4.8589352      50218.233      36.893836      36.893836      36.893836    
    465000   0.57205794    -7.6608316     -6.8027569      4.8927749      50218.233      36.893836      36.893836      36.893836    
    466000   0.56965605    -7.6594973     -6.8050253      4.9010267      50218.233      36.893836      36.893836      36.893836    
    467000   0.57102333    -7.6600255     -6.8035027      4.8945627      50218.233      36.893836      36.893836      36.893836    
    468000   0.57245003    -7.663468      -6.8048052      4.86961        50218.233      36.893836      36.893836      36.893836    
    469000   0.5694441     -7.6598492     -6.8056952      4.9014493      50218.233      36.893836      36.893836      36.893836    
    470000   0.57155561    -7.6589619     -6.8016407      4.905273       50218.233      36.893836      36.893836      36.893836    
    471000   0.5716864     -7.6615879     -6.8040705      4.8798031      50218.233      36.893836      36.893836      36.893836    
    472000   0.56927546    -7.6617837     -6.8078827      4.8882737      50218.233      36.893836      36.893836      36.893836    
    473000   0.56951536    -7.660294      -6.8060331      4.9052878      50218.233      36.893836      36.893836      36.893836    
    474000   0.57028512    -7.6582672     -6.8028517      4.8967676      50218.233      36.893836      36.893836      36.893836    
    475000   0.57105511    -7.6570482     -6.8004777      4.9245204      50218.233      36.893836      36.893836      36.893836    
    476000   0.56706055    -7.6631169     -6.8125381      4.8658819      50218.233      36.893836      36.893836      36.893836    
    477000   0.57041469    -7.656753      -6.8011432      4.9221789      50218.233      36.893836      36.893836      36.893836    
    478000   0.57178923    -7.6605536     -6.8028819      4.8847013      50218.233      36.893836      36.893836      36.893836    
    479000   0.5664694     -7.6657573     -6.8160653      4.8424778      50218.233      36.893836      36.893836      36.893836    
    480000   0.57084463    -7.6618006     -6.8055458      4.8782481      50218.233      36.893836      36.893836      36.893836    
    481000   0.56836732    -7.6578525     -6.8053136      4.917383       50218.233      36.893836      36.893836      36.893836    
    482000   0.56952357    -7.6631385     -6.8088653      4.8690445      50218.233      36.893836      36.893836      36.893836    
    483000   0.57075539    -7.6624071     -6.8062862      4.8672427      50218.233      36.893836      36.893836      36.893836    
    484000   0.5728486     -7.6603159     -6.8010552      4.894004       50218.233      36.893836      36.893836      36.893836    
    485000   0.57030635    -7.6557556     -6.8003082      4.9290673      50218.233      36.893836      36.893836      36.893836    
    486000   0.56796328    -7.6678522     -6.8159194      4.8328137      50218.233      36.893836      36.893836      36.893836    
    487000   0.57086261    -7.6608103     -6.8045285      4.8796063      50218.233      36.893836      36.893836      36.893836    
    488000   0.57044279    -7.6588073     -6.8031553      4.9053747      50218.233      36.893836      36.893836      36.893836    
    489000   0.57100904    -7.6591894     -6.802688       4.8999611      50218.233      36.893836      36.893836      36.893836    
    490000   0.56889418    -7.657871      -6.8045418      4.9183594      50218.233      36.893836      36.893836      36.893836    
    491000   0.57003023    -7.6595808     -6.8045476      4.8948503      50218.233      36.893836      36.893836      36.893836    
    492000   0.5724769     -7.6595113     -6.8008081      4.9059118      50218.233      36.893836      36.893836      36.893836    
    493000   0.57016583    -7.6581287     -6.8028921      4.9081014      50218.233      36.893836      36.893836      36.893836    
    494000   0.57023579    -7.6621297     -6.8067882      4.882998       50218.233      36.893836      36.893836      36.893836    
    495000   0.56791381    -7.6646062     -6.8127476      4.8658763      50218.233      36.893836      36.893836      36.893836    
    496000   0.56831844    -7.6589701     -6.8065046      4.8973986      50218.233      36.893836      36.893836      36.893836    
    497000   0.57011042    -7.6539785     -6.798825       4.9362049      50218.233      36.893836      36.893836      36.893836    
    498000   0.56580967    -7.6638029     -6.8151005      4.8586572      50218.233      36.893836      36.893836      36.893836    
    499000   0.57171913    -7.6636643     -6.8060978      4.8753808      50218.233      36.893836      36.893836      36.893836    
    500000   0.57012974    -7.6619513     -6.8067688      4.8831704      50218.233      36.893836      36.893836      36.893836    
    501000   0.57065989    -7.663348      -6.8073703      4.8806977      50218.233      36.893836      36.893836      36.893836    
    502000   0.56856543    -7.659854      -6.807018       4.8990859      50218.233      36.893836      36.893836      36.893836    
    503000   0.56987133    -7.6609184     -6.8061235      4.8899895      50218.233      36.893836      36.893836      36.893836    
    504000   0.57345857    -7.6600437     -6.7998681      4.9015339      50218.233      36.893836      36.893836      36.893836    
    505000   0.56627031    -7.66184       -6.8124466      4.8786802      50218.233      36.893836      36.893836      36.893836    
    506000   0.57069924    -7.6591981     -6.8031614      4.9091571      50218.233      36.893836      36.893836      36.893836    
    507000   0.57091839    -7.6613946     -6.8050292      4.8825384      50218.233      36.893836      36.893836      36.893836    
    508000   0.56865308    -7.6636596     -6.8106921      4.8757621      50218.233      36.893836      36.893836      36.893836    
    509000   0.57035438    -7.6536537     -6.7981343      4.9504452      50218.233      36.893836      36.893836      36.893836    
    510000   0.56794548    -7.6555619     -6.8036558      4.9226828      50218.233      36.893836      36.893836      36.893836    
    511000   0.57011653    -7.658997      -6.8038343      4.9073969      50218.233      36.893836      36.893836      36.893836    
    512000   0.56615798    -7.6554306     -6.8062057      4.9179402      50218.233      36.893836      36.893836      36.893836    
    513000   0.5683138     -7.6584539     -6.8059954      4.9055615      50218.233      36.893836      36.893836      36.893836    
    514000   0.57040106    -7.6588598     -6.8032704      4.8986945      50218.233      36.893836      36.893836      36.893836    
    515000   0.57006544    -7.6602753     -6.8051893      4.8935163      50218.233      36.893836      36.893836      36.893836    
    516000   0.57028181    -7.657413      -6.8020025      4.9116425      50218.233      36.893836      36.893836      36.893836    
    517000   0.57528094    -7.660386      -6.7974769      4.9071227      50218.233      36.893836      36.893836      36.893836    
    518000   0.56895771    -7.6597226     -6.8062982      4.8932961      50218.233      36.893836      36.893836      36.893836    
    519000   0.56631811    -7.6569541     -6.807489       4.9167931      50218.233      36.893836      36.893836      36.893836    
    520000   0.56693751    -7.6623807     -6.8119866      4.8813099      50218.233      36.893836      36.893836      36.893836    
    521000   0.5714092     -7.6572267     -6.8001251      4.924009       50218.233      36.893836      36.893836      36.893836    
    522000   0.56834001    -7.6576546     -6.8051567      4.9110781      50218.233      36.893836      36.893836      36.893836    
    523000   0.57232339    -7.6588375     -6.8003646      4.9206476      50218.233      36.893836      36.893836      36.893836    
    524000   0.57192217    -7.6601631     -6.802292       4.8934705      50218.233      36.893836      36.893836      36.893836    
    525000   0.57011005    -7.6627676     -6.8076147      4.8692008      50218.233      36.893836      36.893836      36.893836    
    526000   0.57231522    -7.6578087     -6.7993481      4.9036488      50218.233      36.893836      36.893836      36.893836    
    527000   0.57060313    -7.657787      -6.8018945      4.9012807      50218.233      36.893836      36.893836      36.893836    
    528000   0.56926511    -7.6626205     -6.8087349      4.8753953      50218.233      36.893836      36.893836      36.893836    
    529000   0.56944783    -7.6635218     -6.8093622      4.864684       50218.233      36.893836      36.893836      36.893836    
    530000   0.57009117    -7.6637684     -6.8086438      4.8692804      50218.233      36.893836      36.893836      36.893836    
    531000   0.56814956    -7.6601135     -6.8079013      4.8846147      50218.233      36.893836      36.893836      36.893836    
    532000   0.56957966    -7.6611662     -6.8068088      4.8872584      50218.233      36.893836      36.893836      36.893836    
    533000   0.56863402    -7.6651499     -6.812211       4.8634854      50218.233      36.893836      36.893836      36.893836    
    534000   0.57142518    -7.6615811     -6.8044555      4.8819133      50218.233      36.893836      36.893836      36.893836    
    535000   0.57038848    -7.6655        -6.8099295      4.8535506      50218.233      36.893836      36.893836      36.893836    
    536000   0.56646739    -7.6627083     -6.8130193      4.8802243      50218.233      36.893836      36.893836      36.893836    
    537000   0.57312921    -7.6651706     -6.805489       4.8584027      50218.233      36.893836      36.893836      36.893836    
    538000   0.57110062    -7.6605183     -6.8038796      4.8997903      50218.233      36.893836      36.893836      36.893836    
    539000   0.56767059    -7.6635994     -6.8121056      4.8729397      50218.233      36.893836      36.893836      36.893836    
    540000   0.57029908    -7.6603093     -6.8048728      4.8879007      50218.233      36.893836      36.893836      36.893836    
    541000   0.57079803    -7.6641803     -6.8079954      4.8701344      50218.233      36.893836      36.893836      36.893836    
    542000   0.57008713    -7.6675268     -6.8124083      4.84804        50218.233      36.893836      36.893836      36.893836    
    543000   0.56955676    -7.6571738     -6.8028508      4.919082       50218.233      36.893836      36.893836      36.893836    
    544000   0.57214353    -7.6620612     -6.8038581      4.8804735      50218.233      36.893836      36.893836      36.893836    
    545000   0.56821987    -7.6628073     -6.8104896      4.8752967      50218.233      36.893836      36.893836      36.893836    
    546000   0.57053131    -7.6613086     -6.8055238      4.8915107      50218.233      36.893836      36.893836      36.893836    
    547000   0.57215636    -7.6590607     -6.8008384      4.9069731      50218.233      36.893836      36.893836      36.893836    
    548000   0.5702304     -7.6644294     -6.809096       4.8671277      50218.233      36.893836      36.893836      36.893836    
    549000   0.56918496    -7.661933      -6.8081677      4.876791       50218.233      36.893836      36.893836      36.893836    
    550000   0.56981856    -7.6564807     -6.801765       4.92261        50218.233      36.893836      36.893836      36.893836    
    551000   0.56686834    -7.6606143     -6.8103239      4.8808932      50218.233      36.893836      36.893836      36.893836    
    552000   0.56877159    -7.6653442     -6.8121989      4.8497734      50218.233      36.893836      36.893836      36.893836    
    553000   0.56897417    -7.6532485     -6.7997994      4.9415048      50218.233      36.893836      36.893836      36.893836    
    554000   0.56981294    -7.6590798     -6.8043726      4.8829625      50218.233      36.893836      36.893836      36.893836    
    555000   0.57061627    -7.6553524     -6.7994401      4.9235332      50218.233      36.893836      36.893836      36.893836    
    556000   0.56622402    -7.6641918     -6.8148678      4.8579375      50218.233      36.893836      36.893836      36.893836    
    557000   0.56727263    -7.664293      -6.8133961      4.8533703      50218.233      36.893836      36.893836      36.893836    
    558000   0.56909709    -7.6629297     -6.8092962      4.8717862      50218.233      36.893836      36.893836      36.893836    
    559000   0.57089203    -7.6610519     -6.804726       4.8967442      50218.233      36.893836      36.893836      36.893836    
    560000   0.57148783    -7.6615903     -6.8043708      4.8774005      50218.233      36.893836      36.893836      36.893836    
    561000   0.57007919    -7.6591227     -6.8040161      4.8926751      50218.233      36.893836      36.893836      36.893836    
    562000   0.56981764    -7.6603077     -6.8055934      4.8913455      50218.233      36.893836      36.893836      36.893836    
    563000   0.5747699     -7.6634871     -6.8013445      4.8692525      50218.233      36.893836      36.893836      36.893836    
    564000   0.56918367    -7.6606213     -6.8068579      4.8836805      50218.233      36.893836      36.893836      36.893836    
    565000   0.56675974    -7.6604492     -6.8103217      4.891245       50218.233      36.893836      36.893836      36.893836    
    566000   0.56898377    -7.6623018     -6.8088383      4.8730087      50218.233      36.893836      36.893836      36.893836    
    567000   0.56984633    -7.6626531     -6.8078958      4.8649901      50218.233      36.893836      36.893836      36.893836    
    568000   0.5707644     -7.6611031     -6.8049687      4.8779788      50218.233      36.893836      36.893836      36.893836    
    569000   0.57349348    -7.6514756     -6.7912476      4.9717784      50218.233      36.893836      36.893836      36.893836    
    570000   0.57027692    -7.6618334     -6.8064302      4.88384        50218.233      36.893836      36.893836      36.893836    
    571000   0.5685287     -7.6567294     -6.8039485      4.9292944      50218.233      36.893836      36.893836      36.893836    
    572000   0.5685579     -7.661808      -6.8089833      4.8797899      50218.233      36.893836      36.893836      36.893836    
    573000   0.57296612    -7.6573238     -6.7978868      4.9118027      50218.233      36.893836      36.893836      36.893836    
    574000   0.57222426    -7.6584908     -6.8001666      4.9031652      50218.233      36.893836      36.893836      36.893836    
    575000   0.56675462    -7.6602159     -6.810096       4.9006951      50218.233      36.893836      36.893836      36.893836    
    576000   0.57040101    -7.6602125     -6.8046231      4.8996869      50218.233      36.893836      36.893836      36.893836    
    577000   0.56710067    -7.6610191     -6.8103802      4.8928154      50218.233      36.893836      36.893836      36.893836    
    578000   0.56817106    -7.6579052     -6.8056607      4.9179409      50218.233      36.893836      36.893836      36.893836    
    579000   0.56945913    -7.6611537     -6.8069772      4.8918663      50218.233      36.893836      36.893836      36.893836    
    580000   0.57102562    -7.6597536     -6.8032273      4.8973083      50218.233      36.893836      36.893836      36.893836    
    581000   0.56876299    -7.660593      -6.8074606      4.8935097      50218.233      36.893836      36.893836      36.893836    
    582000   0.57047922    -7.6626939     -6.8069872      4.878652       50218.233      36.893836      36.893836      36.893836    
    583000   0.56878238    -7.6611677     -6.8080063      4.8861918      50218.233      36.893836      36.893836      36.893836    
    584000   0.5727334     -7.6634593     -6.8043714      4.8758909      50218.233      36.893836      36.893836      36.893836    
    585000   0.56886421    -7.6629997     -6.8097155      4.8688933      50218.233      36.893836      36.893836      36.893836    
    586000   0.57082901    -7.6573572     -6.8011259      4.9131086      50218.233      36.893836      36.893836      36.893836    
    587000   0.57276038    -7.6638831     -6.8047548      4.8681628      50218.233      36.893836      36.893836      36.893836    
    588000   0.57198688    -7.6584925     -6.8005244      4.9043928      50218.233      36.893836      36.893836      36.893836    
    589000   0.57051861    -7.658492      -6.8027263      4.9074786      50218.233      36.893836      36.893836      36.893836    
    590000   0.57153963    -7.6603168     -6.8030195      4.8985511      50218.233      36.893836      36.893836      36.893836    
    591000   0.56804212    -7.6591389     -6.8070878      4.8948798      50218.233      36.893836      36.893836      36.893836    
    592000   0.56689412    -7.6603393     -6.8100102      4.8878823      50218.233      36.893836      36.893836      36.893836    
    593000   0.57062026    -7.6636555     -6.8077373      4.8754128      50218.233      36.893836      36.893836      36.893836    
    594000   0.57292702    -7.6575835     -6.7982052      4.9112126      50218.233      36.893836      36.893836      36.893836    
    595000   0.56993871    -7.6596737     -6.8047778      4.8965421      50218.233      36.893836      36.893836      36.893836    
    596000   0.57005654    -7.6590897     -6.8040171      4.9017229      50218.233      36.893836      36.893836      36.893836    
    597000   0.57099957    -7.6630937     -6.8066065      4.8737673      50218.233      36.893836      36.893836      36.893836    
    598000   0.57179368    -7.6627038     -6.8050255      4.8815943      50218.233      36.893836      36.893836      36.893836    
    599000   0.56835929    -7.6637852     -6.8112584      4.8728751      50218.233      36.893836      36.893836      36.893836    
    600000   0.57041388    -7.6610461     -6.8054374      4.8795543      50218.233      36.893836      36.893836      36.893836    
    601000   0.56833116    -7.6644448     -6.8119602      4.8746153      50218.233      36.893836      36.893836      36.893836    
    602000   0.56956534    -7.6651408     -6.810805       4.8539507      50218.233      36.893836      36.893836      36.893836    
    603000   0.5700106     -7.6619708     -6.806967       4.8751268      50218.233      36.893836      36.893836      36.893836    
    604000   0.56973444    -7.6590924     -6.8045029      4.8921495      50218.233      36.893836      36.893836      36.893836    
    605000   0.56801457    -7.6659237     -6.8139139      4.8470265      50218.233      36.893836      36.893836      36.893836    
    606000   0.57173562    -7.6614265     -6.8038353      4.8842973      50218.233      36.893836      36.893836      36.893836    
    607000   0.57052053    -7.6624787     -6.8067101      4.8757816      50218.233      36.893836      36.893836      36.893836    
    608000   0.56995166    -7.6605466     -6.8056313      4.888026       50218.233      36.893836      36.893836      36.893836    
    609000   0.57010168    -7.6599275     -6.8047871      4.8880965      50218.233      36.893836      36.893836      36.893836    
    610000   0.56730732    -7.660598      -6.8096492      4.8891142      50218.233      36.893836      36.893836      36.893836    
    611000   0.56878266    -7.6616369     -6.808475       4.8784022      50218.233      36.893836      36.893836      36.893836    
    612000   0.56932073    -7.6638369     -6.809868       4.8792893      50218.233      36.893836      36.893836      36.893836    
    613000   0.57346296    -7.6629186     -6.8027364      4.8790641      50218.233      36.893836      36.893836      36.893836    
    614000   0.56959368    -7.66004       -6.8056616      4.9009765      50218.233      36.893836      36.893836      36.893836    
    615000   0.57016484    -7.6618687     -6.8066336      4.8848843      50218.233      36.893836      36.893836      36.893836    
    616000   0.57104835    -7.6648193     -6.8082589      4.8632984      50218.233      36.893836      36.893836      36.893836    
    617000   0.57011077    -7.6620887     -6.8069347      4.8861105      50218.233      36.893836      36.893836      36.893836    
    618000   0.57102062    -7.6621817     -6.8056629      4.8753626      50218.233      36.893836      36.893836      36.893836    
    619000   0.56936018    -7.6620304     -6.8080023      4.8887629      50218.233      36.893836      36.893836      36.893836    
    620000   0.5681182     -7.6634696     -6.8113044      4.8665127      50218.233      36.893836      36.893836      36.893836    
    621000   0.56752867    -7.657374      -6.8060931      4.9185985      50218.233      36.893836      36.893836      36.893836    
    622000   0.57240763    -7.6574602     -6.798861       4.9204655      50218.233      36.893836      36.893836      36.893836    
    623000   0.56699342    -7.6606444     -6.8101663      4.8968178      50218.233      36.893836      36.893836      36.893836    
    624000   0.57031364    -7.6601412     -6.8046829      4.9079004      50218.233      36.893836      36.893836      36.893836    
    625000   0.56868852    -7.6621668     -6.8091462      4.8732261      50218.233      36.893836      36.893836      36.893836    
    626000   0.56811553    -7.6601805     -6.8080193      4.8822049      50218.233      36.893836      36.893836      36.893836    
    627000   0.57005004    -7.6619703     -6.8069074      4.8680244      50218.233      36.893836      36.893836      36.893836    
    628000   0.57163434    -7.6585157     -6.8010764      4.9076825      50218.233      36.893836      36.893836      36.893836    
    629000   0.57010691    -7.6639074     -6.8087592      4.8683783      50218.233      36.893836      36.893836      36.893836    
    630000   0.57349046    -7.6560603     -6.7958369      4.9324053      50218.233      36.893836      36.893836      36.893836    
    631000   0.57088558    -7.6609984     -6.8046822      4.9044614      50218.233      36.893836      36.893836      36.893836    
    632000   0.57332312    -7.6602101     -6.8002377      4.8993495      50218.233      36.893836      36.893836      36.893836    
    633000   0.57066123    -7.6576273     -6.8016476      4.8941294      50218.233      36.893836      36.893836      36.893836    
    634000   0.56971049    -7.6599811     -6.8054275      4.9028275      50218.233      36.893836      36.893836      36.893836    
    635000   0.56700256    -7.6611172     -6.8106255      4.8802799      50218.233      36.893836      36.893836      36.893836    
    636000   0.57040603    -7.6579243     -6.8023274      4.9092557      50218.233      36.893836      36.893836      36.893836    
    637000   0.57105743    -7.659568      -6.8029941      4.8893412      50218.233      36.893836      36.893836      36.893836    
    638000   0.5676648     -7.6583584     -6.8068733      4.9120334      50218.233      36.893836      36.893836      36.893836    
    639000   0.56697734    -7.6635964     -6.8131425      4.8622226      50218.233      36.893836      36.893836      36.893836    
    640000   0.56817394    -7.6604306     -6.8081818      4.8971976      50218.233      36.893836      36.893836      36.893836    
    641000   0.57314055    -7.6610215     -6.801323       4.885128       50218.233      36.893836      36.893836      36.893836    
    642000   0.57105884    -7.6593811     -6.8028051      4.8926432      50218.233      36.893836      36.893836      36.893836    
    643000   0.57155261    -7.6603679     -6.8030511      4.8985113      50218.233      36.893836      36.893836      36.893836    
    644000   0.56725874    -7.6584566     -6.8075805      4.8914296      50218.233      36.893836      36.893836      36.893836    
    645000   0.57082515    -7.661451      -6.8052255      4.8804497      50218.233      36.893836      36.893836      36.893836    
    646000   0.57028701    -7.6617578     -6.8063395      4.8805108      50218.233      36.893836      36.893836      36.893836    
    647000   0.56959224    -7.6595159     -6.8051397      4.8912891      50218.233      36.893836      36.893836      36.893836    
    648000   0.5703344     -7.6612861     -6.8057966      4.8837117      50218.233      36.893836      36.893836      36.893836    
    649000   0.57223268    -7.657165      -6.7988282      4.9138146      50218.233      36.893836      36.893836      36.893836    
    650000   0.57097396    -7.6585848     -6.802136       4.9000585      50218.233      36.893836      36.893836      36.893836    
    651000   0.56849832    -7.6652075     -6.8124721      4.8523904      50218.233      36.893836      36.893836      36.893836    
    652000   0.56844631    -7.6594349     -6.8067775      4.8953312      50218.233      36.893836      36.893836      36.893836    
    653000   0.57063295    -7.6582285     -6.8022913      4.9177598      50218.233      36.893836      36.893836      36.893836    
    654000   0.57073416    -7.6524638     -6.7963747      4.9470098      50218.233      36.893836      36.893836      36.893836    
    655000   0.57025214    -7.6617823     -6.8064162      4.8929846      50218.233      36.893836      36.893836      36.893836    
    656000   0.56799569    -7.6581015     -6.8061201      4.9162014      50218.233      36.893836      36.893836      36.893836    
    657000   0.56752821    -7.657168      -6.8058878      4.9194567      50218.233      36.893836      36.893836      36.893836    
    658000   0.5689778     -7.6544964     -6.8010419      4.9270452      50218.233      36.893836      36.893836      36.893836    
    659000   0.5694664     -7.658264      -6.8040766      4.907029       50218.233      36.893836      36.893836      36.893836    
    660000   0.56447656    -7.6568206     -6.8101178      4.9063237      50218.233      36.893836      36.893836      36.893836    
    661000   0.56937754    -7.6584879     -6.8044337      4.9098522      50218.233      36.893836      36.893836      36.893836    
    662000   0.56981537    -7.6595901     -6.8048792      4.9001301      50218.233      36.893836      36.893836      36.893836    
    663000   0.56885585    -7.6611272     -6.8078555      4.8858075      50218.233      36.893836      36.893836      36.893836    
    664000   0.57028578    -7.6655967     -6.8101802      4.859812       50218.233      36.893836      36.893836      36.893836    
    665000   0.57040062    -7.6640657     -6.808477       4.8583421      50218.233      36.893836      36.893836      36.893836    
    666000   0.57070091    -7.6620216     -6.8059824      4.8745255      50218.233      36.893836      36.893836      36.893836    
    667000   0.57113827    -7.6631377     -6.8064425      4.8681398      50218.233      36.893836      36.893836      36.893836    
    668000   0.57024614    -7.6577241     -6.802367       4.908848       50218.233      36.893836      36.893836      36.893836    
    669000   0.56876658    -7.660354      -6.8072162      4.8866191      50218.233      36.893836      36.893836      36.893836    
    670000   0.57234082    -7.6614464     -6.8029474      4.8937101      50218.233      36.893836      36.893836      36.893836    
    671000   0.57018629    -7.6634889     -6.8082217      4.8719364      50218.233      36.893836      36.893836      36.893836    
    672000   0.57132349    -7.6587881     -6.8018151      4.895355       50218.233      36.893836      36.893836      36.893836    
    673000   0.57369425    -7.6602457     -6.7997166      4.8859711      50218.233      36.893836      36.893836      36.893836    
    674000   0.57087969    -7.6556579     -6.7993506      4.9265296      50218.233      36.893836      36.893836      36.893836    
    675000   0.56812453    -7.6642153     -6.8120406      4.856496       50218.233      36.893836      36.893836      36.893836    
    676000   0.57057847    -7.6609017     -6.8050461      4.8777675      50218.233      36.893836      36.893836      36.893836    
    677000   0.57213974    -7.6589254     -6.800728       4.9023744      50218.233      36.893836      36.893836      36.893836    
    678000   0.5693825     -7.6684131     -6.8143515      4.8276144      50218.233      36.893836      36.893836      36.893836    
    679000   0.57142223    -7.6601334     -6.8030122      4.8915892      50218.233      36.893836      36.893836      36.893836    
    680000   0.57280919    -7.6629742     -6.8037727      4.8645022      50218.233      36.893836      36.893836      36.893836    
    681000   0.57261856    -7.6583097     -6.7993941      4.9208745      50218.233      36.893836      36.893836      36.893836    
    682000   0.56726448    -7.6615137     -6.8106291      4.876129       50218.233      36.893836      36.893836      36.893836    
    683000   0.57053126    -7.6612981     -6.8055134      4.8874043      50218.233      36.893836      36.893836      36.893836    
    684000   0.57388522    -7.6647017     -6.8038861      4.8691087      50218.233      36.893836      36.893836      36.893836    
    685000   0.56975413    -7.6611028     -6.8064837      4.8924493      50218.233      36.893836      36.893836      36.893836    
    686000   0.57036098    -7.6618477     -6.8063184      4.8813069      50218.233      36.893836      36.893836      36.893836    
    687000   0.56933248    -7.6622407     -6.8082541      4.8709791      50218.233      36.893836      36.893836      36.893836    
    688000   0.56909294    -7.6617545     -6.8081273      4.8715799      50218.233      36.893836      36.893836      36.893836    
    689000   0.57167683    -7.6662893     -6.8087863      4.8562947      50218.233      36.893836      36.893836      36.893836    
    690000   0.57005461    -7.6643082     -6.8092384      4.8609026      50218.233      36.893836      36.893836      36.893836    
    691000   0.56858914    -7.6645825     -6.811711       4.85152        50218.233      36.893836      36.893836      36.893836    
    692000   0.57009139    -7.6620125     -6.8068875      4.8810886      50218.233      36.893836      36.893836      36.893836    
    693000   0.57063745    -7.658228      -6.802284       4.9031413      50218.233      36.893836      36.893836      36.893836    
    694000   0.56961063    -7.6627027     -6.8082989      4.8757269      50218.233      36.893836      36.893836      36.893836    
    695000   0.56704327    -7.6624337     -6.8118808      4.8882623      50218.233      36.893836      36.893836      36.893836    
    696000   0.56841401    -7.6569916     -6.8043827      4.9133332      50218.233      36.893836      36.893836      36.893836    
    697000   0.56891739    -7.6606648     -6.8073008      4.8918807      50218.233      36.893836      36.893836      36.893836    
    698000   0.57268427    -7.6600555     -6.8010413      4.8997983      50218.233      36.893836      36.893836      36.893836    
    699000   0.57040821    -7.6606828     -6.8050827      4.8892044      50218.233      36.893836      36.893836      36.893836    
    700000   0.56834926    -7.6588188     -6.806307       4.9154861      50218.233      36.893836      36.893836      36.893836    
    701000   0.57142128    -7.6608085     -6.8036887      4.8945938      50218.233      36.893836      36.893836      36.893836    
    702000   0.57068749    -7.659578      -6.803559       4.913288       50218.233      36.893836      36.893836      36.893836    
    703000   0.57052425    -7.6594549     -6.8036807      4.91103        50218.233      36.893836      36.893836      36.893836    
    704000   0.57033185    -7.6624764     -6.8069908      4.8666109      50218.233      36.893836      36.893836      36.893836    
    705000   0.5705749     -7.6631883     -6.8073381      4.8702214      50218.233      36.893836      36.893836      36.893836    
    706000   0.56986201    -7.6627802     -6.8079993      4.868942       50218.233      36.893836      36.893836      36.893836    
    707000   0.5711026     -7.6572636     -6.8006219      4.9211428      50218.233      36.893836      36.893836      36.893836    
    708000   0.57061633    -7.6599209     -6.8040086      4.8866541      50218.233      36.893836      36.893836      36.893836    
    709000   0.56909903    -7.6594344     -6.805798       4.8913005      50218.233      36.893836      36.893836      36.893836    
    710000   0.57074196    -7.6619175     -6.8058168      4.8824532      50218.233      36.893836      36.893836      36.893836    
    711000   0.5717772     -7.6625169     -6.8048633      4.8760993      50218.233      36.893836      36.893836      36.893836    
    712000   0.57120875    -7.657281      -6.8004801      4.9087183      50218.233      36.893836      36.893836      36.893836    
    713000   0.56964122    -7.6618345     -6.8073849      4.8812565      50218.233      36.893836      36.893836      36.893836    
    714000   0.56831496    -7.6639161     -6.8114558      4.8586028      50218.233      36.893836      36.893836      36.893836    
    715000   0.56792296    -7.6594779     -6.8076056      4.9041261      50218.233      36.893836      36.893836      36.893836    
    716000   0.56814282    -7.6589956     -6.8067935      4.9034012      50218.233      36.893836      36.893836      36.893836    
    717000   0.56895369    -7.6641356     -6.8107172      4.8683036      50218.233      36.893836      36.893836      36.893836    
    718000   0.57095791    -7.6580672     -6.8016425      4.9090984      50218.233      36.893836      36.893836      36.893836    
    719000   0.57442378    -7.6613531     -6.7997296      4.8977043      50218.233      36.893836      36.893836      36.893836    
    720000   0.57134027    -7.6607929     -6.8037947      4.8973565      50218.233      36.893836      36.893836      36.893836    
    721000   0.5713441     -7.6589377     -6.8019337      4.8968013      50218.233      36.893836      36.893836      36.893836    
    722000   0.56827919    -7.6539562     -6.8015495      4.9356944      50218.233      36.893836      36.893836      36.893836    
    723000   0.56757865    -7.6557418     -6.8043859      4.9144878      50218.233      36.893836      36.893836      36.893836    
    724000   0.57228146    -7.6610355     -6.8026255      4.8840128      50218.233      36.893836      36.893836      36.893836    
    725000   0.5710721     -7.6615308     -6.8049348      4.8898747      50218.233      36.893836      36.893836      36.893836    
    726000   0.56851746    -7.6582258     -6.8054618      4.9106942      50218.233      36.893836      36.893836      36.893836    
    727000   0.57454046    -7.6587634     -6.796965       4.9026268      50218.233      36.893836      36.893836      36.893836    
    728000   0.56832101    -7.6594278     -6.8069584      4.8970036      50218.233      36.893836      36.893836      36.893836    
    729000   0.56903833    -7.6567993     -6.8032539      4.9053635      50218.233      36.893836      36.893836      36.893836    
    730000   0.57088127    -7.6565876     -6.8002779      4.920927       50218.233      36.893836      36.893836      36.893836    
    731000   0.56969235    -7.6547019     -6.8001755      4.928556       50218.233      36.893836      36.893836      36.893836    
    732000   0.56944769    -7.65392       -6.7997606      4.927084       50218.233      36.893836      36.893836      36.893836    
    733000   0.5676962     -7.6570501     -6.8055179      4.9152583      50218.233      36.893836      36.893836      36.893836    
    734000   0.56939814    -7.6532032     -6.7991181      4.9463445      50218.233      36.893836      36.893836      36.893836    
    735000   0.5690313     -7.6595692     -6.8060344      4.890083       50218.233      36.893836      36.893836      36.893836    
    736000   0.56939525    -7.6605021     -6.8064214      4.8847497      50218.233      36.893836      36.893836      36.893836    
    737000   0.56918974    -7.6619851     -6.8082126      4.8852338      50218.233      36.893836      36.893836      36.893836    
    738000   0.57206144    -7.6558842     -6.7978042      4.9340298      50218.233      36.893836      36.893836      36.893836    
    739000   0.56669891    -7.6622299     -6.8121936      4.8652998      50218.233      36.893836      36.893836      36.893836    
    740000   0.56826895    -7.6586502     -6.8062589      4.8900906      50218.233      36.893836      36.893836      36.893836    
    741000   0.56967245    -7.6597565     -6.80526        4.8985359      50218.233      36.893836      36.893836      36.893836    
    742000   0.56779345    -7.6585881     -6.8069101      4.8940294      50218.233      36.893836      36.893836      36.893836    
    743000   0.56832728    -7.6562804     -6.8038016      4.9169066      50218.233      36.893836      36.893836      36.893836    
    744000   0.5706569     -7.6599334     -6.8039602      4.8877551      50218.233      36.893836      36.893836      36.893836    
    745000   0.57288913    -7.6585186     -6.7991971      4.9054437      50218.233      36.893836      36.893836      36.893836    
    746000   0.57113494    -7.6567144     -6.8000242      4.9224755      50218.233      36.893836      36.893836      36.893836    
    747000   0.57037243    -7.6618813     -6.8063348      4.8804843      50218.233      36.893836      36.893836      36.893836    
    748000   0.5672353     -7.6559704     -6.8051295      4.9335175      50218.233      36.893836      36.893836      36.893836    
    749000   0.57199825    -7.6622088     -6.8042236      4.8902171      50218.233      36.893836      36.893836      36.893836    
    750000   0.56854673    -7.665494      -6.812686       4.8773263      50218.233      36.893836      36.893836      36.893836    
    751000   0.5681505     -7.6594414     -6.8072277      4.8832655      50218.233      36.893836      36.893836      36.893836    
    752000   0.57025441    -7.656959      -6.8015896      4.9256273      50218.233      36.893836      36.893836      36.893836    
    753000   0.56779977    -7.654296      -6.8026084      4.9399632      50218.233      36.893836      36.893836      36.893836    
    754000   0.56978724    -7.6611351     -6.8064664      4.8937322      50218.233      36.893836      36.893836      36.893836    
    755000   0.57105844    -7.6501922     -6.7936167      4.963332       50218.233      36.893836      36.893836      36.893836    
    756000   0.56949946    -7.6558021     -6.801565       4.9270146      50218.233      36.893836      36.893836      36.893836    
    757000   0.57127934    -7.6574499     -6.8005431      4.9170406      50218.233      36.893836      36.893836      36.893836    
    758000   0.57105774    -7.6613259     -6.8047514      4.8831564      50218.233      36.893836      36.893836      36.893836    
    759000   0.56906196    -7.6591077     -6.8055269      4.9023319      50218.233      36.893836      36.893836      36.893836    
    760000   0.56772717    -7.6583149     -6.8067363      4.9043552      50218.233      36.893836      36.893836      36.893836    
    761000   0.56907653    -7.6566061     -6.8030034      4.9203025      50218.233      36.893836      36.893836      36.893836    
    762000   0.57206793    -7.6579593     -6.7998696      4.9265219      50218.233      36.893836      36.893836      36.893836    
    763000   0.57144511    -7.6608588     -6.8037034      4.8869096      50218.233      36.893836      36.893836      36.893836    
    764000   0.57023816    -7.6572394     -6.8018943      4.9174499      50218.233      36.893836      36.893836      36.893836    
    765000   0.57006769    -7.6573254     -6.802236       4.9213581      50218.233      36.893836      36.893836      36.893836    
    766000   0.57199367    -7.6508733     -6.792895       4.9686624      50218.233      36.893836      36.893836      36.893836    
    767000   0.56935717    -7.659581      -6.8055574      4.8990266      50218.233      36.893836      36.893836      36.893836    
    768000   0.57020486    -7.653404      -6.7981088      4.9448377      50218.233      36.893836      36.893836      36.893836    
    769000   0.5711231     -7.6574222     -6.8007498      4.9157946      50218.233      36.893836      36.893836      36.893836    
    770000   0.56870064    -7.6559379     -6.8028991      4.9166325      50218.233      36.893836      36.893836      36.893836    
    771000   0.56650818    -7.6581969     -6.8084467      4.900047       50218.233      36.893836      36.893836      36.893836    
    772000   0.56850548    -7.6583412     -6.8055951      4.8959649      50218.233      36.893836      36.893836      36.893836    
    773000   0.57279074    -7.6569313     -6.7977574      4.9194983      50218.233      36.893836      36.893836      36.893836    
    774000   0.56995277    -7.6537607     -6.7988437      4.9210057      50218.233      36.893836      36.893836      36.893836    
    775000   0.57198195    -7.6566276     -6.7986669      4.9151885      50218.233      36.893836      36.893836      36.893836    
    776000   0.57032074    -7.6547058     -6.7992368      4.9452245      50218.233      36.893836      36.893836      36.893836    
    777000   0.5700904     -7.6555897     -6.8004662      4.9402372      50218.233      36.893836      36.893836      36.893836    
    778000   0.5697077     -7.6584774     -6.803928       4.906606       50218.233      36.893836      36.893836      36.893836    
    779000   0.56800382    -7.6565902     -6.8045966      4.9169107      50218.233      36.893836      36.893836      36.893836    
    780000   0.56909035    -7.6536564     -6.8000331      4.9420581      50218.233      36.893836      36.893836      36.893836    
    781000   0.56939317    -7.6556516     -6.801574       4.918536       50218.233      36.893836      36.893836      36.893836    
    782000   0.56742198    -7.6574996     -6.8063787      4.9233911      50218.233      36.893836      36.893836      36.893836    
    783000   0.57072273    -7.6599178     -6.8038458      4.8963504      50218.233      36.893836      36.893836      36.893836    
    784000   0.5664131     -7.655316      -6.8057084      4.9382824      50218.233      36.893836      36.893836      36.893836    
    785000   0.56964759    -7.6575656     -6.8031063      4.9161261      50218.233      36.893836      36.893836      36.893836    
    786000   0.56779662    -7.6599881     -6.8083053      4.8925788      50218.233      36.893836      36.893836      36.893836    
    787000   0.56465464    -7.6643369     -6.8173669      4.8545643      50218.233      36.893836      36.893836      36.893836    
    788000   0.57026072    -7.6602598     -6.8048808      4.8947203      50218.233      36.893836      36.893836      36.893836    
    789000   0.56878073    -7.6633643     -6.8102053      4.8725412      50218.233      36.893836      36.893836      36.893836    
    790000   0.5715179     -7.6633303     -6.8060657      4.8682739      50218.233      36.893836      36.893836      36.893836    
    791000   0.57207808    -7.6591114     -6.8010065      4.9003583      50218.233      36.893836      36.893836      36.893836    
    792000   0.5746771     -7.6599789     -6.7979755      4.8975312      50218.233      36.893836      36.893836      36.893836    
    793000   0.57077126    -7.6617112     -6.8055665      4.8799708      50218.233      36.893836      36.893836      36.893836    
    794000   0.5684322     -7.6614127     -6.8087766      4.8797323      50218.233      36.893836      36.893836      36.893836    
    795000   0.56769774    -7.6610301     -6.8094956      4.8783629      50218.233      36.893836      36.893836      36.893836    
    796000   0.56962959    -7.6649444     -6.8105122      4.8525439      50218.233      36.893836      36.893836      36.893836    
    797000   0.56905712    -7.6592729     -6.8056993      4.8946545      50218.233      36.893836      36.893836      36.893836    
    798000   0.5683865     -7.6579427     -6.8053751      4.9117216      50218.233      36.893836      36.893836      36.893836    
    799000   0.57011554    -7.6579858     -6.8028247      4.910806       50218.233      36.893836      36.893836      36.893836    
    800000   0.57056255    -7.6603115     -6.8044798      4.9058384      50218.233      36.893836      36.893836      36.893836    
    801000   0.57101302    -7.6631683     -6.806661       4.867322       50218.233      36.893836      36.893836      36.893836    
    802000   0.56632189    -7.6625946     -6.8131238      4.8724798      50218.233      36.893836      36.893836      36.893836    
    803000   0.56980543    -7.6582548     -6.8035588      4.9061847      50218.233      36.893836      36.893836      36.893836    
    804000   0.5719823     -7.6600642     -6.802103       4.910423       50218.233      36.893836      36.893836      36.893836    
    805000   0.57262472    -7.6517123     -6.7927874      4.9554647      50218.233      36.893836      36.893836      36.893836    
    806000   0.56862974    -7.6592771     -6.8063446      4.8934378      50218.233      36.893836      36.893836      36.893836    
    807000   0.56791611    -7.657877      -6.8060149      4.910873       50218.233      36.893836      36.893836      36.893836    
    808000   0.57097615    -7.6621161     -6.805664       4.8821713      50218.233      36.893836      36.893836      36.893836    
    809000   0.57249516    -7.6621241     -6.8033936      4.8880482      50218.233      36.893836      36.893836      36.893836    
    810000   0.57064636    -7.6573302     -6.8013728      4.9285501      50218.233      36.893836      36.893836      36.893836    
    811000   0.57172256    -7.6630991     -6.8055275      4.8693405      50218.233      36.893836      36.893836      36.893836    
    812000   0.56897352    -7.6596348     -6.8061867      4.9023121      50218.233      36.893836      36.893836      36.893836    
    813000   0.56790734    -7.6647638     -6.8129149      4.8546088      50218.233      36.893836      36.893836      36.893836    
    814000   0.57151981    -7.6545259     -6.7972584      4.9409569      50218.233      36.893836      36.893836      36.893836    
    815000   0.56952249    -7.6606366     -6.806365       4.8952594      50218.233      36.893836      36.893836      36.893836    
    816000   0.57170218    -7.6619442     -6.8044031      4.8767596      50218.233      36.893836      36.893836      36.893836    
    817000   0.56981506    -7.6638722     -6.8091617      4.8700716      50218.233      36.893836      36.893836      36.893836    
    818000   0.57005678    -7.6574684     -6.8023954      4.9193556      50218.233      36.893836      36.893836      36.893836    
    819000   0.57077582    -7.6584232     -6.8022716      4.897033       50218.233      36.893836      36.893836      36.893836    
    820000   0.5717057     -7.6536096     -6.7960633      4.9483879      50218.233      36.893836      36.893836      36.893836    
    821000   0.56921086    -7.6549857     -6.8011816      4.93038        50218.233      36.893836      36.893836      36.893836    
    822000   0.57004293    -7.657472      -6.8024198      4.9073316      50218.233      36.893836      36.893836      36.893836    
    823000   0.56973634    -7.6562801     -6.8016877      4.9152644      50218.233      36.893836      36.893836      36.893836    
    824000   0.571168      -7.6584962     -6.8017563      4.9001122      50218.233      36.893836      36.893836      36.893836    
    825000   0.57417184    -7.6594239     -6.7981784      4.9100697      50218.233      36.893836      36.893836      36.893836    
    826000   0.57023752    -7.6642967     -6.8089526      4.8658017      50218.233      36.893836      36.893836      36.893836    
    827000   0.5687781     -7.6625998     -6.8094448      4.8679729      50218.233      36.893836      36.893836      36.893836    
    828000   0.56838268    -7.6581831     -6.8056212      4.9076805      50218.233      36.893836      36.893836      36.893836    
    829000   0.56936306    -7.6618128     -6.8077804      4.8812614      50218.233      36.893836      36.893836      36.893836    
    830000   0.56866987    -7.6595939     -6.8066012      4.90438        50218.233      36.893836      36.893836      36.893836    
    831000   0.56979425    -7.6566943     -6.8020151      4.9135647      50218.233      36.893836      36.893836      36.893836    
    832000   0.56925275    -7.6639312     -6.8100642      4.8688414      50218.233      36.893836      36.893836      36.893836    
    833000   0.5679731     -7.6619036     -6.8099561      4.8797089      50218.233      36.893836      36.893836      36.893836    
    834000   0.56826271    -7.6629205     -6.8105386      4.877158       50218.233      36.893836      36.893836      36.893836    
    835000   0.57135265    -7.664791      -6.8077742      4.8591795      50218.233      36.893836      36.893836      36.893836    
    836000   0.56835869    -7.6615964     -6.8090705      4.8784894      50218.233      36.893836      36.893836      36.893836    
    837000   0.57072128    -7.6609519     -6.8048821      4.905267       50218.233      36.893836      36.893836      36.893836    
    838000   0.56998723    -7.6557059     -6.8007373      4.9327765      50218.233      36.893836      36.893836      36.893836    
    839000   0.56934255    -7.6599606     -6.8059589      4.8912288      50218.233      36.893836      36.893836      36.893836    
    840000   0.56926053    -7.6571582     -6.8032796      4.9272056      50218.233      36.893836      36.893836      36.893836    
    841000   0.57497681    -7.6590971     -6.7966442      4.8985054      50218.233      36.893836      36.893836      36.893836    
    842000   0.57307759    -7.6621004     -6.8024963      4.8885243      50218.233      36.893836      36.893836      36.893836    
    843000   0.57117852    -7.663709      -6.8069534      4.8816537      50218.233      36.893836      36.893836      36.893836    
    844000   0.56705088    -7.6610063     -6.8104421      4.8859044      50218.233      36.893836      36.893836      36.893836    
    845000   0.57093488    -7.6613267     -6.8049366      4.8926746      50218.233      36.893836      36.893836      36.893836    
    846000   0.57283034    -7.6615667     -6.8023334      4.8910037      50218.233      36.893836      36.893836      36.893836    
    847000   0.56931033    -7.6581292     -6.8041758      4.8969028      50218.233      36.893836      36.893836      36.893836    
    848000   0.56930376    -7.6643817     -6.8104382      4.8591846      50218.233      36.893836      36.893836      36.893836    
    849000   0.56877206    -7.6566398     -6.8034939      4.9107841      50218.233      36.893836      36.893836      36.893836    
    850000   0.56936564    -7.6643244     -6.810288       4.8516321      50218.233      36.893836      36.893836      36.893836    
    851000   0.57057891    -7.660014      -6.8041578      4.8920968      50218.233      36.893836      36.893836      36.893836    
    852000   0.57061919    -7.6596264     -6.8037098      4.9021729      50218.233      36.893836      36.893836      36.893836    
    853000   0.57030998    -7.6565076     -6.8010548      4.9149312      50218.233      36.893836      36.893836      36.893836    
    854000   0.5726059     -7.660337      -6.8014404      4.8981224      50218.233      36.893836      36.893836      36.893836    
    855000   0.5689239     -7.6617656     -6.8083919      4.873734       50218.233      36.893836      36.893836      36.893836    
    856000   0.57170022    -7.6557638     -6.7982257      4.9274114      50218.233      36.893836      36.893836      36.893836    
    857000   0.56657356    -7.6602239     -6.8103756      4.8860371      50218.233      36.893836      36.893836      36.893836    
    858000   0.56873352    -7.6576412     -6.8045531      4.9074448      50218.233      36.893836      36.893836      36.893836    
    859000   0.56916344    -7.6591927     -6.8054596      4.9075334      50218.233      36.893836      36.893836      36.893836    
    860000   0.57382924    -7.6592836     -6.798552       4.9119859      50218.233      36.893836      36.893836      36.893836    
    861000   0.57026166    -7.6616806     -6.8063003      4.8840841      50218.233      36.893836      36.893836      36.893836    
    862000   0.57165233    -7.6556305     -6.7981642      4.9317364      50218.233      36.893836      36.893836      36.893836    
    863000   0.56812204    -7.6581801     -6.8060091      4.8981437      50218.233      36.893836      36.893836      36.893836    
    864000   0.57174698    -7.6623333     -6.8047251      4.8806678      50218.233      36.893836      36.893836      36.893836    
    865000   0.57377423    -7.6606951     -6.800046       4.8808443      50218.233      36.893836      36.893836      36.893836    
    866000   0.5702449     -7.6606623     -6.8053071      4.8864935      50218.233      36.893836      36.893836      36.893836    
    867000   0.57075527    -7.6644145     -6.8082938      4.8671462      50218.233      36.893836      36.893836      36.893836    
    868000   0.57124313    -7.6549198     -6.7980673      4.9420628      50218.233      36.893836      36.893836      36.893836    
    869000   0.57118132    -7.6538211     -6.7970613      4.9412276      50218.233      36.893836      36.893836      36.893836    
    870000   0.57425974    -7.6562257     -6.7948483      4.9294276      50218.233      36.893836      36.893836      36.893836    
    871000   0.56758558    -7.659364      -6.8079977      4.9018953      50218.233      36.893836      36.893836      36.893836    
    872000   0.57465285    -7.6617648     -6.7997977      4.8936946      50218.233      36.893836      36.893836      36.893836    
    873000   0.56712129    -7.6598345     -6.8091646      4.903103       50218.233      36.893836      36.893836      36.893836    
    874000   0.57025969    -7.6580001     -6.8026228      4.9212045      50218.233      36.893836      36.893836      36.893836    
    875000   0.57112189    -7.6607518     -6.8040811      4.9013608      50218.233      36.893836      36.893836      36.893836    
    876000   0.57043095    -7.6565329     -6.8008987      4.9219526      50218.233      36.893836      36.893836      36.893836    
    877000   0.57188243    -7.6555943     -6.7977828      4.9313523      50218.233      36.893836      36.893836      36.893836    
    878000   0.57197894    -7.6569815     -6.7990253      4.9195503      50218.233      36.893836      36.893836      36.893836    
    879000   0.57126422    -7.6583165     -6.8014323      4.9084941      50218.233      36.893836      36.893836      36.893836    
    880000   0.56893571    -7.6575144     -6.8041229      4.9035317      50218.233      36.893836      36.893836      36.893836    
    881000   0.56692712    -7.6598015     -6.8094229      4.8947812      50218.233      36.893836      36.893836      36.893836    
    882000   0.57276333    -7.6616585     -6.8025258      4.8843398      50218.233      36.893836      36.893836      36.893836    
    883000   0.56866808    -7.6610642     -6.8080742      4.8894865      50218.233      36.893836      36.893836      36.893836    
    884000   0.56990276    -7.6559886     -6.8011466      4.9305653      50218.233      36.893836      36.893836      36.893836    
    885000   0.56956599    -7.6611992     -6.8068623      4.881088       50218.233      36.893836      36.893836      36.893836    
    886000   0.56869465    -7.6542021     -6.8011722      4.943363       50218.233      36.893836      36.893836      36.893836    
    887000   0.57167257    -7.6630487     -6.8055521      4.8789848      50218.233      36.893836      36.893836      36.893836    
    888000   0.57308618    -7.6608167     -6.8011997      4.9129483      50218.233      36.893836      36.893836      36.893836    
    889000   0.57123009    -7.6587647     -6.8019318      4.9080825      50218.233      36.893836      36.893836      36.893836    
    890000   0.5693667     -7.6599168     -6.8058789      4.9011878      50218.233      36.893836      36.893836      36.893836    
    891000   0.56795847    -7.6579804     -6.8060548      4.9086942      50218.233      36.893836      36.893836      36.893836    
    892000   0.57146639    -7.6561193     -6.7989319      4.9268752      50218.233      36.893836      36.893836      36.893836    
    893000   0.57308885    -7.6606485     -6.8010274      4.8988415      50218.233      36.893836      36.893836      36.893836    
    894000   0.56913996    -7.6616115     -6.8079137      4.8917053      50218.233      36.893836      36.893836      36.893836    
    895000   0.57147485    -7.6539606     -6.7967605      4.9390126      50218.233      36.893836      36.893836      36.893836    
    896000   0.56813809    -7.6583872     -6.8061922      4.9020042      50218.233      36.893836      36.893836      36.893836    
    897000   0.57210394    -7.6533589     -6.7952152      4.95936        50218.233      36.893836      36.893836      36.893836    
    898000   0.57190817    -7.6587418     -6.8008917      4.9044958      50218.233      36.893836      36.893836      36.893836    
    899000   0.56758304    -7.6517294     -6.800367       4.9592101      50218.233      36.893836      36.893836      36.893836    
    900000   0.57327291    -7.6551772     -6.7952801      4.9275415      50218.233      36.893836      36.893836      36.893836    
    901000   0.57261539    -7.6548064     -6.7958955      4.9324763      50218.233      36.893836      36.893836      36.893836    
    902000   0.56966269    -7.6590558     -6.804574       4.8951729      50218.233      36.893836      36.893836      36.893836    
    903000   0.57169318    -7.6558657     -6.7983381      4.9230377      50218.233      36.893836      36.893836      36.893836    
    904000   0.56786301    -7.6516516     -6.7998692      4.9593551      50218.233      36.893836      36.893836      36.893836    
    905000   0.56883389    -7.6538175     -6.8005788      4.9394897      50218.233      36.893836      36.893836      36.893836    
    906000   0.57064091    -7.655639      -6.7996898      4.9286017      50218.233      36.893836      36.893836      36.893836    
    907000   0.57270323    -7.6508555     -6.7918128      4.9666081      50218.233      36.893836      36.893836      36.893836    
    908000   0.56858153    -7.6582832     -6.8054231      4.914461       50218.233      36.893836      36.893836      36.893836    
    909000   0.57097914    -7.6571779     -6.8007214      4.916419       50218.233      36.893836      36.893836      36.893836    
    910000   0.57054464    -7.657696      -6.8018913      4.9308803      50218.233      36.893836      36.893836      36.893836    
    911000   0.57069709    -7.6579668     -6.8019333      4.9069999      50218.233      36.893836      36.893836      36.893836    
    912000   0.56902059    -7.6549098     -6.801391       4.9310784      50218.233      36.893836      36.893836      36.893836    
    913000   0.56860491    -7.6593945     -6.8064992      4.8972642      50218.233      36.893836      36.893836      36.893836    
    914000   0.57047089    -7.6563324     -6.8006383      4.9244035      50218.233      36.893836      36.893836      36.893836    
    915000   0.56863119    -7.6582823     -6.8053476      4.9000721      50218.233      36.893836      36.893836      36.893836    
    916000   0.56983221    -7.660928      -6.8061919      4.8872501      50218.233      36.893836      36.893836      36.893836    
    917000   0.57183142    -7.6551764     -6.7974415      4.9290685      50218.233      36.893836      36.893836      36.893836    
    918000   0.56967883    -7.6553096     -6.8008035      4.9201117      50218.233      36.893836      36.893836      36.893836    
    919000   0.57205188    -7.6551863     -6.7971207      4.9271852      50218.233      36.893836      36.893836      36.893836    
    920000   0.56768172    -7.6595748     -6.8080643      4.8926978      50218.233      36.893836      36.893836      36.893836    
    921000   0.56989799    -7.6546624     -6.7998276      4.9293652      50218.233      36.893836      36.893836      36.893836    
    922000   0.56794389    -7.6555127     -6.803609       4.9220408      50218.233      36.893836      36.893836      36.893836    
    923000   0.56886516    -7.6544254     -6.8011398      4.9419874      50218.233      36.893836      36.893836      36.893836    
    924000   0.57112873    -7.6581471     -6.8014662      4.8934123      50218.233      36.893836      36.893836      36.893836    
    925000   0.5663537     -7.6561547     -6.8066362      4.8970732      50218.233      36.893836      36.893836      36.893836    
    926000   0.57005226    -7.6562605     -6.8011943      4.9286317      50218.233      36.893836      36.893836      36.893836    
    927000   0.5698843     -7.6580332     -6.8032189      4.9035562      50218.233      36.893836      36.893836      36.893836    
    928000   0.56916068    -7.6564563     -6.8027274      4.9073867      50218.233      36.893836      36.893836      36.893836    
    929000   0.56801341    -7.6600455     -6.8080375      4.8928011      50218.233      36.893836      36.893836      36.893836    
    930000   0.5693801     -7.6599687     -6.8059107      4.8858476      50218.233      36.893836      36.893836      36.893836    
    931000   0.56894168    -7.654324      -6.8009236      4.9271444      50218.233      36.893836      36.893836      36.893836    
    932000   0.56823123    -7.6524515     -6.8001168      4.9542236      50218.233      36.893836      36.893836      36.893836    
    933000   0.57211949    -7.6537108     -6.7955438      4.9407359      50218.233      36.893836      36.893836      36.893836    
    934000   0.57213587    -7.6606532     -6.8024616      4.8835616      50218.233      36.893836      36.893836      36.893836    
    935000   0.5705212     -7.6585481     -6.8027784      4.9043444      50218.233      36.893836      36.893836      36.893836    
    936000   0.56772102    -7.6555445     -6.8039751      4.9280092      50218.233      36.893836      36.893836      36.893836    
    937000   0.56822263    -7.6585596     -6.8062377      4.9013346      50218.233      36.893836      36.893836      36.893836    
    938000   0.57523629    -7.6573592     -6.7945171      4.9215565      50218.233      36.893836      36.893836      36.893836    
    939000   0.56813294    -7.6560867     -6.8038994      4.9359806      50218.233      36.893836      36.893836      36.893836    
    940000   0.57020396    -7.6603579     -6.8050641      4.8885554      50218.233      36.893836      36.893836      36.893836    
    941000   0.57139167    -7.6579826     -6.8009073      4.9126955      50218.233      36.893836      36.893836      36.893836    
    942000   0.57189577    -7.6586109     -6.8007795      4.9191591      50218.233      36.893836      36.893836      36.893836    
    943000   0.56761051    -7.6579173     -6.8065137      4.908328       50218.233      36.893836      36.893836      36.893836    
    944000   0.57002898    -7.6546783     -6.799647       4.938906       50218.233      36.893836      36.893836      36.893836    
    945000   0.57104356    -7.6588469     -6.8022938      4.9123529      50218.233      36.893836      36.893836      36.893836    
    946000   0.57197918    -7.6570635     -6.799107       4.9104226      50218.233      36.893836      36.893836      36.893836    
    947000   0.56959023    -7.6549458     -6.8005726      4.9264246      50218.233      36.893836      36.893836      36.893836    
    948000   0.57157911    -7.6585124     -6.8011559      4.9058106      50218.233      36.893836      36.893836      36.893836    
    949000   0.5711843     -7.6544482     -6.7976839      4.9472442      50218.233      36.893836      36.893836      36.893836    
    950000   0.57003393    -7.6591014     -6.8040627      4.9014845      50218.233      36.893836      36.893836      36.893836    
    951000   0.5702061     -7.6575876     -6.8022906      4.9237947      50218.233      36.893836      36.893836      36.893836    
    952000   0.57023024    -7.6586739     -6.8033407      4.9040118      50218.233      36.893836      36.893836      36.893836    
    953000   0.57303215    -7.6555795     -6.7960435      4.9229112      50218.233      36.893836      36.893836      36.893836    
    954000   0.57070662    -7.6577694     -6.8017217      4.9208359      50218.233      36.893836      36.893836      36.893836    
    955000   0.57029136    -7.6557896     -6.8003647      4.9320248      50218.233      36.893836      36.893836      36.893836    
    956000   0.57295896    -7.6554656     -6.7960393      4.9289709      50218.233      36.893836      36.893836      36.893836    
    957000   0.56918879    -7.658454      -6.804683       4.8967481      50218.233      36.893836      36.893836      36.893836    
    958000   0.5687261     -7.6578751     -6.8047981      4.9033175      50218.233      36.893836      36.893836      36.893836    
    959000   0.57113831    -7.6640648     -6.8073695      4.8771122      50218.233      36.893836      36.893836      36.893836    
    960000   0.5710911     -7.657932      -6.8013075      4.9120976      50218.233      36.893836      36.893836      36.893836    
    961000   0.57098445    -7.6581794     -6.8017149      4.9113366      50218.233      36.893836      36.893836      36.893836    
    962000   0.57104962    -7.6578493     -6.801287       4.9177979      50218.233      36.893836      36.893836      36.893836    
    963000   0.5704488     -7.6548657     -6.7992047      4.9342095      50218.233      36.893836      36.893836      36.893836    
    964000   0.56986946    -7.6537752     -6.7989832      4.9528296      50218.233      36.893836      36.893836      36.893836    
    965000   0.56602505    -7.6607254     -6.8116999      4.8981889      50218.233      36.893836      36.893836      36.893836    
    966000   0.56947601    -7.656795      -6.8025931      4.9308279      50218.233      36.893836      36.893836      36.893836    
    967000   0.56874958    -7.6575291     -6.8044169      4.9132132      50218.233      36.893836      36.893836      36.893836    
    968000   0.56838408    -7.6556583     -6.8030943      4.931466       50218.233      36.893836      36.893836      36.893836    
    969000   0.56776939    -7.6611791     -6.8095372      4.8917846      50218.233      36.893836      36.893836      36.893836    
    970000   0.57127536    -7.6589302     -6.8020293      4.893291       50218.233      36.893836      36.893836      36.893836    
    971000   0.56897671    -7.6613665     -6.8079136      4.8816605      50218.233      36.893836      36.893836      36.893836    
    972000   0.56824393    -7.6535141     -6.8011603      4.9250438      50218.233      36.893836      36.893836      36.893836    
    973000   0.56880224    -7.6549761     -6.8017849      4.9332392      50218.233      36.893836      36.893836      36.893836    
    974000   0.56357672    -7.6534443     -6.8080912      4.935472       50218.233      36.893836      36.893836      36.893836    
    975000   0.5706868     -7.6527463     -6.7967282      4.9567616      50218.233      36.893836      36.893836      36.893836    
    976000   0.57280671    -7.6546355     -6.7954377      4.9426708      50218.233      36.893836      36.893836      36.893836    
    977000   0.57014955    -7.6541084     -6.7988962      4.9354031      50218.233      36.893836      36.893836      36.893836    
    978000   0.57029793    -7.656138      -6.8007032      4.9380832      50218.233      36.893836      36.893836      36.893836    
    979000   0.57025197    -7.6518838     -6.796518       4.9665518      50218.233      36.893836      36.893836      36.893836    
    980000   0.5728303     -7.6542167     -6.7949835      4.942843       50218.233      36.893836      36.893836      36.893836    
    981000   0.56754317    -7.6576755     -6.8063729      4.9182289      50218.233      36.893836      36.893836      36.893836    
    982000   0.57056443    -7.6592261     -6.8033917      4.907732       50218.233      36.893836      36.893836      36.893836    
    983000   0.56978103    -7.6572504     -6.8025911      4.9225979      50218.233      36.893836      36.893836      36.893836    
    984000   0.56873119    -7.6568629     -6.8037782      4.9255182      50218.233      36.893836      36.893836      36.893836    
    985000   0.56840932    -7.6581334     -6.8055315      4.9002508      50218.233      36.893836      36.893836      36.893836    
    986000   0.56985085    -7.6579861     -6.8032219      4.9083974      50218.233      36.893836      36.893836      36.893836    
    987000   0.57292099    -7.6545126     -6.7951433      4.9420077      50218.233      36.893836      36.893836      36.893836    
    988000   0.57381673    -7.6608552     -6.8001423      4.896017       50218.233      36.893836      36.893836      36.893836    
    989000   0.57067585    -7.6537368     -6.7977352      4.9371406      50218.233      36.893836      36.893836      36.893836    
    990000   0.56795523    -7.65528       -6.8033593      4.9453193      50218.233      36.893836      36.893836      36.893836    
    991000   0.57300471    -7.655956      -6.7964612      4.9490824      50218.233      36.893836      36.893836      36.893836    
    992000   0.56932228    -7.663435      -6.8094638      4.8677518      50218.233      36.893836      36.893836      36.893836    
    993000   0.56918794    -7.6604741     -6.8067043      4.8950564      50218.233      36.893836      36.893836      36.893836    
    994000   0.56884041    -7.6575871     -6.8043386      4.9177195      50218.233      36.893836      36.893836      36.893836    
    995000   0.56641938    -7.6566618     -6.8070448      4.9169718      50218.233      36.893836      36.893836      36.893836    
    996000   0.57162396    -7.6561971     -6.7987734      4.935553       50218.233      36.893836      36.893836      36.893836    
    997000   0.5703315     -7.6573335     -6.8018484      4.9165972      50218.233      36.893836      36.893836      36.893836    
    998000   0.57155456    -7.655275      -6.7979554      4.9353453      50218.233      36.893836      36.893836      36.893836    
    999000   0.56986254    -7.6579526     -6.8031709      4.9058564      50218.233      36.893836      36.893836      36.893836    
   1000000   0.56923699    -7.6560843     -6.802241       4.9305085      50218.233      36.893836      36.893836      36.893836    
Loop time of 4350.56 on 1 procs for 1000000 steps with 70304 atoms

Performance: 198595.179 tau/day, 229.856 timesteps/s, 16.160 Matom-step/s
100.0% CPU use with 1 MPI tasks x 1 OpenMP threads

MPI task timing breakdown:
Section |  min time  |  avg time  |  max time  |%varavg| %total
---------------------------------------------------------------
Pair    | 1039.7     | 1039.7     | 1039.7     |   0.0 | 23.90
Neigh   | 44.236     | 44.236     | 44.236     |   0.0 |  1.02
Comm    | 531.22     | 531.22     | 531.22     |   0.0 | 12.21
Output  | 0.74872    | 0.74872    | 0.74872    |   0.0 |  0.02
Modify  | 2295.2     | 2295.2     | 2295.2     |   0.0 | 52.76
Other   |            | 439.5      |            |       | 10.10

Nlocal:          70304 ave       70304 max       70304 min
Histogram: 1 0 0 0 0 0 0 0 0 0
Nghost:          37061 ave       37061 max       37061 min
Histogram: 1 0 0 0 0 0 0 0 0 0
Neighs:              0 ave           0 max           0 min
Histogram: 1 0 0 0 0 0 0 0 0 0

Total # of neighbors = 0
Ave neighs/atom = 0
Neighbor list builds = 221841
Dangerous builds = 0
Total wall time: 9:38:08
