variable TLJ equal (${T}/1000)
variable TLJ equal (680/1000)
variable NCyle equal 10
variable iStep equal (${f})
variable iStep equal (1000)
variable dumpStep equal (${f}*100)
variable dumpStep equal (1000*100)
variable runStep equal (${f}*100*${NCyle})
variable runStep equal (1000*100*${NCyle})
variable runStep equal (1000*100*10)

units       lj
atom_style  atomic
dimension 3
boundary     p p p
pair_style  lj/cut 2.5
read_data  ../data/T${T}.dat
read_data  ../data/T680.dat
Reading data file ...
  orthogonal box = (0.97250269 0.97250269 0.97250269) to (37.866338 37.866338 37.866338)
  1 by 1 by 5 MPI processor grid
  reading atoms ...
  70304 atoms
  reading velocities ...
  70304 velocities
  read_data CPU = 0.259 seconds
change_box all triclinic
Changing box ...
  triclinic box = (0.97250269 0.97250269 0.97250269) to (37.866338 37.866338 37.866338) with tilt (0 0 0)
mass 1 1
mass 2 1
pair_modify shift yes
pair_coeff  1 1 1 1
pair_coeff  1 2 1.5 0.8
pair_coeff  2 2 0.5 0.88


timestep 0.01
thermo ${iStep}
thermo 1000
reset_timestep 0
thermo_style custom step temp pe etotal press vol lx ly lz
fix             1 all nvt temp ${TLJ}  ${TLJ}  0.1
fix             1 all nvt temp 0.68  ${TLJ}  0.1
fix             1 all nvt temp 0.68  0.68  0.1
thermo_modify flush yes

fix dsf all deform 1 xy  wiggle 0.5  ${f}   units box
fix dsf all deform 1 xy  wiggle 0.5  1000   units box
fix ps1 all ave/time 1 1 ${iStep} c_thermo_press[1] c_thermo_press[2]  c_thermo_press[3] c_thermo_press[4]  c_thermo_press[5] c_thermo_press[6]  file  stress.${T}
fix ps1 all ave/time 1 1 1000 c_thermo_press[1] c_thermo_press[2]  c_thermo_press[3] c_thermo_press[4]  c_thermo_press[5] c_thermo_press[6]  file  stress.${T}
fix ps1 all ave/time 1 1 1000 c_thermo_press[1] c_thermo_press[2]  c_thermo_press[3] c_thermo_press[4]  c_thermo_press[5] c_thermo_press[6]  file  stress.680
dump            1 all custom ${dumpStep} dump.${T} id type x y z
dump            1 all custom 100000 dump.${T} id type x y z
dump            1 all custom 100000 dump.680 id type x y z
dump_modify 1 sort id
fix nodrift all momentum 1  linear 1 1 1
fix com_seed all recenter INIT INIT INIT shift all
run ${runStep}
run 1000000
Generated 0 of 1 mixed pair_coeff terms from geometric mixing rule
Per MPI rank memory allocation (min/avg/max) = 8.91 | 8.915 | 8.92 Mbytes
   Step          Temp          PotEng         TotEng         Press          Volume           Lx             Ly             Lz      
         0   0.67645587    -7.4445768     -6.4299074      6.6230565      50218.233      36.893836      36.893836      36.893836    
      1000   0.68378033    -7.4260666     -6.4004107      6.7695958      50218.233      36.893836      36.893836      36.893836    
      2000   0.68292133    -7.4288424     -6.4044749      6.7411083      50218.233      36.893836      36.893836      36.893836    
      3000   0.68000541    -7.4313429     -6.4113493      6.7257094      50218.233      36.893836      36.893836      36.893836    
      4000   0.67693157    -7.4313499     -6.415967       6.7225024      50218.233      36.893836      36.893836      36.893836    
      5000   0.68232127    -7.4242255     -6.4007582      6.7782538      50218.233      36.893836      36.893836      36.893836    
      6000   0.67878656    -7.4229577     -6.4047924      6.7744985      50218.233      36.893836      36.893836      36.893836    
      7000   0.67956238    -7.4307266     -6.4113976      6.7420335      50218.233      36.893836      36.893836      36.893836    
      8000   0.681414      -7.4294929     -6.4073864      6.7367634      50218.233      36.893836      36.893836      36.893836    
      9000   0.67969064    -7.4368822     -6.4173607      6.6852038      50218.233      36.893836      36.893836      36.893836    
     10000   0.68026435    -7.4274789     -6.4070969      6.7399398      50218.233      36.893836      36.893836      36.893836    
     11000   0.67799339    -7.4312487     -6.414273       6.7248725      50218.233      36.893836      36.893836      36.893836    
     12000   0.67881946    -7.427179      -6.4089643      6.7638474      50218.233      36.893836      36.893836      36.893836    
     13000   0.67772756    -7.42862       -6.4120431      6.7431994      50218.233      36.893836      36.893836      36.893836    
     14000   0.67717726    -7.4263628     -6.4106114      6.7522272      50218.233      36.893836      36.893836      36.893836    
     15000   0.68179735    -7.4326345     -6.409953       6.7255402      50218.233      36.893836      36.893836      36.893836    
     16000   0.67614301    -7.4268151     -6.412615       6.7594679      50218.233      36.893836      36.893836      36.893836    
     17000   0.67827735    -7.4277499     -6.4103484      6.7491691      50218.233      36.893836      36.893836      36.893836    
     18000   0.67786447    -7.4294228     -6.4126406      6.7373169      50218.233      36.893836      36.893836      36.893836    
     19000   0.68318415    -7.4310926     -6.406331       6.7273678      50218.233      36.893836      36.893836      36.893836    
     20000   0.68215148    -7.4314098     -6.4081972      6.7362478      50218.233      36.893836      36.893836      36.893836    
     21000   0.68027191    -7.4304067     -6.4100133      6.733158       50218.233      36.893836      36.893836      36.893836    
     22000   0.68036971    -7.4303794     -6.4098393      6.7319118      50218.233      36.893836      36.893836      36.893836    
     23000   0.68143245    -7.427462      -6.4053279      6.7519168      50218.233      36.893836      36.893836      36.893836    
     24000   0.67674854    -7.4274255     -6.4123171      6.7386589      50218.233      36.893836      36.893836      36.893836    
     25000   0.67968779    -7.4276564     -6.4081392      6.7526968      50218.233      36.893836      36.893836      36.893836    
     26000   0.68098093    -7.4249065     -6.4034496      6.7721955      50218.233      36.893836      36.893836      36.893836    
     27000   0.679278      -7.4235604     -6.4046579      6.7738314      50218.233      36.893836      36.893836      36.893836    
     28000   0.67844892    -7.4273542     -6.4096953      6.7564051      50218.233      36.893836      36.893836      36.893836    
     29000   0.68142712    -7.4251036     -6.4029775      6.7889847      50218.233      36.893836      36.893836      36.893836    
     30000   0.68241344    -7.4262774     -6.4026718      6.7618329      50218.233      36.893836      36.893836      36.893836    
     31000   0.67701536    -7.4297765     -6.4142679      6.7301486      50218.233      36.893836      36.893836      36.893836    
     32000   0.68163967    -7.4338517     -6.4114067      6.6992377      50218.233      36.893836      36.893836      36.893836    
     33000   0.67844442    -7.4235375     -6.4058853      6.7642353      50218.233      36.893836      36.893836      36.893836    
     34000   0.67977831    -7.4286598     -6.4090069      6.7329245      50218.233      36.893836      36.893836      36.893836    
     35000   0.68153748    -7.4261971     -6.4039054      6.7629177      50218.233      36.893836      36.893836      36.893836    
     36000   0.6795956     -7.4283262     -6.4089473      6.7481676      50218.233      36.893836      36.893836      36.893836    
     37000   0.68095017    -7.4297637     -6.4083529      6.7475562      50218.233      36.893836      36.893836      36.893836    
     38000   0.68263171    -7.4303182     -6.4063852      6.7225097      50218.233      36.893836      36.893836      36.893836    
     39000   0.6769741     -7.4359504     -6.4205037      6.6957233      50218.233      36.893836      36.893836      36.893836    
     40000   0.68343998    -7.4279156     -6.4027702      6.7626855      50218.233      36.893836      36.893836      36.893836    
     41000   0.6803014     -7.434569      -6.4141315      6.7034635      50218.233      36.893836      36.893836      36.893836    
     42000   0.67844254    -7.4292591     -6.4116098      6.7410399      50218.233      36.893836      36.893836      36.893836    
     43000   0.67924706    -7.4265463     -6.4076902      6.7684867      50218.233      36.893836      36.893836      36.893836    
     44000   0.6842206     -7.4327567     -6.4064404      6.7161845      50218.233      36.893836      36.893836      36.893836    
     45000   0.67739357    -7.4378485     -6.4217726      6.6806232      50218.233      36.893836      36.893836      36.893836    
     46000   0.68002296    -7.4276477     -6.4076277      6.7486007      50218.233      36.893836      36.893836      36.893836    
     47000   0.68033078    -7.4343985     -6.4139169      6.7053729      50218.233      36.893836      36.893836      36.893836    
     48000   0.67937268    -7.4307121     -6.4116676      6.7358765      50218.233      36.893836      36.893836      36.893836    
     49000   0.68046903    -7.4301288     -6.4094398      6.7304132      50218.233      36.893836      36.893836      36.893836    
     50000   0.67828699    -7.430976      -6.41356        6.7166367      50218.233      36.893836      36.893836      36.893836    
     51000   0.6825414     -7.4309662     -6.4071686      6.7299932      50218.233      36.893836      36.893836      36.893836    
     52000   0.68200941    -7.4236689     -6.4006693      6.7758796      50218.233      36.893836      36.893836      36.893836    
     53000   0.68206935    -7.4353309     -6.4122414      6.6941904      50218.233      36.893836      36.893836      36.893836    
     54000   0.6823893     -7.434165      -6.4105956      6.7028865      50218.233      36.893836      36.893836      36.893836    
     55000   0.68031123    -7.4327558     -6.4123035      6.70601        50218.233      36.893836      36.893836      36.893836    
     56000   0.68120378    -7.4343792     -6.4125881      6.696988       50218.233      36.893836      36.893836      36.893836    
     57000   0.68230548    -7.4262945     -6.4028508      6.7576938      50218.233      36.893836      36.893836      36.893836    
     58000   0.68063832    -7.4292605     -6.4083175      6.7401895      50218.233      36.893836      36.893836      36.893836    
     59000   0.68368586    -7.4260561     -6.4005419      6.7591875      50218.233      36.893836      36.893836      36.893836    
     60000   0.68095952    -7.4331471     -6.4117223      6.7141414      50218.233      36.893836      36.893836      36.893836    
     61000   0.68272158    -7.4264669     -6.4023991      6.7707107      50218.233      36.893836      36.893836      36.893836    
     62000   0.6798342     -7.4273407     -6.4076039      6.7563038      50218.233      36.893836      36.893836      36.893836    
     63000   0.68191456    -7.4252862     -6.4024289      6.7717362      50218.233      36.893836      36.893836      36.893836    
     64000   0.68164304    -7.4323533     -6.4099033      6.7130581      50218.233      36.893836      36.893836      36.893836    
     65000   0.68226667    -7.4328732     -6.4094878      6.7233394      50218.233      36.893836      36.893836      36.893836    
     66000   0.6820305     -7.4279833     -6.4049521      6.7482619      50218.233      36.893836      36.893836      36.893836    
     67000   0.67821577    -7.4299558     -6.4126466      6.7350795      50218.233      36.893836      36.893836      36.893836    
     68000   0.68132917    -7.4270551     -6.4050759      6.7771382      50218.233      36.893836      36.893836      36.893836    
     69000   0.68125152    -7.4277177     -6.405855       6.7611391      50218.233      36.893836      36.893836      36.893836    
     70000   0.67971403    -7.4302098     -6.4106532      6.7388669      50218.233      36.893836      36.893836      36.893836    
     71000   0.68191894    -7.4345049     -6.4116411      6.6970472      50218.233      36.893836      36.893836      36.893836    
     72000   0.68267032    -7.4331473     -6.4091564      6.7163377      50218.233      36.893836      36.893836      36.893836    
     73000   0.67853438    -7.4339683     -6.4161812      6.7200617      50218.233      36.893836      36.893836      36.893836    
     74000   0.68115001    -7.42982       -6.4081095      6.7459732      50218.233      36.893836      36.893836      36.893836    
     75000   0.6786457     -7.4261161     -6.408162       6.7607314      50218.233      36.893836      36.893836      36.893836    
     76000   0.67836818    -7.4276564     -6.4101186      6.7360582      50218.233      36.893836      36.893836      36.893836    
     77000   0.67564054    -7.435707      -6.4222606      6.6909032      50218.233      36.893836      36.893836      36.893836    
     78000   0.68053099    -7.4304964     -6.4097144      6.7177817      50218.233      36.893836      36.893836      36.893836    
     79000   0.67957684    -7.4340673     -6.4147166      6.6971147      50218.233      36.893836      36.893836      36.893836    
     80000   0.68570624    -7.4321354     -6.4035907      6.7211283      50218.233      36.893836      36.893836      36.893836    
     81000   0.67724793    -7.4274503     -6.4115928      6.7459942      50218.233      36.893836      36.893836      36.893836    
     82000   0.67987983    -7.4312053     -6.4114001      6.7235334      50218.233      36.893836      36.893836      36.893836    
     83000   0.68139705    -7.42422       -6.402139       6.7744171      50218.233      36.893836      36.893836      36.893836    
     84000   0.67794005    -7.4340074     -6.4171118      6.6972423      50218.233      36.893836      36.893836      36.893836    
     85000   0.68024528    -7.429864      -6.4095106      6.7315416      50218.233      36.893836      36.893836      36.893836    
     86000   0.68045095    -7.4312345     -6.4105726      6.720149       50218.233      36.893836      36.893836      36.893836    
     87000   0.68544466    -7.4247942     -6.3966419      6.7773811      50218.233      36.893836      36.893836      36.893836    
     88000   0.6792863     -7.4274703     -6.4085554      6.7739212      50218.233      36.893836      36.893836      36.893836    
     89000   0.67785192    -7.4335095     -6.4167461      6.7066294      50218.233      36.893836      36.893836      36.893836    
     90000   0.6807021     -7.4296158     -6.4085771      6.7509308      50218.233      36.893836      36.893836      36.893836    
     91000   0.6761074     -7.4327741     -6.4186274      6.7182856      50218.233      36.893836      36.893836      36.893836    
     92000   0.67781193    -7.4305021     -6.4137987      6.7305056      50218.233      36.893836      36.893836      36.893836    
     93000   0.67903452    -7.4271013     -6.408564       6.7576734      50218.233      36.893836      36.893836      36.893836    
     94000   0.67894164    -7.4303523     -6.4119543      6.7244892      50218.233      36.893836      36.893836      36.893836    
     95000   0.67824199    -7.4275494     -6.4102009      6.7577303      50218.233      36.893836      36.893836      36.893836    
     96000   0.68128294    -7.4289071     -6.4069972      6.7472716      50218.233      36.893836      36.893836      36.893836    
     97000   0.67833688    -7.4373016     -6.4198107      6.6738374      50218.233      36.893836      36.893836      36.893836    
     98000   0.68093518    -7.4306767     -6.4092885      6.7334439      50218.233      36.893836      36.893836      36.893836    
     99000   0.68312422    -7.4306397     -6.4059679      6.7403413      50218.233      36.893836      36.893836      36.893836    
    100000   0.68088398    -7.4349241     -6.4136126      6.7100669      50218.233      36.893836      36.893836      36.893836    
    101000   0.67915073    -7.4329933     -6.4142817      6.7131056      50218.233      36.893836      36.893836      36.893836    
    102000   0.67643488    -7.4314722     -6.4168344      6.7146341      50218.233      36.893836      36.893836      36.893836    
    103000   0.67785729    -7.4285021     -6.4117307      6.7397711      50218.233      36.893836      36.893836      36.893836    
    104000   0.6801149     -7.4317382     -6.4115804      6.7243416      50218.233      36.893836      36.893836      36.893836    
    105000   0.68144469    -7.4317602     -6.4096077      6.7226175      50218.233      36.893836      36.893836      36.893836    
    106000   0.68249261    -7.4319394     -6.4082151      6.7419666      50218.233      36.893836      36.893836      36.893836    
    107000   0.67999224    -7.4282676     -6.4082938      6.7468795      50218.233      36.893836      36.893836      36.893836    
    108000   0.68072422    -7.4330939     -6.4120221      6.7261434      50218.233      36.893836      36.893836      36.893836    
    109000   0.6762798     -7.4285629     -6.4141576      6.7384113      50218.233      36.893836      36.893836      36.893836    
    110000   0.68070911    -7.4303554     -6.4093063      6.7387861      50218.233      36.893836      36.893836      36.893836    
    111000   0.67950794    -7.4278441     -6.4085967      6.7378437      50218.233      36.893836      36.893836      36.893836    
    112000   0.68246293    -7.4273057     -6.4036259      6.768241       50218.233      36.893836      36.893836      36.893836    
    113000   0.67742245    -7.4248989     -6.4087796      6.7734328      50218.233      36.893836      36.893836      36.893836    
    114000   0.6777461     -7.4287604     -6.4121557      6.757604       50218.233      36.893836      36.893836      36.893836    
    115000   0.6758164     -7.4272341     -6.4135239      6.7549728      50218.233      36.893836      36.893836      36.893836    
    116000   0.67894431    -7.4233225     -6.4049205      6.7721018      50218.233      36.893836      36.893836      36.893836    
    117000   0.68025796    -7.4242462     -6.4038737      6.7729741      50218.233      36.893836      36.893836      36.893836    
    118000   0.67869805    -7.4284427     -6.4104102      6.7444593      50218.233      36.893836      36.893836      36.893836    
    119000   0.68196841    -7.4291635     -6.4062255      6.7534729      50218.233      36.893836      36.893836      36.893836    
    120000   0.67965168    -7.4248354     -6.4053724      6.7827144      50218.233      36.893836      36.893836      36.893836    
    121000   0.68010627    -7.4259963     -6.4058514      6.7480236      50218.233      36.893836      36.893836      36.893836    
    122000   0.68266754    -7.4265549     -6.4025681      6.7691972      50218.233      36.893836      36.893836      36.893836    
    123000   0.67976939    -7.4277502     -6.4081106      6.7568191      50218.233      36.893836      36.893836      36.893836    
    124000   0.68052514    -7.424153      -6.4033798      6.7755676      50218.233      36.893836      36.893836      36.893836    
    125000   0.67904033    -7.4234339     -6.4048879      6.7794125      50218.233      36.893836      36.893836      36.893836    
    126000   0.68153428    -7.422341      -6.4000541      6.7902559      50218.233      36.893836      36.893836      36.893836    
    127000   0.68325519    -7.4209451     -6.3960769      6.7981844      50218.233      36.893836      36.893836      36.893836    
    128000   0.6797282     -7.4242025     -6.4046247      6.7683045      50218.233      36.893836      36.893836      36.893836    
    129000   0.67846       -7.4237762     -6.4061007      6.770004       50218.233      36.893836      36.893836      36.893836    
    130000   0.68241487    -7.4211643     -6.3975565      6.7964617      50218.233      36.893836      36.893836      36.893836    
    131000   0.68159207    -7.428423      -6.4060494      6.7386924      50218.233      36.893836      36.893836      36.893836    
    132000   0.68522168    -7.4295714     -6.4017535      6.726952       50218.233      36.893836      36.893836      36.893836    
    133000   0.67826777    -7.423184      -6.4057968      6.785455       50218.233      36.893836      36.893836      36.893836    
    134000   0.67732119    -7.42274       -6.4067727      6.7812965      50218.233      36.893836      36.893836      36.893836    
    135000   0.68160546    -7.4237377     -6.4013441      6.7852141      50218.233      36.893836      36.893836      36.893836    
    136000   0.68009296    -7.4260571     -6.4059322      6.7686476      50218.233      36.893836      36.893836      36.893836    
    137000   0.68058002    -7.425653      -6.4047975      6.7635559      50218.233      36.893836      36.893836      36.893836    
    138000   0.67873447    -7.423512      -6.4054248      6.7848264      50218.233      36.893836      36.893836      36.893836    
    139000   0.68060351    -7.4252096     -6.4043188      6.7720191      50218.233      36.893836      36.893836      36.893836    
    140000   0.6813925     -7.4235738     -6.4014996      6.773825       50218.233      36.893836      36.893836      36.893836    
    141000   0.6753075     -7.4236101     -6.4106632      6.7799192      50218.233      36.893836      36.893836      36.893836    
    142000   0.67837089    -7.4250104     -6.4074685      6.7532134      50218.233      36.893836      36.893836      36.893836    
    143000   0.68003138    -7.4247744     -6.4047419      6.7599427      50218.233      36.893836      36.893836      36.893836    
    144000   0.67561576    -7.418257      -6.4048477      6.7997603      50218.233      36.893836      36.893836      36.893836    
    145000   0.68115009    -7.4258285     -6.4041179      6.772021       50218.233      36.893836      36.893836      36.893836    
    146000   0.68266986    -7.4232175     -6.3992273      6.7909964      50218.233      36.893836      36.893836      36.893836    
    147000   0.67577231    -7.4298039     -6.4161599      6.7291275      50218.233      36.893836      36.893836      36.893836    
    148000   0.67999958    -7.4267769     -6.406792       6.7543945      50218.233      36.893836      36.893836      36.893836    
    149000   0.68436616    -7.4290663     -6.4025317      6.7473363      50218.233      36.893836      36.893836      36.893836    
    150000   0.67658061    -7.4298446     -6.4149881      6.738309       50218.233      36.893836      36.893836      36.893836    
    151000   0.68283973    -7.4315769     -6.4073319      6.7251361      50218.233      36.893836      36.893836      36.893836    
    152000   0.68021604    -7.4296449     -6.4093353      6.7346432      50218.233      36.893836      36.893836      36.893836    
    153000   0.67925774    -7.4250701     -6.406198       6.7671578      50218.233      36.893836      36.893836      36.893836    
    154000   0.6793095     -7.4310304     -6.4120806      6.7217612      50218.233      36.893836      36.893836      36.893836    
    155000   0.67771031    -7.4303442     -6.4137931      6.7383232      50218.233      36.893836      36.893836      36.893836    
    156000   0.68165492    -7.4311614     -6.4086936      6.7447959      50218.233      36.893836      36.893836      36.893836    
    157000   0.68143659    -7.429342      -6.4072017      6.7482827      50218.233      36.893836      36.893836      36.893836    
    158000   0.67942879    -7.4329982     -6.4138696      6.7057218      50218.233      36.893836      36.893836      36.893836    
    159000   0.67907183    -7.4279119     -6.4093186      6.7335673      50218.233      36.893836      36.893836      36.893836    
    160000   0.67711872    -7.4362955     -6.4206319      6.6922875      50218.233      36.893836      36.893836      36.893836    
    161000   0.68178398    -7.4222309     -6.3995694      6.7867879      50218.233      36.893836      36.893836      36.893836    
    162000   0.67730364    -7.4278767     -6.4119357      6.7323685      50218.233      36.893836      36.893836      36.893836    
    163000   0.6801411     -7.4338023     -6.4136052      6.7063659      50218.233      36.893836      36.893836      36.893836    
    164000   0.68508852    -7.4344922     -6.406874       6.6987814      50218.233      36.893836      36.893836      36.893836    
    165000   0.6750664     -7.4282003     -6.4156151      6.7457712      50218.233      36.893836      36.893836      36.893836    
    166000   0.67819593    -7.4266112     -6.4093318      6.7549389      50218.233      36.893836      36.893836      36.893836    
    167000   0.68375314    -7.4253767     -6.3997616      6.7679648      50218.233      36.893836      36.893836      36.893836    
    168000   0.67803652    -7.4285912     -6.4115509      6.7476735      50218.233      36.893836      36.893836      36.893836    
    169000   0.68065492    -7.4296917     -6.4087239      6.7508923      50218.233      36.893836      36.893836      36.893836    
    170000   0.68191684    -7.4275464     -6.4046857      6.7593464      50218.233      36.893836      36.893836      36.893836    
    171000   0.67952721    -7.4278687     -6.4085924      6.7580933      50218.233      36.893836      36.893836      36.893836    
    172000   0.68021958    -7.4281077     -6.4077928      6.7483459      50218.233      36.893836      36.893836      36.893836    
    173000   0.68358569    -7.4247214     -6.3993575      6.7794857      50218.233      36.893836      36.893836      36.893836    
    174000   0.68296152    -7.4275584     -6.4031307      6.7562317      50218.233      36.893836      36.893836      36.893836    
    175000   0.68282235    -7.4319168     -6.4076978      6.7221304      50218.233      36.893836      36.893836      36.893836    
    176000   0.68024299    -7.4289669     -6.4086169      6.7520295      50218.233      36.893836      36.893836      36.893836    
    177000   0.6779419     -7.4279044     -6.411006       6.7327311      50218.233      36.893836      36.893836      36.893836    
    178000   0.67821853    -7.4273021     -6.4099888      6.7478635      50218.233      36.893836      36.893836      36.893836    
    179000   0.67859271    -7.4232915     -6.4054169      6.7804279      50218.233      36.893836      36.893836      36.893836    
    180000   0.68316327    -7.4282797     -6.4035494      6.7452812      50218.233      36.893836      36.893836      36.893836    
    181000   0.67581715    -7.4212613     -6.4075499      6.7883336      50218.233      36.893836      36.893836      36.893836    
    182000   0.68044181    -7.4215791     -6.4009309      6.7969025      50218.233      36.893836      36.893836      36.893836    
    183000   0.67713708    -7.4302572     -6.414566       6.7369587      50218.233      36.893836      36.893836      36.893836    
    184000   0.67944699    -7.4304907     -6.4113347      6.7292505      50218.233      36.893836      36.893836      36.893836    
    185000   0.68337876    -7.4332424     -6.4081889      6.7151706      50218.233      36.893836      36.893836      36.893836    
    186000   0.67744925    -7.4295713     -6.4134119      6.7440856      50218.233      36.893836      36.893836      36.893836    
    187000   0.68325553    -7.4303875     -6.4055187      6.7349624      50218.233      36.893836      36.893836      36.893836    
    188000   0.6789593     -7.4296946     -6.4112701      6.7393408      50218.233      36.893836      36.893836      36.893836    
    189000   0.68261054    -7.4369855     -6.4130843      6.6864531      50218.233      36.893836      36.893836      36.893836    
    190000   0.6816005     -7.4273528     -6.4049666      6.7558366      50218.233      36.893836      36.893836      36.893836    
    191000   0.68100541    -7.432345      -6.4108514      6.7067621      50218.233      36.893836      36.893836      36.893836    
    192000   0.68454868    -7.4319935     -6.4051851      6.7210238      50218.233      36.893836      36.893836      36.893836    
    193000   0.68155009    -7.4295384     -6.4072278      6.7478258      50218.233      36.893836      36.893836      36.893836    
    194000   0.67851425    -7.4240577     -6.4063008      6.7684687      50218.233      36.893836      36.893836      36.893836    
    195000   0.68113122    -7.4238845     -6.4022022      6.7876595      50218.233      36.893836      36.893836      36.893836    
    196000   0.67814635    -7.422335      -6.40513        6.7770642      50218.233      36.893836      36.893836      36.893836    
    197000   0.68456644    -7.4279393     -6.4011042      6.766844       50218.233      36.893836      36.893836      36.893836    
    198000   0.68005044    -7.4268529     -6.4067917      6.7470767      50218.233      36.893836      36.893836      36.893836    
    199000   0.6783549     -7.4305844     -6.4130665      6.7329925      50218.233      36.893836      36.893836      36.893836    
    200000   0.68190616    -7.4337517     -6.410907       6.7053418      50218.233      36.893836      36.893836      36.893836    
    201000   0.68220171    -7.4303409     -6.4070529      6.7146879      50218.233      36.893836      36.893836      36.893836    
    202000   0.67865458    -7.4242824     -6.406315       6.7650107      50218.233      36.893836      36.893836      36.893836    
    203000   0.68149233    -7.4282657     -6.4060417      6.7447057      50218.233      36.893836      36.893836      36.893836    
    204000   0.68246791    -7.4274869     -6.4037996      6.7655686      50218.233      36.893836      36.893836      36.893836    
    205000   0.68353769    -7.4278543     -6.4025623      6.7505229      50218.233      36.893836      36.893836      36.893836    
    206000   0.6804517     -7.4276425     -6.4069794      6.7409489      50218.233      36.893836      36.893836      36.893836    
    207000   0.68102947    -7.4279805     -6.4064509      6.7489977      50218.233      36.893836      36.893836      36.893836    
    208000   0.68220833    -7.4270479     -6.4037499      6.7507897      50218.233      36.893836      36.893836      36.893836    
    209000   0.68128772    -7.4322791     -6.410362       6.7196761      50218.233      36.893836      36.893836      36.893836    
    210000   0.67640266    -7.4293731     -6.4147836      6.7402904      50218.233      36.893836      36.893836      36.893836    
    211000   0.6775258     -7.4284677     -6.4121934      6.7436032      50218.233      36.893836      36.893836      36.893836    
    212000   0.67982699    -7.4280192     -6.4082932      6.7515938      50218.233      36.893836      36.893836      36.893836    
    213000   0.68237731    -7.4208159     -6.3972645      6.8116574      50218.233      36.893836      36.893836      36.893836    
    214000   0.68169407    -7.4339804     -6.4114538      6.711333       50218.233      36.893836      36.893836      36.893836    
    215000   0.67844403    -7.4269577     -6.4093061      6.7549674      50218.233      36.893836      36.893836      36.893836    
    216000   0.67903544    -7.4248642     -6.4063255      6.7747745      50218.233      36.893836      36.893836      36.893836    
    217000   0.67907363    -7.4308116     -6.4122156      6.7214306      50218.233      36.893836      36.893836      36.893836    
    218000   0.67914382    -7.4311287     -6.4124274      6.7211151      50218.233      36.893836      36.893836      36.893836    
    219000   0.67830553    -7.4240592     -6.4066154      6.7671009      50218.233      36.893836      36.893836      36.893836    
    220000   0.6776502     -7.4265199     -6.4100591      6.7513756      50218.233      36.893836      36.893836      36.893836    
    221000   0.68184338    -7.432048      -6.4092975      6.723721       50218.233      36.893836      36.893836      36.893836    
    222000   0.68137319    -7.4287058     -6.4066605      6.736312       50218.233      36.893836      36.893836      36.893836    
    223000   0.68091896    -7.4296041     -6.4082402      6.7482219      50218.233      36.893836      36.893836      36.893836    
    224000   0.68262463    -7.4271226     -6.4032002      6.7550863      50218.233      36.893836      36.893836      36.893836    
    225000   0.67833241    -7.4244827     -6.4069985      6.7965563      50218.233      36.893836      36.893836      36.893836    
    226000   0.6801463     -7.4289817     -6.4087768      6.7330951      50218.233      36.893836      36.893836      36.893836    
    227000   0.67918177    -7.4323389     -6.4135808      6.7262636      50218.233      36.893836      36.893836      36.893836    
    228000   0.68065422    -7.4248907     -6.4039239      6.7720777      50218.233      36.893836      36.893836      36.893836    
    229000   0.68012848    -7.4320774     -6.4118992      6.7186114      50218.233      36.893836      36.893836      36.893836    
    230000   0.67902855    -7.4299616     -6.4114333      6.7450297      50218.233      36.893836      36.893836      36.893836    
    231000   0.6811694     -7.4296156     -6.407876       6.7454101      50218.233      36.893836      36.893836      36.893836    
    232000   0.6829096     -7.42745       -6.4031002      6.761717       50218.233      36.893836      36.893836      36.893836    
    233000   0.68283661    -7.4308604     -6.4066201      6.7258169      50218.233      36.893836      36.893836      36.893836    
    234000   0.68025514    -7.4352677     -6.4148994      6.6975143      50218.233      36.893836      36.893836      36.893836    
    235000   0.68051743    -7.4367203     -6.4159587      6.6816291      50218.233      36.893836      36.893836      36.893836    
    236000   0.68357202    -7.4272236     -6.4018801      6.757041       50218.233      36.893836      36.893836      36.893836    
    237000   0.67720634    -7.4250721     -6.409277       6.7677578      50218.233      36.893836      36.893836      36.893836    
    238000   0.67977273    -7.433925      -6.4142804      6.7029707      50218.233      36.893836      36.893836      36.893836    
    239000   0.67952505    -7.4289738     -6.4097007      6.7418519      50218.233      36.893836      36.893836      36.893836    
    240000   0.67946153    -7.4303557     -6.4111779      6.7344377      50218.233      36.893836      36.893836      36.893836    
    241000   0.68144807    -7.431536      -6.4093784      6.7249338      50218.233      36.893836      36.893836      36.893836    
    242000   0.68157652    -7.4285472     -6.406197       6.7575129      50218.233      36.893836      36.893836      36.893836    
    243000   0.67982854    -7.4280371     -6.4083088      6.7462594      50218.233      36.893836      36.893836      36.893836    
    244000   0.67920733    -7.425948      -6.4071514      6.7678816      50218.233      36.893836      36.893836      36.893836    
    245000   0.6835673     -7.4274861     -6.4021497      6.7619468      50218.233      36.893836      36.893836      36.893836    
    246000   0.67617062    -7.4323973     -6.4181558      6.7101552      50218.233      36.893836      36.893836      36.893836    
    247000   0.68059153    -7.4235172     -6.4026444      6.7811395      50218.233      36.893836      36.893836      36.893836    
    248000   0.67956802    -7.4268259     -6.4074883      6.7489623      50218.233      36.893836      36.893836      36.893836    
    249000   0.6825701     -7.42495       -6.4011094      6.7827253      50218.233      36.893836      36.893836      36.893836    
    250000   0.67664078    -7.4307759     -6.4158292      6.720184       50218.233      36.893836      36.893836      36.893836    
    251000   0.67957261    -7.4284704     -6.409126       6.7441767      50218.233      36.893836      36.893836      36.893836    
    252000   0.67890882    -7.4307766     -6.4124279      6.721128       50218.233      36.893836      36.893836      36.893836    
    253000   0.68107448    -7.4256298     -6.4040326      6.7623135      50218.233      36.893836      36.893836      36.893836    
    254000   0.67986091    -7.4291951     -6.4094182      6.7434495      50218.233      36.893836      36.893836      36.893836    
    255000   0.67990393    -7.4293116     -6.4094703      6.7340581      50218.233      36.893836      36.893836      36.893836    
    256000   0.68170449    -7.429146      -6.4066038      6.7531468      50218.233      36.893836      36.893836      36.893836    
    257000   0.67947782    -7.4256996     -6.4064973      6.7596357      50218.233      36.893836      36.893836      36.893836    
    258000   0.67772788    -7.4269455     -6.4103682      6.7510571      50218.233      36.893836      36.893836      36.893836    
    259000   0.68084682    -7.4262041     -6.4049483      6.7413221      50218.233      36.893836      36.893836      36.893836    
    260000   0.67990332    -7.4251882     -6.4053477      6.7706663      50218.233      36.893836      36.893836      36.893836    
    261000   0.67896926    -7.4211688     -6.4027294      6.7925818      50218.233      36.893836      36.893836      36.893836    
    262000   0.67997603    -7.4248808     -6.4049313      6.7658464      50218.233      36.893836      36.893836      36.893836    
    263000   0.67721063    -7.4231517     -6.4073502      6.7913935      50218.233      36.893836      36.893836      36.893836    
    264000   0.68160913    -7.4270082     -6.404609       6.7522349      50218.233      36.893836      36.893836      36.893836    
    265000   0.67957043    -7.425637      -6.4062958      6.7540979      50218.233      36.893836      36.893836      36.893836    
    266000   0.68296774    -7.4309222     -6.4064852      6.7334288      50218.233      36.893836      36.893836      36.893836    
    267000   0.68229422    -7.4318717     -6.4084449      6.712091       50218.233      36.893836      36.893836      36.893836    
    268000   0.68328528    -7.4308527     -6.4059393      6.7396801      50218.233      36.893836      36.893836      36.893836    
    269000   0.6813007     -7.4318797     -6.4099432      6.7179945      50218.233      36.893836      36.893836      36.893836    
    270000   0.6813911     -7.427106      -6.4050339      6.7606306      50218.233      36.893836      36.893836      36.893836    
    271000   0.67658212    -7.4286065     -6.4137478      6.7467446      50218.233      36.893836      36.893836      36.893836    
    272000   0.67923916    -7.4333507     -6.4145065      6.7117034      50218.233      36.893836      36.893836      36.893836    
    273000   0.6824044     -7.4223233     -6.3987313      6.8041383      50218.233      36.893836      36.893836      36.893836    
    274000   0.68170056    -7.4208806     -6.3983443      6.7983472      50218.233      36.893836      36.893836      36.893836    
    275000   0.68265847    -7.428816      -6.4048428      6.7484067      50218.233      36.893836      36.893836      36.893836    
    276000   0.67810877    -7.4355654     -6.4184168      6.6817726      50218.233      36.893836      36.893836      36.893836    
    277000   0.68059851    -7.431389      -6.4105057      6.7132522      50218.233      36.893836      36.893836      36.893836    
    278000   0.6774124     -7.4296682     -6.4135641      6.7262907      50218.233      36.893836      36.893836      36.893836    
    279000   0.68086402    -7.4293995     -6.408118       6.7367509      50218.233      36.893836      36.893836      36.893836    
    280000   0.67967173    -7.4255707     -6.4060776      6.7634549      50218.233      36.893836      36.893836      36.893836    
    281000   0.67986952    -7.4245295     -6.4047397      6.780097       50218.233      36.893836      36.893836      36.893836    
    282000   0.67890668    -7.4291538     -6.4108082      6.7405034      50218.233      36.893836      36.893836      36.893836    
    283000   0.6802084     -7.4311332     -6.4108351      6.7254763      50218.233      36.893836      36.893836      36.893836    
    284000   0.67887384    -7.4215485     -6.4032523      6.7858365      50218.233      36.893836      36.893836      36.893836    
    285000   0.67987692    -7.4283103     -6.4085094      6.7496084      50218.233      36.893836      36.893836      36.893836    
    286000   0.6822924     -7.4286963     -6.4052722      6.7637916      50218.233      36.893836      36.893836      36.893836    
    287000   0.68286585    -7.4271634     -6.4028792      6.7621306      50218.233      36.893836      36.893836      36.893836    
    288000   0.67653453    -7.430337      -6.4155496      6.730345       50218.233      36.893836      36.893836      36.893836    
    289000   0.68584234    -7.4309584     -6.4022096      6.7382653      50218.233      36.893836      36.893836      36.893836    
    290000   0.67844956    -7.427648      -6.4099882      6.7470218      50218.233      36.893836      36.893836      36.893836    
    291000   0.67779203    -7.4308052     -6.4141316      6.7241634      50218.233      36.893836      36.893836      36.893836    
    292000   0.67751312    -7.426867      -6.4106118      6.7511769      50218.233      36.893836      36.893836      36.893836    
    293000   0.6815875     -7.4245563     -6.4021896      6.7887059      50218.233      36.893836      36.893836      36.893836    
    294000   0.68170143    -7.4230782     -6.4005406      6.7953571      50218.233      36.893836      36.893836      36.893836    
    295000   0.68040578    -7.4179557     -6.3973615      6.8151024      50218.233      36.893836      36.893836      36.893836    
    296000   0.67979061    -7.4239259     -6.4042544      6.7774885      50218.233      36.893836      36.893836      36.893836    
    297000   0.68029705    -7.4289192     -6.4084881      6.741619       50218.233      36.893836      36.893836      36.893836    
    298000   0.68189993    -7.4244761     -6.4016407      6.7902483      50218.233      36.893836      36.893836      36.893836    
    299000   0.68163822    -7.4277026     -6.4052598      6.7518316      50218.233      36.893836      36.893836      36.893836    
    300000   0.67984532    -7.4339447     -6.4141912      6.7060465      50218.233      36.893836      36.893836      36.893836    
    301000   0.68279742    -7.4278593     -6.4036777      6.7565945      50218.233      36.893836      36.893836      36.893836    
    302000   0.68233933    -7.4269598     -6.4034654      6.760468       50218.233      36.893836      36.893836      36.893836    
    303000   0.68359238    -7.4210548     -6.3956808      6.8234834      50218.233      36.893836      36.893836      36.893836    
    304000   0.68068574    -7.4254547     -6.4044406      6.7699909      50218.233      36.893836      36.893836      36.893836    
    305000   0.68081347    -7.4263751     -6.4051694      6.7735956      50218.233      36.893836      36.893836      36.893836    
    306000   0.67928932    -7.4216247     -6.4027052      6.803201       50218.233      36.893836      36.893836      36.893836    
    307000   0.68282391    -7.4279277     -6.4037064      6.7415181      50218.233      36.893836      36.893836      36.893836    
    308000   0.68041132    -7.4311098     -6.4105073      6.7196186      50218.233      36.893836      36.893836      36.893836    
    309000   0.68054377    -7.4283595     -6.4075584      6.7372375      50218.233      36.893836      36.893836      36.893836    
    310000   0.6755858     -7.4350558     -6.4216915      6.6943993      50218.233      36.893836      36.893836      36.893836    
    311000   0.68064985    -7.4280922     -6.4071319      6.7496719      50218.233      36.893836      36.893836      36.893836    
    312000   0.68282844    -7.4301542     -6.4059262      6.7435309      50218.233      36.893836      36.893836      36.893836    
    313000   0.68541122    -7.432361      -6.4042588      6.7257483      50218.233      36.893836      36.893836      36.893836    
    314000   0.67805133    -7.4297514     -6.4126889      6.7430408      50218.233      36.893836      36.893836      36.893836    
    315000   0.67842506    -7.4328733     -6.4152502      6.7081535      50218.233      36.893836      36.893836      36.893836    
    316000   0.67882562    -7.4274411     -6.4092171      6.7474259      50218.233      36.893836      36.893836      36.893836    
    317000   0.67956123    -7.4300167     -6.4106893      6.7353389      50218.233      36.893836      36.893836      36.893836    
    318000   0.68093888    -7.4346261     -6.4132324      6.6960675      50218.233      36.893836      36.893836      36.893836    
    319000   0.67787434    -7.4302548     -6.4134578      6.7171778      50218.233      36.893836      36.893836      36.893836    
    320000   0.68284708    -7.43143       -6.4071739      6.7254043      50218.233      36.893836      36.893836      36.893836    
    321000   0.67896779    -7.429101      -6.4106638      6.7344648      50218.233      36.893836      36.893836      36.893836    
    322000   0.68210615    -7.4311563     -6.4080116      6.7142046      50218.233      36.893836      36.893836      36.893836    
    323000   0.68107243    -7.4319675     -6.4103734      6.7319369      50218.233      36.893836      36.893836      36.893836    
    324000   0.68201053    -7.4250994     -6.4020981      6.7621464      50218.233      36.893836      36.893836      36.893836    
    325000   0.68189579    -7.4240364     -6.4012073      6.7727252      50218.233      36.893836      36.893836      36.893836    
    326000   0.67928346    -7.4286817     -6.409771       6.7383158      50218.233      36.893836      36.893836      36.893836    
    327000   0.68100007    -7.427191      -6.4057055      6.7586132      50218.233      36.893836      36.893836      36.893836    
    328000   0.67954092    -7.4270103     -6.4077134      6.7623664      50218.233      36.893836      36.893836      36.893836    
    329000   0.68088522    -7.424452      -6.4031387      6.7628025      50218.233      36.893836      36.893836      36.893836    
    330000   0.67874407    -7.4311176     -6.413016       6.7367122      50218.233      36.893836      36.893836      36.893836    
    331000   0.67942327    -7.4288165     -6.4096961      6.7373635      50218.233      36.893836      36.893836      36.893836    
    332000   0.68112525    -7.432037      -6.4103637      6.7211572      50218.233      36.893836      36.893836      36.893836    
    333000   0.67847217    -7.427152      -6.4094582      6.7578566      50218.233      36.893836      36.893836      36.893836    
    334000   0.67580091    -7.4301488     -6.4164619      6.7204205      50218.233      36.893836      36.893836      36.893836    
    335000   0.67854754    -7.4294334     -6.4116265      6.7282491      50218.233      36.893836      36.893836      36.893836    
    336000   0.67956869    -7.4302237     -6.4108851      6.7292812      50218.233      36.893836      36.893836      36.893836    
    337000   0.68245745    -7.4250645     -6.4013929      6.7911231      50218.233      36.893836      36.893836      36.893836    
    338000   0.68274616    -7.4251011     -6.4009964      6.7802971      50218.233      36.893836      36.893836      36.893836    
    339000   0.68185239    -7.4213521     -6.3985881      6.8051295      50218.233      36.893836      36.893836      36.893836    
    340000   0.67933028    -7.4269829     -6.408002       6.7459835      50218.233      36.893836      36.893836      36.893836    
    341000   0.68231333    -7.4264681     -6.4030127      6.7578731      50218.233      36.893836      36.893836      36.893836    
    342000   0.68093389    -7.433075      -6.4116887      6.7070933      50218.233      36.893836      36.893836      36.893836    
    343000   0.67743171    -7.4256142     -6.4094811      6.7600406      50218.233      36.893836      36.893836      36.893836    
    344000   0.68129863    -7.4271913     -6.4052579      6.7595694      50218.233      36.893836      36.893836      36.893836    
    345000   0.68604702    -7.4280335     -6.3989776      6.7588399      50218.233      36.893836      36.893836      36.893836    
    346000   0.67836469    -7.4260667     -6.4085342      6.7532865      50218.233      36.893836      36.893836      36.893836    
    347000   0.68006428    -7.4242688     -6.4041869      6.772626       50218.233      36.893836      36.893836      36.893836    
    348000   0.67815468    -7.4267991     -6.4095815      6.7531393      50218.233      36.893836      36.893836      36.893836    
    349000   0.67752755    -7.4279659     -6.4116891      6.7490819      50218.233      36.893836      36.893836      36.893836    
    350000   0.68316814    -7.4230748     -6.3983372      6.7971624      50218.233      36.893836      36.893836      36.893836    
    351000   0.68108471    -7.4302238     -6.4086112      6.7389251      50218.233      36.893836      36.893836      36.893836    
    352000   0.68169798    -7.4296349     -6.4071025      6.7324496      50218.233      36.893836      36.893836      36.893836    
    353000   0.67734177    -7.4283598     -6.4123616      6.7417662      50218.233      36.893836      36.893836      36.893836    
    354000   0.68085217    -7.4314284     -6.4101646      6.7227417      50218.233      36.893836      36.893836      36.893836    
    355000   0.67922267    -7.421557      -6.4027375      6.7868104      50218.233      36.893836      36.893836      36.893836    
    356000   0.68164455    -7.4225643     -6.4001121      6.7861522      50218.233      36.893836      36.893836      36.893836    
    357000   0.68159402    -7.4305807     -6.4082042      6.7338056      50218.233      36.893836      36.893836      36.893836    
    358000   0.67977649    -7.4286877     -6.4090375      6.7320096      50218.233      36.893836      36.893836      36.893836    
    359000   0.67875016    -7.4273379     -6.4092271      6.7538354      50218.233      36.893836      36.893836      36.893836    
    360000   0.67873134    -7.4272286     -6.4091461      6.7676907      50218.233      36.893836      36.893836      36.893836    
    361000   0.68111409    -7.4301797     -6.4085231      6.7347085      50218.233      36.893836      36.893836      36.893836    
    362000   0.67823494    -7.4343981     -6.4170602      6.7025277      50218.233      36.893836      36.893836      36.893836    
    363000   0.67963175    -7.4221632     -6.4027301      6.797458       50218.233      36.893836      36.893836      36.893836    
    364000   0.67903192    -7.4305083     -6.4119749      6.7127114      50218.233      36.893836      36.893836      36.893836    
    365000   0.67733308    -7.4227576     -6.4067725      6.7820999      50218.233      36.893836      36.893836      36.893836    
    366000   0.67988171    -7.4280753     -6.4082672      6.7513356      50218.233      36.893836      36.893836      36.893836    
    367000   0.68247998    -7.4264921     -6.4027867      6.7578247      50218.233      36.893836      36.893836      36.893836    
    368000   0.68115107    -7.4299447     -6.4082326      6.7266249      50218.233      36.893836      36.893836      36.893836    
    369000   0.67922353    -7.4260171     -6.4071963      6.7554287      50218.233      36.893836      36.893836      36.893836    
    370000   0.68129745    -7.4277147     -6.4057831      6.7497027      50218.233      36.893836      36.893836      36.893836    
    371000   0.68334278    -7.4302511     -6.4052516      6.7338346      50218.233      36.893836      36.893836      36.893836    
    372000   0.6834155     -7.4259169     -6.4008082      6.7682023      50218.233      36.893836      36.893836      36.893836    
    373000   0.6781521     -7.4290464     -6.4118327      6.7421529      50218.233      36.893836      36.893836      36.893836    
    374000   0.68128222    -7.4254187     -6.40351        6.7711291      50218.233      36.893836      36.893836      36.893836    
    375000   0.67864723    -7.4331845     -6.4152281      6.6998799      50218.233      36.893836      36.893836      36.893836    
    376000   0.67941853    -7.4249421     -6.4058288      6.7584497      50218.233      36.893836      36.893836      36.893836    
    377000   0.6826783     -7.4301152     -6.4061123      6.7391024      50218.233      36.893836      36.893836      36.893836    
    378000   0.68167743    -7.4273777     -6.4048761      6.7550951      50218.233      36.893836      36.893836      36.893836    
    379000   0.67864914    -7.432892      -6.4149328      6.7093871      50218.233      36.893836      36.893836      36.893836    
    380000   0.68045827    -7.4348506     -6.4141778      6.6963054      50218.233      36.893836      36.893836      36.893836    
    381000   0.67762691    -7.4243933     -6.4079674      6.7671085      50218.233      36.893836      36.893836      36.893836    
    382000   0.67897139    -7.4242789     -6.4058363      6.7639002      50218.233      36.893836      36.893836      36.893836    
    383000   0.67950278    -7.4192949     -6.4000552      6.8192738      50218.233      36.893836      36.893836      36.893836    
    384000   0.68095897    -7.4307711     -6.4093472      6.7255163      50218.233      36.893836      36.893836      36.893836    
    385000   0.67933489    -7.4270011     -6.4080132      6.7485097      50218.233      36.893836      36.893836      36.893836    
    386000   0.6795221     -7.4330724     -6.4138037      6.7082806      50218.233      36.893836      36.893836      36.893836    
    387000   0.67978532    -7.4339978     -6.4143344      6.7041792      50218.233      36.893836      36.893836      36.893836    
    388000   0.68154109    -7.4369247     -6.4146276      6.688385       50218.233      36.893836      36.893836      36.893836    
    389000   0.67877449    -7.4239895     -6.4058423      6.7806429      50218.233      36.893836      36.893836      36.893836    
    390000   0.68337956    -7.4289909     -6.4039361      6.7600927      50218.233      36.893836      36.893836      36.893836    
    391000   0.67982056    -7.4244009     -6.4046846      6.7838451      50218.233      36.893836      36.893836      36.893836    
    392000   0.67987098    -7.4323418     -6.4125499      6.7220446      50218.233      36.893836      36.893836      36.893836    
    393000   0.67974854    -7.4291171     -6.4095088      6.7467836      50218.233      36.893836      36.893836      36.893836    
    394000   0.67741647    -7.4245949     -6.4084846      6.7589415      50218.233      36.893836      36.893836      36.893836    
    395000   0.67815249    -7.4305311     -6.4133168      6.7312492      50218.233      36.893836      36.893836      36.893836    
    396000   0.67919381    -7.4302952     -6.411519       6.7220218      50218.233      36.893836      36.893836      36.893836    
    397000   0.68008329    -7.4324818     -6.4123714      6.7209316      50218.233      36.893836      36.893836      36.893836    
    398000   0.68116939    -7.4202136     -6.398474       6.8161746      50218.233      36.893836      36.893836      36.893836    
    399000   0.6770715     -7.4282579     -6.4126651      6.7468337      50218.233      36.893836      36.893836      36.893836    
    400000   0.67764305    -7.4272339     -6.4107838      6.7460175      50218.233      36.893836      36.893836      36.893836    
    401000   0.6793596     -7.4287852     -6.4097603      6.7481432      50218.233      36.893836      36.893836      36.893836    
    402000   0.68107334    -7.420928      -6.3993325      6.8025456      50218.233      36.893836      36.893836      36.893836    
    403000   0.67819016    -7.4256945     -6.4084238      6.7775909      50218.233      36.893836      36.893836      36.893836    
    404000   0.67797041    -7.4259328     -6.4089916      6.7579762      50218.233      36.893836      36.893836      36.893836    
    405000   0.679612      -7.4271789     -6.4077754      6.7498273      50218.233      36.893836      36.893836      36.893836    
    406000   0.67803846    -7.4323913     -6.4153481      6.7064995      50218.233      36.893836      36.893836      36.893836    
    407000   0.67915025    -7.4267997     -6.4080888      6.7639224      50218.233      36.893836      36.893836      36.893836    
    408000   0.67806928    -7.4230951     -6.4060056      6.7796576      50218.233      36.893836      36.893836      36.893836    
    409000   0.6763937     -7.4225727     -6.4079966      6.7833682      50218.233      36.893836      36.893836      36.893836    
    410000   0.678685      -7.4239426     -6.4059296      6.7767463      50218.233      36.893836      36.893836      36.893836    
    411000   0.68361602    -7.4228608     -6.3974514      6.8004825      50218.233      36.893836      36.893836      36.893836    
    412000   0.67965994    -7.424968      -6.4054926      6.7636361      50218.233      36.893836      36.893836      36.893836    
    413000   0.67771599    -7.4287724     -6.4122129      6.7414031      50218.233      36.893836      36.893836      36.893836    
    414000   0.67444066    -7.4303152     -6.4186686      6.7172468      50218.233      36.893836      36.893836      36.893836    
    415000   0.6810721     -7.4272784     -6.4056848      6.7473638      50218.233      36.893836      36.893836      36.893836    
    416000   0.68063272    -7.4248729     -6.4039384      6.7538401      50218.233      36.893836      36.893836      36.893836    
    417000   0.68146599    -7.4288202     -6.4066358      6.7379962      50218.233      36.893836      36.893836      36.893836    
    418000   0.67983467    -7.4232459     -6.4035084      6.7798269      50218.233      36.893836      36.893836      36.893836    
    419000   0.68078293    -7.4309834     -6.4098235      6.7234207      50218.233      36.893836      36.893836      36.893836    
    420000   0.68310125    -7.4252614     -6.4006241      6.775577       50218.233      36.893836      36.893836      36.893836    
    421000   0.67892585    -7.418434      -6.4000597      6.8197316      50218.233      36.893836      36.893836      36.893836    
    422000   0.68008005    -7.4287019     -6.4085963      6.7632685      50218.233      36.893836      36.893836      36.893836    
    423000   0.68361249    -7.430268      -6.4048638      6.7364779      50218.233      36.893836      36.893836      36.893836    
    424000   0.67979691    -7.4283492     -6.4086684      6.7592173      50218.233      36.893836      36.893836      36.893836    
    425000   0.68112603    -7.4304917     -6.4088172      6.7430162      50218.233      36.893836      36.893836      36.893836    
    426000   0.68231065    -7.4243796     -6.4009282      6.7808395      50218.233      36.893836      36.893836      36.893836    
    427000   0.67829358    -7.4239029     -6.406477       6.7809251      50218.233      36.893836      36.893836      36.893836    
    428000   0.67890555    -7.4292122     -6.4108683      6.741686       50218.233      36.893836      36.893836      36.893836    
    429000   0.68053261    -7.4280628     -6.4072784      6.7260625      50218.233      36.893836      36.893836      36.893836    
    430000   0.68296821    -7.4267218     -6.402284       6.7653381      50218.233      36.893836      36.893836      36.893836    
    431000   0.68096084    -7.4290641     -6.4076374      6.7508157      50218.233      36.893836      36.893836      36.893836    
    432000   0.67756861    -7.4277921     -6.4114536      6.7490107      50218.233      36.893836      36.893836      36.893836    
    433000   0.68124841    -7.4262144     -6.4043563      6.7502639      50218.233      36.893836      36.893836      36.893836    
    434000   0.68213385    -7.4303294     -6.4071432      6.740123       50218.233      36.893836      36.893836      36.893836    
    435000   0.68046247    -7.4247831     -6.4041039      6.7725932      50218.233      36.893836      36.893836      36.893836    
    436000   0.68050302    -7.4233975     -6.4026575      6.7927299      50218.233      36.893836      36.893836      36.893836    
    437000   0.68344239    -7.4283557     -6.4032067      6.7522514      50218.233      36.893836      36.893836      36.893836    
    438000   0.6741004     -7.4258721     -6.4147359      6.761935       50218.233      36.893836      36.893836      36.893836    
    439000   0.68289708    -7.4298269     -6.4054959      6.7513325      50218.233      36.893836      36.893836      36.893836    
    440000   0.67729714    -7.4323744     -6.4164432      6.7183563      50218.233      36.893836      36.893836      36.893836    
    441000   0.68076113    -7.4319252     -6.4107981      6.7219551      50218.233      36.893836      36.893836      36.893836    
    442000   0.67901891    -7.4301768     -6.4116629      6.7273497      50218.233      36.893836      36.893836      36.893836    
    443000   0.67967047    -7.4308897     -6.4113984      6.731599       50218.233      36.893836      36.893836      36.893836    
    444000   0.6781578     -7.4353117     -6.4180895      6.6953003      50218.233      36.893836      36.893836      36.893836    
    445000   0.67902827    -7.4291966     -6.4106687      6.7361313      50218.233      36.893836      36.893836      36.893836    
    446000   0.68100426    -7.4354388     -6.4139469      6.6949174      50218.233      36.893836      36.893836      36.893836    
    447000   0.67683633    -7.4317232     -6.4164832      6.708751       50218.233      36.893836      36.893836      36.893836    
    448000   0.68339286    -7.4259588     -6.4008841      6.7636322      50218.233      36.893836      36.893836      36.893836    
    449000   0.67887706    -7.4314906     -6.4131895      6.7256437      50218.233      36.893836      36.893836      36.893836    
    450000   0.68258141    -7.4267373     -6.4028797      6.7560686      50218.233      36.893836      36.893836      36.893836    
    451000   0.67872658    -7.4367654     -6.41869        6.688185       50218.233      36.893836      36.893836      36.893836    
    452000   0.67919793    -7.4282064     -6.409424       6.7480715      50218.233      36.893836      36.893836      36.893836    
    453000   0.68093565    -7.4280948     -6.4067059      6.754637       50218.233      36.893836      36.893836      36.893836    
    454000   0.67685514    -7.4279256     -6.4126574      6.7567423      50218.233      36.893836      36.893836      36.893836    
    455000   0.67672313    -7.4227407     -6.4076704      6.794458       50218.233      36.893836      36.893836      36.893836    
    456000   0.67877704    -7.4222398     -6.4040888      6.7976277      50218.233      36.893836      36.893836      36.893836    
    457000   0.67899098    -7.4281        -6.409628       6.7529655      50218.233      36.893836      36.893836      36.893836    
    458000   0.6769347     -7.4318795     -6.4164919      6.7139459      50218.233      36.893836      36.893836      36.893836    
    459000   0.68050054    -7.4320806     -6.4113443      6.7196897      50218.233      36.893836      36.893836      36.893836    
    460000   0.68092559    -7.4311897     -6.4098158      6.71783        50218.233      36.893836      36.893836      36.893836    
    461000   0.68047701    -7.4368926     -6.4161916      6.6863119      50218.233      36.893836      36.893836      36.893836    
    462000   0.68492087    -7.4309419     -6.4035752      6.7458807      50218.233      36.893836      36.893836      36.893836    
    463000   0.67949008    -7.4359407     -6.4167201      6.6827224      50218.233      36.893836      36.893836      36.893836    
    464000   0.67741797    -7.4271426     -6.4110301      6.7397336      50218.233      36.893836      36.893836      36.893836    
    465000   0.67902966    -7.4264341     -6.4079041      6.7627559      50218.233      36.893836      36.893836      36.893836    
    466000   0.68197193    -7.4307277     -6.4077844      6.7198515      50218.233      36.893836      36.893836      36.893836    
    467000   0.67861791    -7.4240793     -6.4061669      6.7676968      50218.233      36.893836      36.893836      36.893836    
    468000   0.67965032    -7.4332414     -6.4137804      6.6994855      50218.233      36.893836      36.893836      36.893836    
    469000   0.68239924    -7.4297369     -6.4061526      6.7363383      50218.233      36.893836      36.893836      36.893836    
    470000   0.68329971    -7.4276959     -6.4027609      6.7586531      50218.233      36.893836      36.893836      36.893836    
    471000   0.67953113    -7.4287298     -6.4094476      6.7378425      50218.233      36.893836      36.893836      36.893836    
    472000   0.67654881    -7.432582      -6.4177733      6.7123343      50218.233      36.893836      36.893836      36.893836    
    473000   0.67582245    -7.4309707     -6.4172514      6.7199245      50218.233      36.893836      36.893836      36.893836    
    474000   0.6805725     -7.4276289     -6.4067847      6.7553405      50218.233      36.893836      36.893836      36.893836    
    475000   0.6809299     -7.4339602     -6.4125799      6.7038399      50218.233      36.893836      36.893836      36.893836    
    476000   0.67562334    -7.4257857     -6.4123651      6.7598326      50218.233      36.893836      36.893836      36.893836    
    477000   0.67711637    -7.4351472     -6.4194871      6.6845206      50218.233      36.893836      36.893836      36.893836    
    478000   0.67903922    -7.4312562     -6.4127118      6.7256853      50218.233      36.893836      36.893836      36.893836    
    479000   0.67975637    -7.4282725     -6.4086525      6.7451956      50218.233      36.893836      36.893836      36.893836    
    480000   0.67816268    -7.425755      -6.4085255      6.7566726      50218.233      36.893836      36.893836      36.893836    
    481000   0.68045666    -7.427716      -6.4070455      6.7388366      50218.233      36.893836      36.893836      36.893836    
    482000   0.68313176    -7.429313      -6.4046299      6.7444692      50218.233      36.893836      36.893836      36.893836    
    483000   0.67980132    -7.4235899     -6.4039024      6.7882052      50218.233      36.893836      36.893836      36.893836    
    484000   0.68005679    -7.4304187     -6.4103481      6.7369249      50218.233      36.893836      36.893836      36.893836    
    485000   0.67953891    -7.4277595     -6.4084656      6.7411827      50218.233      36.893836      36.893836      36.893836    
    486000   0.67844944    -7.4291731     -6.4115134      6.7425189      50218.233      36.893836      36.893836      36.893836    
    487000   0.68283224    -7.4294294     -6.4051956      6.7334461      50218.233      36.893836      36.893836      36.893836    
    488000   0.68481241    -7.4266541     -6.3994501      6.7669458      50218.233      36.893836      36.893836      36.893836    
    489000   0.68167611    -7.4284391     -6.4059395      6.7449949      50218.233      36.893836      36.893836      36.893836    
    490000   0.6774123     -7.4339165     -6.4178125      6.7125299      50218.233      36.893836      36.893836      36.893836    
    491000   0.68223082    -7.4324422     -6.4091105      6.7131895      50218.233      36.893836      36.893836      36.893836    
    492000   0.68042296    -7.4288433     -6.4082234      6.7530272      50218.233      36.893836      36.893836      36.893836    
    493000   0.67798013    -7.4316307     -6.414675       6.7275896      50218.233      36.893836      36.893836      36.893836    
    494000   0.68110173    -7.4292922     -6.4076541      6.7393015      50218.233      36.893836      36.893836      36.893836    
    495000   0.67830163    -7.4293319     -6.4118939      6.7356949      50218.233      36.893836      36.893836      36.893836    
    496000   0.67621523    -7.4330209     -6.4187125      6.7024832      50218.233      36.893836      36.893836      36.893836    
    497000   0.68046767    -7.4331312     -6.4124443      6.708098       50218.233      36.893836      36.893836      36.893836    
    498000   0.68191963    -7.4336227     -6.4107578      6.7093868      50218.233      36.893836      36.893836      36.893836    
    499000   0.67751203    -7.423433      -6.4071794      6.7781664      50218.233      36.893836      36.893836      36.893836    
    500000   0.67908328    -7.4266388     -6.4080284      6.7578551      50218.233      36.893836      36.893836      36.893836    
    501000   0.67905696    -7.4307409     -6.41217        6.7252026      50218.233      36.893836      36.893836      36.893836    
    502000   0.67741883    -7.4295339     -6.4134201      6.7277418      50218.233      36.893836      36.893836      36.893836    
    503000   0.68022777    -7.4274293     -6.4071022      6.755127       50218.233      36.893836      36.893836      36.893836    
    504000   0.67919678    -7.4333799     -6.4145992      6.706707       50218.233      36.893836      36.893836      36.893836    
    505000   0.6755985     -7.4248058     -6.4114225      6.7674289      50218.233      36.893836      36.893836      36.893836    
    506000   0.68065372    -7.4215447     -6.4005786      6.7883017      50218.233      36.893836      36.893836      36.893836    
    507000   0.67956988    -7.4276486     -6.4083082      6.7468613      50218.233      36.893836      36.893836      36.893836    
    508000   0.67998417    -7.4309741     -6.4110124      6.7299233      50218.233      36.893836      36.893836      36.893836    
    509000   0.67983233    -7.4288276     -6.4090936      6.7353381      50218.233      36.893836      36.893836      36.893836    
    510000   0.68266509    -7.4247972     -6.4008141      6.776137       50218.233      36.893836      36.893836      36.893836    
    511000   0.67974718    -7.4311764     -6.4115701      6.7211768      50218.233      36.893836      36.893836      36.893836    
    512000   0.68064892    -7.4268172     -6.4058583      6.7661776      50218.233      36.893836      36.893836      36.893836    
    513000   0.67760089    -7.4335176     -6.4171307      6.6988836      50218.233      36.893836      36.893836      36.893836    
    514000   0.67466468    -7.4313791     -6.4193965      6.7147104      50218.233      36.893836      36.893836      36.893836    
    515000   0.68137819    -7.4361208     -6.414068       6.6953347      50218.233      36.893836      36.893836      36.893836    
    516000   0.67687204    -7.4275753     -6.4122817      6.75753        50218.233      36.893836      36.893836      36.893836    
    517000   0.67998016    -7.4272945     -6.4073388      6.7477181      50218.233      36.893836      36.893836      36.893836    
    518000   0.67831181    -7.4304186     -6.4129654      6.7366187      50218.233      36.893836      36.893836      36.893836    
    519000   0.68091356    -7.4236705     -6.4023147      6.7734729      50218.233      36.893836      36.893836      36.893836    
    520000   0.67693725    -7.4284408     -6.4130494      6.737218       50218.233      36.893836      36.893836      36.893836    
    521000   0.67957935    -7.4328537     -6.4134992      6.7218993      50218.233      36.893836      36.893836      36.893836    
    522000   0.67864969    -7.4261574     -6.4081974      6.7672031      50218.233      36.893836      36.893836      36.893836    
    523000   0.67708896    -7.4280675     -6.4124485      6.7495894      50218.233      36.893836      36.893836      36.893836    
    524000   0.68068479    -7.4276371     -6.4066244      6.760164       50218.233      36.893836      36.893836      36.893836    
    525000   0.68153402    -7.4346425     -6.412356       6.6915181      50218.233      36.893836      36.893836      36.893836    
    526000   0.6789767     -7.4269537     -6.4085031      6.7522613      50218.233      36.893836      36.893836      36.893836    
    527000   0.68113933    -7.4303822     -6.4086877      6.7327974      50218.233      36.893836      36.893836      36.893836    
    528000   0.68227427    -7.4246891     -6.4012923      6.7754497      50218.233      36.893836      36.893836      36.893836    
    529000   0.68165892    -7.4240864     -6.4016126      6.7754578      50218.233      36.893836      36.893836      36.893836    
    530000   0.68228248    -7.4267318     -6.4033226      6.7578211      50218.233      36.893836      36.893836      36.893836    
    531000   0.68034963    -7.424285      -6.4037751      6.7690128      50218.233      36.893836      36.893836      36.893836    
    532000   0.68057613    -7.4268288     -6.4059791      6.7668404      50218.233      36.893836      36.893836      36.893836    
    533000   0.68052561    -7.4241519     -6.403378       6.7702202      50218.233      36.893836      36.893836      36.893836    
    534000   0.68097346    -7.4197793     -6.3983337      6.8043995      50218.233      36.893836      36.893836      36.893836    
    535000   0.67982115    -7.4291469     -6.4094297      6.7463964      50218.233      36.893836      36.893836      36.893836    
    536000   0.68133761    -7.4361617     -6.4141698      6.6988058      50218.233      36.893836      36.893836      36.893836    
    537000   0.67845142    -7.4350611     -6.4173984      6.6981011      50218.233      36.893836      36.893836      36.893836    
    538000   0.68159606    -7.4314934     -6.4091139      6.7178807      50218.233      36.893836      36.893836      36.893836    
    539000   0.68131691    -7.4195913     -6.3976305      6.8017449      50218.233      36.893836      36.893836      36.893836    
    540000   0.68253812    -7.4323359     -6.4085433      6.7326773      50218.233      36.893836      36.893836      36.893836    
    541000   0.68215908    -7.4319421     -6.408718       6.7235882      50218.233      36.893836      36.893836      36.893836    
    542000   0.68098009    -7.4243615     -6.4029059      6.7692653      50218.233      36.893836      36.893836      36.893836    
    543000   0.68137974    -7.4271133     -6.4050583      6.7595853      50218.233      36.893836      36.893836      36.893836    
    544000   0.67868745    -7.4268231     -6.4088064      6.7459462      50218.233      36.893836      36.893836      36.893836    
    545000   0.67967021    -7.4219942     -6.4025033      6.7965671      50218.233      36.893836      36.893836      36.893836    
    546000   0.6762441     -7.4220373     -6.4076856      6.7930056      50218.233      36.893836      36.893836      36.893836    
    547000   0.68040573    -7.4211617     -6.4005676      6.8109739      50218.233      36.893836      36.893836      36.893836    
    548000   0.67979765    -7.4257156     -6.4060336      6.7794116      50218.233      36.893836      36.893836      36.893836    
    549000   0.68081742    -7.4218884     -6.4006768      6.7926431      50218.233      36.893836      36.893836      36.893836    
    550000   0.67966633    -7.4328222     -6.4133372      6.7200599      50218.233      36.893836      36.893836      36.893836    
    551000   0.67855461    -7.4250549     -6.4072375      6.7753728      50218.233      36.893836      36.893836      36.893836    
    552000   0.67909183    -7.4277826     -6.4091593      6.7516097      50218.233      36.893836      36.893836      36.893836    
    553000   0.68072813    -7.4261596     -6.4050819      6.7615884      50218.233      36.893836      36.893836      36.893836    
    554000   0.6777        -7.4204907     -6.4039552      6.8055358      50218.233      36.893836      36.893836      36.893836    
    555000   0.679058      -7.4235883     -6.4050157      6.7785135      50218.233      36.893836      36.893836      36.893836    
    556000   0.67979693    -7.4286571     -6.4089762      6.7359825      50218.233      36.893836      36.893836      36.893836    
    557000   0.67961254    -7.4264483     -6.407044       6.7612318      50218.233      36.893836      36.893836      36.893836    
    558000   0.68130019    -7.4331725     -6.4112367      6.7186516      50218.233      36.893836      36.893836      36.893836    
    559000   0.67888138    -7.4319037     -6.4135961      6.7067802      50218.233      36.893836      36.893836      36.893836    
    560000   0.68142336    -7.4226936     -6.4005731      6.7883546      50218.233      36.893836      36.893836      36.893836    
    561000   0.68156207    -7.4275293     -6.4052007      6.73984        50218.233      36.893836      36.893836      36.893836    
    562000   0.68166038    -7.4310451     -6.4085691      6.7306173      50218.233      36.893836      36.893836      36.893836    
    563000   0.68040035    -7.4273967     -6.4068107      6.7604096      50218.233      36.893836      36.893836      36.893836    
    564000   0.67791292    -7.4246949     -6.40784        6.7704742      50218.233      36.893836      36.893836      36.893836    
    565000   0.67863799    -7.4342595     -6.416317       6.711789       50218.233      36.893836      36.893836      36.893836    
    566000   0.6826744     -7.4279764     -6.4039793      6.7402551      50218.233      36.893836      36.893836      36.893836    
    567000   0.67845413    -7.4312631     -6.4135964      6.7306611      50218.233      36.893836      36.893836      36.893836    
    568000   0.67943139    -7.4247269     -6.4055943      6.7637871      50218.233      36.893836      36.893836      36.893836    
    569000   0.68324359    -7.4231365     -6.3982857      6.794378       50218.233      36.893836      36.893836      36.893836    
    570000   0.68061677    -7.4302843     -6.4093737      6.7289419      50218.233      36.893836      36.893836      36.893836    
    571000   0.68108039    -7.4288031     -6.407197       6.7434635      50218.233      36.893836      36.893836      36.893836    
    572000   0.67901401    -7.4336826     -6.4151761      6.6958108      50218.233      36.893836      36.893836      36.893836    
    573000   0.68156368    -7.4236653     -6.4013344      6.7819708      50218.233      36.893836      36.893836      36.893836    
    574000   0.68039916    -7.4265445     -6.4059603      6.748629       50218.233      36.893836      36.893836      36.893836    
    575000   0.67655298    -7.4259927     -6.4111776      6.7483647      50218.233      36.893836      36.893836      36.893836    
    576000   0.67979968    -7.4254395     -6.4057545      6.7560782      50218.233      36.893836      36.893836      36.893836    
    577000   0.67806215    -7.4323235     -6.4152447      6.6985125      50218.233      36.893836      36.893836      36.893836    
    578000   0.68263279    -7.426918      -6.4029834      6.743426       50218.233      36.893836      36.893836      36.893836    
    579000   0.67906706    -7.4187189     -6.4001328      6.8172309      50218.233      36.893836      36.893836      36.893836    
    580000   0.6808941     -7.4284813     -6.4071546      6.7376511      50218.233      36.893836      36.893836      36.893836    
    581000   0.68058206    -7.4319687     -6.4111102      6.7221411      50218.233      36.893836      36.893836      36.893836    
    582000   0.68461354    -7.4242827     -6.3973769      6.7741239      50218.233      36.893836      36.893836      36.893836    
    583000   0.67872614    -7.4337685     -6.4156938      6.7166694      50218.233      36.893836      36.893836      36.893836    
    584000   0.68173907    -7.4318498     -6.4092557      6.7270775      50218.233      36.893836      36.893836      36.893836    
    585000   0.67718679    -7.4309036     -6.4151379      6.7142546      50218.233      36.893836      36.893836      36.893836    
    586000   0.68122108    -7.4345902     -6.4127731      6.7007804      50218.233      36.893836      36.893836      36.893836    
    587000   0.68151057    -7.4289727     -6.4067214      6.7373278      50218.233      36.893836      36.893836      36.893836    
    588000   0.67695332    -7.4293576     -6.4139421      6.7414438      50218.233      36.893836      36.893836      36.893836    
    589000   0.67925748    -7.4235951     -6.4047234      6.7813928      50218.233      36.893836      36.893836      36.893836    
    590000   0.67989124    -7.426911      -6.4070886      6.7402145      50218.233      36.893836      36.893836      36.893836    
    591000   0.67857412    -7.4241477     -6.406301       6.7712572      50218.233      36.893836      36.893836      36.893836    
    592000   0.67979933    -7.4271291     -6.4074446      6.7586078      50218.233      36.893836      36.893836      36.893836    
    593000   0.67950771    -7.4322205     -6.4129734      6.721046       50218.233      36.893836      36.893836      36.893836    
    594000   0.67802805    -7.4305491     -6.4135215      6.7226386      50218.233      36.893836      36.893836      36.893836    
    595000   0.67609418    -7.430468      -6.4163411      6.7338524      50218.233      36.893836      36.893836      36.893836    
    596000   0.6817131     -7.4262098     -6.4036547      6.7745188      50218.233      36.893836      36.893836      36.893836    
    597000   0.68129538    -7.429496      -6.4075675      6.7279048      50218.233      36.893836      36.893836      36.893836    
    598000   0.67843582    -7.4293159     -6.4116766      6.7261239      50218.233      36.893836      36.893836      36.893836    
    599000   0.67983611    -7.4304819     -6.4107422      6.7220538      50218.233      36.893836      36.893836      36.893836    
    600000   0.68181183    -7.4274501     -6.4047469      6.745385       50218.233      36.893836      36.893836      36.893836    
    601000   0.68252901    -7.4347054     -6.4109265      6.7035125      50218.233      36.893836      36.893836      36.893836    
    602000   0.68217134    -7.4334238     -6.4101814      6.7137729      50218.233      36.893836      36.893836      36.893836    
    603000   0.67871888    -7.4282727     -6.4102089      6.7507489      50218.233      36.893836      36.893836      36.893836    
    604000   0.67815089    -7.4211608     -6.4039489      6.7992265      50218.233      36.893836      36.893836      36.893836    
    605000   0.68324106    -7.426846      -6.401999       6.7545055      50218.233      36.893836      36.893836      36.893836    
    606000   0.68000165    -7.4300474     -6.4100594      6.7270333      50218.233      36.893836      36.893836      36.893836    
    607000   0.67795934    -7.4289215     -6.411997       6.7266033      50218.233      36.893836      36.893836      36.893836    
    608000   0.68227386    -7.4292764     -6.4058802      6.7306385      50218.233      36.893836      36.893836      36.893836    
    609000   0.68177112    -7.4265672     -6.4039251      6.7503039      50218.233      36.893836      36.893836      36.893836    
    610000   0.67953557    -7.4295533     -6.4102644      6.7304999      50218.233      36.893836      36.893836      36.893836    
    611000   0.67644888    -7.4302085     -6.4155496      6.7243339      50218.233      36.893836      36.893836      36.893836    
    612000   0.6807762     -7.425288      -6.4041382      6.7733615      50218.233      36.893836      36.893836      36.893836    
    613000   0.68147098    -7.431031      -6.4088391      6.7244694      50218.233      36.893836      36.893836      36.893836    
    614000   0.6838065     -7.4275729     -6.4018777      6.7641361      50218.233      36.893836      36.893836      36.893836    
    615000   0.68153182    -7.4309955     -6.4087123      6.7193647      50218.233      36.893836      36.893836      36.893836    
    616000   0.67717152    -7.4283607     -6.4126179      6.7388459      50218.233      36.893836      36.893836      36.893836    
    617000   0.67698264    -7.422569      -6.4071095      6.7966409      50218.233      36.893836      36.893836      36.893836    
    618000   0.67544824    -7.4338704     -6.4207124      6.7041062      50218.233      36.893836      36.893836      36.893836    
    619000   0.68372802    -7.4220394     -6.3964619      6.7921755      50218.233      36.893836      36.893836      36.893836    
    620000   0.67840079    -7.4315992     -6.4140124      6.7170597      50218.233      36.893836      36.893836      36.893836    
    621000   0.68322917    -7.4281816     -6.4033524      6.7436089      50218.233      36.893836      36.893836      36.893836    
    622000   0.68404635    -7.4316669     -6.405612       6.7300652      50218.233      36.893836      36.893836      36.893836    
    623000   0.68067758    -7.4313431     -6.4103412      6.7241499      50218.233      36.893836      36.893836      36.893836    
    624000   0.67640582    -7.4271156     -6.4125213      6.7512387      50218.233      36.893836      36.893836      36.893836    
    625000   0.68333959    -7.4228923     -6.3978975      6.7899122      50218.233      36.893836      36.893836      36.893836    
    626000   0.68258388    -7.4223044     -6.3984431      6.7832736      50218.233      36.893836      36.893836      36.893836    
    627000   0.68406709    -7.4294519     -6.4033659      6.7406095      50218.233      36.893836      36.893836      36.893836    
    628000   0.6798945     -7.4303443     -6.4105171      6.7268456      50218.233      36.893836      36.893836      36.893836    
    629000   0.67983614    -7.425378      -6.4056383      6.7698218      50218.233      36.893836      36.893836      36.893836    
    630000   0.68625608    -7.421229      -6.3918595      6.8109463      50218.233      36.893836      36.893836      36.893836    
    631000   0.67766213    -7.4220212     -6.4055425      6.7963844      50218.233      36.893836      36.893836      36.893836    
    632000   0.68219563    -7.4302073     -6.4069284      6.7518609      50218.233      36.893836      36.893836      36.893836    
    633000   0.68182508    -7.4237653     -6.4010422      6.7833377      50218.233      36.893836      36.893836      36.893836    
    634000   0.67988999    -7.4288322     -6.4090117      6.7292739      50218.233      36.893836      36.893836      36.893836    
    635000   0.68398348    -7.4253814     -6.3994208      6.7717801      50218.233      36.893836      36.893836      36.893836    
    636000   0.67965704    -7.4269801     -6.407509       6.7409389      50218.233      36.893836      36.893836      36.893836    
    637000   0.6789121     -7.4261148     -6.4077612      6.7610452      50218.233      36.893836      36.893836      36.893836    
    638000   0.68022782    -7.4305674     -6.4102402      6.7365203      50218.233      36.893836      36.893836      36.893836    
    639000   0.67918624    -7.4231555     -6.4043906      6.7831083      50218.233      36.893836      36.893836      36.893836    
    640000   0.67884972    -7.4291957     -6.4109356      6.7403695      50218.233      36.893836      36.893836      36.893836    
    641000   0.67586685    -7.4290901     -6.4153042      6.7441185      50218.233      36.893836      36.893836      36.893836    
    642000   0.67919669    -7.4277753     -6.4089947      6.7538994      50218.233      36.893836      36.893836      36.893836    
    643000   0.6805525     -7.4302799     -6.4094657      6.718562       50218.233      36.893836      36.893836      36.893836    
    644000   0.67897119    -7.4342473     -6.4158051      6.6900971      50218.233      36.893836      36.893836      36.893836    
    645000   0.68030915    -7.4312965     -6.4108473      6.7345975      50218.233      36.893836      36.893836      36.893836    
    646000   0.681906      -7.4234127     -6.4005682      6.7942539      50218.233      36.893836      36.893836      36.893836    
    647000   0.67919741    -7.4274602     -6.4086786      6.748836       50218.233      36.893836      36.893836      36.893836    
    648000   0.68085391    -7.4346963     -6.41343        6.7014183      50218.233      36.893836      36.893836      36.893836    
    649000   0.67845682    -7.4270017     -6.409331       6.7564488      50218.233      36.893836      36.893836      36.893836    
    650000   0.67878612    -7.4284942     -6.4103295      6.7419867      50218.233      36.893836      36.893836      36.893836    
    651000   0.68198013    -7.4282593     -6.4053037      6.7525343      50218.233      36.893836      36.893836      36.893836    
    652000   0.67984593    -7.4310043     -6.4112499      6.7280757      50218.233      36.893836      36.893836      36.893836    
    653000   0.67833239    -7.4282905     -6.4108063      6.7486446      50218.233      36.893836      36.893836      36.893836    
    654000   0.67898054    -7.4310067     -6.4125504      6.7338378      50218.233      36.893836      36.893836      36.893836    
    655000   0.67998895    -7.4224893     -6.4025203      6.7904604      50218.233      36.893836      36.893836      36.893836    
    656000   0.67490715    -7.4234844     -6.4111381      6.776338       50218.233      36.893836      36.893836      36.893836    
    657000   0.68009366    -7.4254839     -6.405358       6.7694462      50218.233      36.893836      36.893836      36.893836    
    658000   0.6803423     -7.4289545     -6.4084555      6.7426588      50218.233      36.893836      36.893836      36.893836    
    659000   0.67615904    -7.4240301     -6.409806       6.7744125      50218.233      36.893836      36.893836      36.893836    
    660000   0.67711439    -7.4286687     -6.4130116      6.7325141      50218.233      36.893836      36.893836      36.893836    
    661000   0.68302597    -7.4286531     -6.4041287      6.7465125      50218.233      36.893836      36.893836      36.893836    
    662000   0.67906685    -7.4275357     -6.4089499      6.7547531      50218.233      36.893836      36.893836      36.893836    
    663000   0.67918956    -7.4231161     -6.4043462      6.7909414      50218.233      36.893836      36.893836      36.893836    
    664000   0.68018387    -7.4309532     -6.4106919      6.7234064      50218.233      36.893836      36.893836      36.893836    
    665000   0.6789769     -7.4310774     -6.4126265      6.7311956      50218.233      36.893836      36.893836      36.893836    
    666000   0.68130592    -7.4292761     -6.4073317      6.7331905      50218.233      36.893836      36.893836      36.893836    
    667000   0.67904559    -7.4378162     -6.4192623      6.6764554      50218.233      36.893836      36.893836      36.893836    
    668000   0.678535      -7.4288716     -6.4110836      6.7261666      50218.233      36.893836      36.893836      36.893836    
    669000   0.67710231    -7.4227997     -6.4071607      6.7752166      50218.233      36.893836      36.893836      36.893836    
    670000   0.68352219    -7.4264677     -6.401199       6.7609126      50218.233      36.893836      36.893836      36.893836    
    671000   0.67782865    -7.4277311     -6.4110025      6.7393243      50218.233      36.893836      36.893836      36.893836    
    672000   0.6804177     -7.42957       -6.408958       6.730616       50218.233      36.893836      36.893836      36.893836    
    673000   0.68101181    -7.4302827     -6.4087795      6.7267178      50218.233      36.893836      36.893836      36.893836    
    674000   0.68026415    -7.4264103     -6.4060286      6.7536831      50218.233      36.893836      36.893836      36.893836    
    675000   0.67713086    -7.435611      -6.4199292      6.6798434      50218.233      36.893836      36.893836      36.893836    
    676000   0.68124351    -7.4341395     -6.4122888      6.7132178      50218.233      36.893836      36.893836      36.893836    
    677000   0.67824825    -7.4255953     -6.4082374      6.7625026      50218.233      36.893836      36.893836      36.893836    
    678000   0.67936585    -7.4260751     -6.4070408      6.7671324      50218.233      36.893836      36.893836      36.893836    
    679000   0.68058785    -7.4232315     -6.4023642      6.7780473      50218.233      36.893836      36.893836      36.893836    
    680000   0.68156957    -7.4288111     -6.4064712      6.7464835      50218.233      36.893836      36.893836      36.893836    
    681000   0.68155211    -7.4342658     -6.4119521      6.7060472      50218.233      36.893836      36.893836      36.893836    
    682000   0.67730482    -7.4310812     -6.4151385      6.7250118      50218.233      36.893836      36.893836      36.893836    
    683000   0.67923893    -7.4337004     -6.4148565      6.6976292      50218.233      36.893836      36.893836      36.893836    
    684000   0.67864049    -7.4298565     -6.4119102      6.7290091      50218.233      36.893836      36.893836      36.893836    
    685000   0.68295194    -7.4268966     -6.4024832      6.7666381      50218.233      36.893836      36.893836      36.893836    
    686000   0.68007202    -7.4304176     -6.410324       6.7221888      50218.233      36.893836      36.893836      36.893836    
    687000   0.68368186    -7.4326288     -6.4071206      6.7145827      50218.233      36.893836      36.893836      36.893836    
    688000   0.67613883    -7.4227371     -6.4085433      6.7850657      50218.233      36.893836      36.893836      36.893836    
    689000   0.6767        -7.42891       -6.4138745      6.7490736      50218.233      36.893836      36.893836      36.893836    
    690000   0.68007715    -7.4251367     -6.4050355      6.7625341      50218.233      36.893836      36.893836      36.893836    
    691000   0.67984845    -7.429608      -6.4098498      6.727762       50218.233      36.893836      36.893836      36.893836    
    692000   0.67881665    -7.4329135     -6.414703       6.7045998      50218.233      36.893836      36.893836      36.893836    
    693000   0.67693858    -7.4245901     -6.4091966      6.7634485      50218.233      36.893836      36.893836      36.893836    
    694000   0.68155332    -7.4278616     -6.4055461      6.7398373      50218.233      36.893836      36.893836      36.893836    
    695000   0.67985715    -7.429544      -6.4097728      6.733695       50218.233      36.893836      36.893836      36.893836    
    696000   0.68176342    -7.4290102     -6.4063796      6.730194       50218.233      36.893836      36.893836      36.893836    
    697000   0.67894675    -7.4272238     -6.4088182      6.7539335      50218.233      36.893836      36.893836      36.893836    
    698000   0.68152722    -7.4266488     -6.4043725      6.7647881      50218.233      36.893836      36.893836      36.893836    
    699000   0.67833827    -7.4312144     -6.4137215      6.7204371      50218.233      36.893836      36.893836      36.893836    
    700000   0.67865647    -7.426747      -6.4087768      6.7655187      50218.233      36.893836      36.893836      36.893836    
    701000   0.68092855    -7.4321655     -6.4107872      6.7126398      50218.233      36.893836      36.893836      36.893836    
    702000   0.68071942    -7.432391      -6.4113264      6.7265035      50218.233      36.893836      36.893836      36.893836    
    703000   0.67951822    -7.4307557     -6.4114929      6.7182262      50218.233      36.893836      36.893836      36.893836    
    704000   0.67976368    -7.4250565     -6.4054255      6.779735       50218.233      36.893836      36.893836      36.893836    
    705000   0.68118295    -7.4357384     -6.4139786      6.7100444      50218.233      36.893836      36.893836      36.893836    
    706000   0.67912826    -7.4333035     -6.4146256      6.710789       50218.233      36.893836      36.893836      36.893836    
    707000   0.68168951    -7.4298883     -6.4073686      6.7385796      50218.233      36.893836      36.893836      36.893836    
    708000   0.67781611    -7.4333083     -6.4165986      6.696883       50218.233      36.893836      36.893836      36.893836    
    709000   0.67909854    -7.4230405     -6.4044072      6.7916445      50218.233      36.893836      36.893836      36.893836    
    710000   0.67754726    -7.4284427     -6.4121362      6.7350833      50218.233      36.893836      36.893836      36.893836    
    711000   0.68173622    -7.4261063     -6.4035165      6.7707039      50218.233      36.893836      36.893836      36.893836    
    712000   0.67752144    -7.4250222     -6.4087545      6.7758806      50218.233      36.893836      36.893836      36.893836    
    713000   0.67746077    -7.4283453     -6.4121686      6.7484165      50218.233      36.893836      36.893836      36.893836    
    714000   0.68181543    -7.4237377     -6.4010291      6.7800704      50218.233      36.893836      36.893836      36.893836    
    715000   0.67828611    -7.4240077     -6.406593       6.7815036      50218.233      36.893836      36.893836      36.893836    
    716000   0.67997808    -7.42207       -6.4021174      6.7869433      50218.233      36.893836      36.893836      36.893836    
    717000   0.67900086    -7.4293918     -6.410905       6.7396098      50218.233      36.893836      36.893836      36.893836    
    718000   0.67853425    -7.4281068     -6.4103199      6.7485218      50218.233      36.893836      36.893836      36.893836    
    719000   0.68308061    -7.4259851     -6.4013787      6.7686168      50218.233      36.893836      36.893836      36.893836    
    720000   0.67797063    -7.4299667     -6.4130252      6.7242061      50218.233      36.893836      36.893836      36.893836    
    721000   0.67799418    -7.4214868     -6.40451        6.7962429      50218.233      36.893836      36.893836      36.893836    
    722000   0.6801772     -7.4230879     -6.4028366      6.7866589      50218.233      36.893836      36.893836      36.893836    
    723000   0.68378117    -7.4293786     -6.4037214      6.7272826      50218.233      36.893836      36.893836      36.893836    
    724000   0.67966485    -7.4280188     -6.4085361      6.7440766      50218.233      36.893836      36.893836      36.893836    
    725000   0.68105156    -7.4287207     -6.4071579      6.7436047      50218.233      36.893836      36.893836      36.893836    
    726000   0.68050263    -7.4295174     -6.408778       6.7464085      50218.233      36.893836      36.893836      36.893836    
    727000   0.68539885    -7.4272757     -6.399192       6.7638233      50218.233      36.893836      36.893836      36.893836    
    728000   0.68153464    -7.4247893     -6.4025019      6.7716325      50218.233      36.893836      36.893836      36.893836    
    729000   0.67957568    -7.4305778     -6.4112288      6.7294147      50218.233      36.893836      36.893836      36.893836    
    730000   0.68128585    -7.4289611     -6.4070468      6.7487206      50218.233      36.893836      36.893836      36.893836    
    731000   0.68085854    -7.4280835     -6.4068102      6.7523187      50218.233      36.893836      36.893836      36.893836    
    732000   0.67834931    -7.4276728     -6.4101633      6.7492502      50218.233      36.893836      36.893836      36.893836    
    733000   0.68012398    -7.4332899     -6.4131184      6.7065057      50218.233      36.893836      36.893836      36.893836    
    734000   0.68247571    -7.4217893     -6.3980903      6.792164       50218.233      36.893836      36.893836      36.893836    
    735000   0.68207565    -7.4279648     -6.4048659      6.7492866      50218.233      36.893836      36.893836      36.893836    
    736000   0.68009629    -7.4256674     -6.4055375      6.7630265      50218.233      36.893836      36.893836      36.893836    
    737000   0.68253129    -7.4330591     -6.4092767      6.7244961      50218.233      36.893836      36.893836      36.893836    
    738000   0.67805306    -7.425851      -6.4087859      6.767672       50218.233      36.893836      36.893836      36.893836    
    739000   0.67949287    -7.4356379     -6.4164131      6.6980471      50218.233      36.893836      36.893836      36.893836    
    740000   0.68000681    -7.4295449     -6.4095492      6.7518208      50218.233      36.893836      36.893836      36.893836    
    741000   0.67893196    -7.4228452     -6.4044618      6.7858512      50218.233      36.893836      36.893836      36.893836    
    742000   0.68073409    -7.4277504     -6.4066638      6.745894       50218.233      36.893836      36.893836      36.893836    
    743000   0.68324083    -7.426288      -6.4014413      6.7590378      50218.233      36.893836      36.893836      36.893836    
    744000   0.67838008    -7.4349806     -6.417425       6.6964727      50218.233      36.893836      36.893836      36.893836    
    745000   0.68287749    -7.4305002     -6.4061986      6.7362151      50218.233      36.893836      36.893836      36.893836    
    746000   0.6837808     -7.4343477     -6.4086911      6.7000824      50218.233      36.893836      36.893836      36.893836    
    747000   0.67963288    -7.4294277     -6.4099929      6.729199       50218.233      36.893836      36.893836      36.893836    
    748000   0.68290955    -7.4315072     -6.4071574      6.733952       50218.233      36.893836      36.893836      36.893836    
    749000   0.67934916    -7.4293074     -6.4102981      6.749229       50218.233      36.893836      36.893836      36.893836    
    750000   0.67889032    -7.4282142     -6.4098932      6.7443905      50218.233      36.893836      36.893836      36.893836    
    751000   0.68037468    -7.434542      -6.4139945      6.7019187      50218.233      36.893836      36.893836      36.893836    
    752000   0.67531375    -7.4254205     -6.4124643      6.7565156      50218.233      36.893836      36.893836      36.893836    
    753000   0.6772112     -7.4232768     -6.4074744      6.7763659      50218.233      36.893836      36.893836      36.893836    
    754000   0.67916139    -7.4218862     -6.4031586      6.7950376      50218.233      36.893836      36.893836      36.893836    
    755000   0.68030417    -7.4203607     -6.399919       6.8161044      50218.233      36.893836      36.893836      36.893836    
    756000   0.6841956     -7.4199335     -6.3936547      6.8245354      50218.233      36.893836      36.893836      36.893836    
    757000   0.68144266    -7.4218773     -6.3997278      6.7970104      50218.233      36.893836      36.893836      36.893836    
    758000   0.68500849    -7.4247878     -6.3972897      6.7781138      50218.233      36.893836      36.893836      36.893836    
    759000   0.67706375    -7.4275275     -6.4119463      6.7432702      50218.233      36.893836      36.893836      36.893836    
    760000   0.68251362    -7.4239898     -6.4002339      6.786346       50218.233      36.893836      36.893836      36.893836    
    761000   0.67950538    -7.4284023     -6.4091587      6.7495333      50218.233      36.893836      36.893836      36.893836    
    762000   0.68677558    -7.4226978     -6.3925491      6.7973124      50218.233      36.893836      36.893836      36.893836    
    763000   0.68112225    -7.4240866     -6.4024178      6.7941855      50218.233      36.893836      36.893836      36.893836    
    764000   0.67846356    -7.4325708     -6.4148899      6.7087078      50218.233      36.893836      36.893836      36.893836    
    765000   0.67701439    -7.424586      -6.4090789      6.7644335      50218.233      36.893836      36.893836      36.893836    
    766000   0.68156094    -7.4334211     -6.4110942      6.7142594      50218.233      36.893836      36.893836      36.893836    
    767000   0.67713743    -7.4279016     -6.4122099      6.7498021      50218.233      36.893836      36.893836      36.893836    
    768000   0.6812533     -7.4268146     -6.4049492      6.7662846      50218.233      36.893836      36.893836      36.893836    
    769000   0.6760025     -7.4295308     -6.4155414      6.7337434      50218.233      36.893836      36.893836      36.893836    
    770000   0.67541347    -7.4246593     -6.4115535      6.7698464      50218.233      36.893836      36.893836      36.893836    
    771000   0.68136751    -7.4303712     -6.4083345      6.7319924      50218.233      36.893836      36.893836      36.893836    
    772000   0.67635433    -7.4307844     -6.4162673      6.7237622      50218.233      36.893836      36.893836      36.893836    
    773000   0.68234045    -7.4288233     -6.4053272      6.7400998      50218.233      36.893836      36.893836      36.893836    
    774000   0.67915626    -7.4293887     -6.4106688      6.731441       50218.233      36.893836      36.893836      36.893836    
    775000   0.67860484    -7.4291928     -6.4113         6.7470553      50218.233      36.893836      36.893836      36.893836    
    776000   0.68402459    -7.4348817     -6.4088594      6.7087791      50218.233      36.893836      36.893836      36.893836    
    777000   0.68275493    -7.4282379     -6.4041201      6.7501819      50218.233      36.893836      36.893836      36.893836    
    778000   0.67765679    -7.4284109     -6.4119402      6.7371826      50218.233      36.893836      36.893836      36.893836    
    779000   0.67886742    -7.4284936     -6.4102069      6.7451448      50218.233      36.893836      36.893836      36.893836    
    780000   0.68100629    -7.422974      -6.4014791      6.7801439      50218.233      36.893836      36.893836      36.893836    
    781000   0.67602318    -7.4297156     -6.4156953      6.7226678      50218.233      36.893836      36.893836      36.893836    
    782000   0.67681361    -7.4242944     -6.4090884      6.7606571      50218.233      36.893836      36.893836      36.893836    
    783000   0.67987231    -7.430114      -6.4103201      6.7269548      50218.233      36.893836      36.893836      36.893836    
    784000   0.68169363    -7.4302021     -6.4076762      6.7272526      50218.233      36.893836      36.893836      36.893836    
    785000   0.67851012    -7.4272512     -6.4095005      6.7457614      50218.233      36.893836      36.893836      36.893836    
    786000   0.68024842    -7.4330825     -6.4127244      6.7060062      50218.233      36.893836      36.893836      36.893836    
    787000   0.68079458    -7.4327458     -6.4115684      6.7164974      50218.233      36.893836      36.893836      36.893836    
    788000   0.67809574    -7.4217601     -6.404631       6.8049055      50218.233      36.893836      36.893836      36.893836    
    789000   0.67832802    -7.4330693     -6.4155917      6.7092099      50218.233      36.893836      36.893836      36.893836    
    790000   0.68170323    -7.4272369     -6.4046966      6.7672248      50218.233      36.893836      36.893836      36.893836    
    791000   0.67844967    -7.4268601     -6.4092001      6.7612643      50218.233      36.893836      36.893836      36.893836    
    792000   0.68191382    -7.4272345     -6.4043783      6.7635755      50218.233      36.893836      36.893836      36.893836    
    793000   0.67475145    -7.429567      -6.4174543      6.7387522      50218.233      36.893836      36.893836      36.893836    
    794000   0.67557704    -7.4290859     -6.4157347      6.7315936      50218.233      36.893836      36.893836      36.893836    
    795000   0.68127166    -7.4297734     -6.4078805      6.7367591      50218.233      36.893836      36.893836      36.893836    
    796000   0.6818258     -7.4264209     -6.4036968      6.7687233      50218.233      36.893836      36.893836      36.893836    
    797000   0.67863782    -7.4277381     -6.4097958      6.7467765      50218.233      36.893836      36.893836      36.893836    
    798000   0.67795987    -7.4270722     -6.4101469      6.7502927      50218.233      36.893836      36.893836      36.893836    
    799000   0.68002092    -7.4222876     -6.4022708      6.7781345      50218.233      36.893836      36.893836      36.893836    
    800000   0.67739805    -7.4233889     -6.4073063      6.7827902      50218.233      36.893836      36.893836      36.893836    
    801000   0.68058935    -7.4265268     -6.4056572      6.7500725      50218.233      36.893836      36.893836      36.893836    
    802000   0.68016606    -7.4346867     -6.4144521      6.6967033      50218.233      36.893836      36.893836      36.893836    
    803000   0.68086406    -7.4278309     -6.4065493      6.7371304      50218.233      36.893836      36.893836      36.893836    
    804000   0.68120365    -7.4247696     -6.4029787      6.7794527      50218.233      36.893836      36.893836      36.893836    
    805000   0.68004484    -7.4299037     -6.409851       6.7403247      50218.233      36.893836      36.893836      36.893836    
    806000   0.68026437    -7.4320223     -6.4116403      6.7073231      50218.233      36.893836      36.893836      36.893836    
    807000   0.67923447    -7.4241905     -6.4053532      6.7767019      50218.233      36.893836      36.893836      36.893836    
    808000   0.67847473    -7.4279941     -6.4102965      6.7412452      50218.233      36.893836      36.893836      36.893836    
    809000   0.68159563    -7.4303328     -6.4079539      6.7406412      50218.233      36.893836      36.893836      36.893836    
    810000   0.67763543    -7.4247552     -6.4083165      6.7698611      50218.233      36.893836      36.893836      36.893836    
    811000   0.6801313     -7.4313818     -6.4111994      6.7063366      50218.233      36.893836      36.893836      36.893836    
    812000   0.67709834    -7.4253574     -6.4097243      6.7578403      50218.233      36.893836      36.893836      36.893836    
    813000   0.68053203    -7.423564      -6.4027805      6.7815407      50218.233      36.893836      36.893836      36.893836    
    814000   0.67952919    -7.4236039     -6.4043246      6.7775705      50218.233      36.893836      36.893836      36.893836    
    815000   0.68045099    -7.4308983     -6.4102363      6.7328742      50218.233      36.893836      36.893836      36.893836    
    816000   0.68099852    -7.4224374     -6.4009541      6.7900409      50218.233      36.893836      36.893836      36.893836    
    817000   0.68026805    -7.4274396     -6.407052       6.7458704      50218.233      36.893836      36.893836      36.893836    
    818000   0.68011937    -7.436991      -6.4168265      6.6827968      50218.233      36.893836      36.893836      36.893836    
    819000   0.67953065    -7.4282181     -6.4089366      6.7488658      50218.233      36.893836      36.893836      36.893836    
    820000   0.67789261    -7.4333817     -6.4165572      6.7001999      50218.233      36.893836      36.893836      36.893836    
    821000   0.67837397    -7.4311198     -6.4135733      6.7070297      50218.233      36.893836      36.893836      36.893836    
    822000   0.68283398    -7.4341619     -6.4099255      6.7147087      50218.233      36.893836      36.893836      36.893836    
    823000   0.68038871    -7.4237805     -6.4032119      6.7753024      50218.233      36.893836      36.893836      36.893836    
    824000   0.6762925     -7.4259915     -6.4115672      6.7525699      50218.233      36.893836      36.893836      36.893836    
    825000   0.67908086    -7.4276149     -6.4090081      6.7415015      50218.233      36.893836      36.893836      36.893836    
    826000   0.68237736    -7.4256164     -6.402065       6.7616766      50218.233      36.893836      36.893836      36.893836    
    827000   0.68260189    -7.4241459     -6.4002576      6.7754757      50218.233      36.893836      36.893836      36.893836    
    828000   0.68013456    -7.4249886     -6.4048013      6.7718901      50218.233      36.893836      36.893836      36.893836    
    829000   0.67827761    -7.4236207     -6.4062188      6.7749105      50218.233      36.893836      36.893836      36.893836    
    830000   0.68252641    -7.4276258     -6.4038507      6.7586789      50218.233      36.893836      36.893836      36.893836    
    831000   0.68110305    -7.4348481     -6.4132081      6.7032694      50218.233      36.893836      36.893836      36.893836    
    832000   0.67937035    -7.4295362     -6.4104952      6.7237899      50218.233      36.893836      36.893836      36.893836    
    833000   0.68132983    -7.4341615     -6.4121813      6.704337       50218.233      36.893836      36.893836      36.893836    
    834000   0.68147243    -7.4373953     -6.4152012      6.6796904      50218.233      36.893836      36.893836      36.893836    
    835000   0.67689935    -7.4304701     -6.4151355      6.706639       50218.233      36.893836      36.893836      36.893836    
    836000   0.67904907    -7.4382674     -6.4197083      6.6729755      50218.233      36.893836      36.893836      36.893836    
    837000   0.67814891    -7.4289962     -6.4117873      6.7299605      50218.233      36.893836      36.893836      36.893836    
    838000   0.67848637    -7.4276617     -6.4099466      6.7492329      50218.233      36.893836      36.893836      36.893836    
    839000   0.68393734    -7.4308468     -6.4049553      6.7310854      50218.233      36.893836      36.893836      36.893836    
    840000   0.67977519    -7.4344145     -6.4147663      6.7034647      50218.233      36.893836      36.893836      36.893836    
    841000   0.68082728    -7.4352225     -6.4139961      6.6983072      50218.233      36.893836      36.893836      36.893836    
    842000   0.68022477    -7.4326586     -6.412336       6.7207193      50218.233      36.893836      36.893836      36.893836    
    843000   0.68132989    -7.4332203     -6.41124        6.7184777      50218.233      36.893836      36.893836      36.893836    
    844000   0.67945071    -7.434554      -6.4153924      6.7026452      50218.233      36.893836      36.893836      36.893836    
    845000   0.67867726    -7.428681      -6.4106796      6.741171       50218.233      36.893836      36.893836      36.893836    
    846000   0.68194112    -7.4306045     -6.4077074      6.7410624      50218.233      36.893836      36.893836      36.893836    
    847000   0.68087922    -7.4310595     -6.4097552      6.7305316      50218.233      36.893836      36.893836      36.893836    
    848000   0.68038409    -7.4259982     -6.4054366      6.7693071      50218.233      36.893836      36.893836      36.893836    
    849000   0.68285227    -7.4276278     -6.4033639      6.7458896      50218.233      36.893836      36.893836      36.893836    
    850000   0.68020257    -7.4265775     -6.4062882      6.7630743      50218.233      36.893836      36.893836      36.893836    
    851000   0.6822183     -7.4339938     -6.4106809      6.7093389      50218.233      36.893836      36.893836      36.893836    
    852000   0.67720329    -7.4276997     -6.4119092      6.7557168      50218.233      36.893836      36.893836      36.893836    
    853000   0.68313245    -7.430182      -6.4054979      6.7401526      50218.233      36.893836      36.893836      36.893836    
    854000   0.68028942    -7.4241202     -6.4037006      6.7754083      50218.233      36.893836      36.893836      36.893836    
    855000   0.68152709    -7.4296812     -6.4074051      6.7320236      50218.233      36.893836      36.893836      36.893836    
    856000   0.6767493     -7.4254432     -6.4103337      6.7478034      50218.233      36.893836      36.893836      36.893836    
    857000   0.68251069    -7.4242396     -6.4004881      6.7910563      50218.233      36.893836      36.893836      36.893836    
    858000   0.68009608    -7.4248603     -6.4047307      6.7761283      50218.233      36.893836      36.893836      36.893836    
    859000   0.67971435    -7.4259638     -6.4064068      6.7699143      50218.233      36.893836      36.893836      36.893836    
    860000   0.67971301    -7.4316746     -6.4121196      6.7368314      50218.233      36.893836      36.893836      36.893836    
    861000   0.67676855    -7.4266595     -6.4115212      6.7605642      50218.233      36.893836      36.893836      36.893836    
    862000   0.67873888    -7.4209448     -6.402851       6.8077118      50218.233      36.893836      36.893836      36.893836    
    863000   0.67863985    -7.4239484     -6.4060031      6.7695634      50218.233      36.893836      36.893836      36.893836    
    864000   0.68008589    -7.4234612     -6.4033469      6.781578       50218.233      36.893836      36.893836      36.893836    
    865000   0.67789439    -7.4265169     -6.4096898      6.7381057      50218.233      36.893836      36.893836      36.893836    
    866000   0.67877912    -7.4273261     -6.4091719      6.7451673      50218.233      36.893836      36.893836      36.893836    
    867000   0.68178586    -7.4266625     -6.4039982      6.7476498      50218.233      36.893836      36.893836      36.893836    
    868000   0.68159789    -7.4305601     -6.4081778      6.7229581      50218.233      36.893836      36.893836      36.893836    
    869000   0.6825035     -7.4258123     -6.4020716      6.7611913      50218.233      36.893836      36.893836      36.893836    
    870000   0.67732045    -7.4206505     -6.4046843      6.7963912      50218.233      36.893836      36.893836      36.893836    
    871000   0.68232266    -7.4232742     -6.3998048      6.7873279      50218.233      36.893836      36.893836      36.893836    
    872000   0.67997694    -7.4264843     -6.4065334      6.7514277      50218.233      36.893836      36.893836      36.893836    
    873000   0.68123842    -7.4282532     -6.4064101      6.753351       50218.233      36.893836      36.893836      36.893836    
    874000   0.67972777    -7.4289601     -6.4093829      6.7471183      50218.233      36.893836      36.893836      36.893836    
    875000   0.68190024    -7.4275437     -6.4047079      6.7375832      50218.233      36.893836      36.893836      36.893836    
    876000   0.67776185    -7.4273306     -6.4107023      6.7572051      50218.233      36.893836      36.893836      36.893836    
    877000   0.68227788    -7.426401      -6.4029987      6.7674887      50218.233      36.893836      36.893836      36.893836    
    878000   0.67911161    -7.4265695     -6.4079166      6.7644771      50218.233      36.893836      36.893836      36.893836    
    879000   0.67927311    -7.4273188     -6.4084236      6.7492406      50218.233      36.893836      36.893836      36.893836    
    880000   0.68023431    -7.4250055     -6.4046685      6.7682201      50218.233      36.893836      36.893836      36.893836    
    881000   0.68128934    -7.4312248     -6.4093053      6.7122365      50218.233      36.893836      36.893836      36.893836    
    882000   0.68401185    -7.4302294     -6.4042262      6.7486326      50218.233      36.893836      36.893836      36.893836    
    883000   0.67920506    -7.4275496     -6.4087565      6.7485183      50218.233      36.893836      36.893836      36.893836    
    884000   0.6799504     -7.4316198     -6.4117087      6.7239957      50218.233      36.893836      36.893836      36.893836    
    885000   0.68058993    -7.432259      -6.4113886      6.7294816      50218.233      36.893836      36.893836      36.893836    
    886000   0.67940521    -7.4294648     -6.4103715      6.7431987      50218.233      36.893836      36.893836      36.893836    
    887000   0.67776262    -7.4259591     -6.4093296      6.7644894      50218.233      36.893836      36.893836      36.893836    
    888000   0.67895865    -7.4269934     -6.4085699      6.7417488      50218.233      36.893836      36.893836      36.893836    
    889000   0.6811699     -7.4260473     -6.404307       6.7684614      50218.233      36.893836      36.893836      36.893836    
    890000   0.68071072    -7.4350581     -6.4140066      6.7043338      50218.233      36.893836      36.893836      36.893836    
    891000   0.68399712    -7.429834      -6.4038529      6.7376279      50218.233      36.893836      36.893836      36.893836    
    892000   0.68169658    -7.4290662     -6.4065359      6.7607481      50218.233      36.893836      36.893836      36.893836    
    893000   0.67962641    -7.4263425     -6.4069174      6.7589597      50218.233      36.893836      36.893836      36.893836    
    894000   0.67977294    -7.4257615     -6.4061166      6.7635148      50218.233      36.893836      36.893836      36.893836    
    895000   0.68287579    -7.4258313     -6.4015321      6.7844824      50218.233      36.893836      36.893836      36.893836    
    896000   0.67635497    -7.4320194     -6.4175014      6.7242457      50218.233      36.893836      36.893836      36.893836    
    897000   0.67960345    -7.4271287     -6.4077381      6.7574204      50218.233      36.893836      36.893836      36.893836    
    898000   0.68258608    -7.4281471     -6.4042826      6.7494786      50218.233      36.893836      36.893836      36.893836    
    899000   0.68070239    -7.434636      -6.4135969      6.6970399      50218.233      36.893836      36.893836      36.893836    
    900000   0.68158266    -7.4270021     -6.4046427      6.7514685      50218.233      36.893836      36.893836      36.893836    
    901000   0.67974257    -7.4256361     -6.4060368      6.7640164      50218.233      36.893836      36.893836      36.893836    
    902000   0.67948987    -7.4290924     -6.4098721      6.7312334      50218.233      36.893836      36.893836      36.893836    
    903000   0.67820399    -7.432893      -6.4156015      6.6985873      50218.233      36.893836      36.893836      36.893836    
    904000   0.67936372    -7.4379858     -6.4189547      6.6704332      50218.233      36.893836      36.893836      36.893836    
    905000   0.68087326    -7.4363021     -6.4150067      6.6843377      50218.233      36.893836      36.893836      36.893836    
    906000   0.68070746    -7.428324      -6.4072773      6.740947       50218.233      36.893836      36.893836      36.893836    
    907000   0.68372119    -7.4292715     -6.4037043      6.7528589      50218.233      36.893836      36.893836      36.893836    
    908000   0.68119823    -7.4377175     -6.4159346      6.6664602      50218.233      36.893836      36.893836      36.893836    
    909000   0.68450922    -7.4283792     -6.40163        6.7468072      50218.233      36.893836      36.893836      36.893836    
    910000   0.680014      -7.423363      -6.4033565      6.7909798      50218.233      36.893836      36.893836      36.893836    
    911000   0.67689567    -7.4349201     -6.419591       6.6993528      50218.233      36.893836      36.893836      36.893836    
    912000   0.68121968    -7.4319282     -6.4101132      6.7231888      50218.233      36.893836      36.893836      36.893836    
    913000   0.67848515    -7.4312111     -6.4134978      6.7214707      50218.233      36.893836      36.893836      36.893836    
    914000   0.67984484    -7.4280298     -6.408277       6.7443618      50218.233      36.893836      36.893836      36.893836    
    915000   0.68136057    -7.4350842     -6.4130579      6.6859263      50218.233      36.893836      36.893836      36.893836    
    916000   0.68242112    -7.4361932     -6.412576       6.7097235      50218.233      36.893836      36.893836      36.893836    
    917000   0.67916352    -7.433464      -6.4147332      6.7045042      50218.233      36.893836      36.893836      36.893836    
    918000   0.68197685    -7.4293281     -6.4063774      6.7429251      50218.233      36.893836      36.893836      36.893836    
    919000   0.67893544    -7.4329667     -6.414578       6.6993789      50218.233      36.893836      36.893836      36.893836    
    920000   0.68066647    -7.4338478     -6.4128626      6.7184693      50218.233      36.893836      36.893836      36.893836    
    921000   0.67588193    -7.43001       -6.4162015      6.7223434      50218.233      36.893836      36.893836      36.893836    
    922000   0.67781404    -7.4311189     -6.4144123      6.7123878      50218.233      36.893836      36.893836      36.893836    
    923000   0.68062792    -7.4310531     -6.4101257      6.73267        50218.233      36.893836      36.893836      36.893836    
    924000   0.67848978    -7.4282505     -6.4105303      6.7453374      50218.233      36.893836      36.893836      36.893836    
    925000   0.67992809    -7.4292461     -6.4093685      6.7397021      50218.233      36.893836      36.893836      36.893836    
    926000   0.67996023    -7.4250865     -6.4051607      6.7704581      50218.233      36.893836      36.893836      36.893836    
    927000   0.68525324    -7.4258518     -6.3979866      6.7838876      50218.233      36.893836      36.893836      36.893836    
    928000   0.67901633    -7.4358177     -6.4173077      6.6791205      50218.233      36.893836      36.893836      36.893836    
    929000   0.68423308    -7.4309274     -6.4045924      6.7291835      50218.233      36.893836      36.893836      36.893836    
    930000   0.68112222    -7.4214358     -6.399767       6.7981082      50218.233      36.893836      36.893836      36.893836    
    931000   0.68158298    -7.4283932     -6.4060333      6.7427394      50218.233      36.893836      36.893836      36.893836    
    932000   0.68001458    -7.4274389     -6.4074316      6.7450568      50218.233      36.893836      36.893836      36.893836    
    933000   0.67844661    -7.4298464     -6.412191       6.7356847      50218.233      36.893836      36.893836      36.893836    
    934000   0.68000394    -7.4239722     -6.4039808      6.785987       50218.233      36.893836      36.893836      36.893836    
    935000   0.67817678    -7.429159      -6.4119083      6.7305394      50218.233      36.893836      36.893836      36.893836    
    936000   0.68112975    -7.4315518     -6.4098717      6.7170828      50218.233      36.893836      36.893836      36.893836    
    937000   0.67982393    -7.4264901     -6.4067687      6.7699535      50218.233      36.893836      36.893836      36.893836    
    938000   0.67966194    -7.4241668     -6.4046884      6.7773876      50218.233      36.893836      36.893836      36.893836    
    939000   0.67930471    -7.4265173     -6.4075747      6.7655302      50218.233      36.893836      36.893836      36.893836    
    940000   0.68104725    -7.4260661     -6.4045097      6.7649837      50218.233      36.893836      36.893836      36.893836    
    941000   0.67666807    -7.433465      -6.4184773      6.7125827      50218.233      36.893836      36.893836      36.893836    
    942000   0.67681609    -7.4306663     -6.4154566      6.7227404      50218.233      36.893836      36.893836      36.893836    
    943000   0.68074569    -7.4313943     -6.4102902      6.7287115      50218.233      36.893836      36.893836      36.893836    
    944000   0.67601668    -7.4319954     -6.4179848      6.7137082      50218.233      36.893836      36.893836      36.893836    
    945000   0.67987745    -7.4288604     -6.4090587      6.7556943      50218.233      36.893836      36.893836      36.893836    
    946000   0.67945856    -7.4307931     -6.4116197      6.7252294      50218.233      36.893836      36.893836      36.893836    
    947000   0.68336834    -7.4291328     -6.4040948      6.7499049      50218.233      36.893836      36.893836      36.893836    
    948000   0.67682314    -7.4286997     -6.4134795      6.7407534      50218.233      36.893836      36.893836      36.893836    
    949000   0.68104889    -7.4280103     -6.4064515      6.7485178      50218.233      36.893836      36.893836      36.893836    
    950000   0.68178195    -7.4333795     -6.4107211      6.7148329      50218.233      36.893836      36.893836      36.893836    
    951000   0.68338724    -7.4258376     -6.4007714      6.7674164      50218.233      36.893836      36.893836      36.893836    
    952000   0.68017645    -7.4274149     -6.4071647      6.7381825      50218.233      36.893836      36.893836      36.893836    
    953000   0.68316121    -7.4272504     -6.4025232      6.7621493      50218.233      36.893836      36.893836      36.893836    
    954000   0.68136035    -7.4347341     -6.4127081      6.694576       50218.233      36.893836      36.893836      36.893836    
    955000   0.68192603    -7.4300063     -6.4071318      6.7427826      50218.233      36.893836      36.893836      36.893836    
    956000   0.67946606    -7.4270219     -6.4078373      6.7556442      50218.233      36.893836      36.893836      36.893836    
    957000   0.68027887    -7.4299901     -6.4095863      6.7290368      50218.233      36.893836      36.893836      36.893836    
    958000   0.68454681    -7.4275993     -6.4007937      6.7571128      50218.233      36.893836      36.893836      36.893836    
    959000   0.68142154    -7.4286401     -6.4065223      6.7573912      50218.233      36.893836      36.893836      36.893836    
    960000   0.68404876    -7.4274073     -6.4013487      6.7701967      50218.233      36.893836      36.893836      36.893836    
    961000   0.68135329    -7.4266339     -6.4046185      6.7669772      50218.233      36.893836      36.893836      36.893836    
    962000   0.68003841    -7.4298421     -6.409799       6.7408604      50218.233      36.893836      36.893836      36.893836    
    963000   0.68195776    -7.424955      -6.4020329      6.7746443      50218.233      36.893836      36.893836      36.893836    
    964000   0.67712227    -7.4273613     -6.4116924      6.7438019      50218.233      36.893836      36.893836      36.893836    
    965000   0.68129699    -7.4290422     -6.4071112      6.7509119      50218.233      36.893836      36.893836      36.893836    
    966000   0.68153702    -7.4237361     -6.4014451      6.7837535      50218.233      36.893836      36.893836      36.893836    
    967000   0.67980594    -7.426643      -6.4069486      6.7537591      50218.233      36.893836      36.893836      36.893836    
    968000   0.67965961    -7.4296091     -6.4101342      6.7313435      50218.233      36.893836      36.893836      36.893836    
    969000   0.67877411    -7.434256      -6.4161094      6.6950304      50218.233      36.893836      36.893836      36.893836    
    970000   0.6802286     -7.4266217     -6.4062934      6.7604032      50218.233      36.893836      36.893836      36.893836    
    971000   0.67696281    -7.43485       -6.4194202      6.7030404      50218.233      36.893836      36.893836      36.893836    
    972000   0.68342531    -7.4228106     -6.3976872      6.7959536      50218.233      36.893836      36.893836      36.893836    
    973000   0.67694213    -7.4287899     -6.4133912      6.7511553      50218.233      36.893836      36.893836      36.893836    
    974000   0.68043078    -7.430502      -6.4098704      6.7413823      50218.233      36.893836      36.893836      36.893836    
    975000   0.67704564    -7.4185452     -6.4029911      6.8103283      50218.233      36.893836      36.893836      36.893836    
    976000   0.67670028    -7.4312443     -6.4162083      6.7205007      50218.233      36.893836      36.893836      36.893836    
    977000   0.68048803    -7.4285234     -6.4078059      6.7368325      50218.233      36.893836      36.893836      36.893836    
    978000   0.68292669    -7.4250967     -6.4007212      6.7599845      50218.233      36.893836      36.893836      36.893836    
    979000   0.68209377    -7.4331803     -6.4100542      6.703          50218.233      36.893836      36.893836      36.893836    
    980000   0.68267227    -7.4302921     -6.4062983      6.7246219      50218.233      36.893836      36.893836      36.893836    
    981000   0.67921341    -7.4316668     -6.4128612      6.7126501      50218.233      36.893836      36.893836      36.893836    
    982000   0.68231194    -7.4319307     -6.4084773      6.7235124      50218.233      36.893836      36.893836      36.893836    
    983000   0.67758243    -7.4290838     -6.4127246      6.7342323      50218.233      36.893836      36.893836      36.893836    
    984000   0.68035034    -7.4286266     -6.4081156      6.7427143      50218.233      36.893836      36.893836      36.893836    
    985000   0.67880345    -7.4282232     -6.4100326      6.7455713      50218.233      36.893836      36.893836      36.893836    
    986000   0.67717254    -7.4300978     -6.4143535      6.7222709      50218.233      36.893836      36.893836      36.893836    
    987000   0.67762696    -7.4321593     -6.4157333      6.7159573      50218.233      36.893836      36.893836      36.893836    
    988000   0.67927497    -7.4266614     -6.4077634      6.7516266      50218.233      36.893836      36.893836      36.893836    
    989000   0.68019369    -7.4333777     -6.4131017      6.7086103      50218.233      36.893836      36.893836      36.893836    
    990000   0.68007024    -7.4253973     -6.4053064      6.7734363      50218.233      36.893836      36.893836      36.893836    
    991000   0.68049427    -7.4273895     -6.4066626      6.7575         50218.233      36.893836      36.893836      36.893836    
    992000   0.67864853    -7.4308679     -6.4129095      6.7295407      50218.233      36.893836      36.893836      36.893836    
    993000   0.67912225    -7.4244352     -6.4057663      6.7837658      50218.233      36.893836      36.893836      36.893836    
    994000   0.68040179    -7.4300478     -6.4094597      6.7404189      50218.233      36.893836      36.893836      36.893836    
    995000   0.67804745    -7.4245727     -6.407516       6.7733418      50218.233      36.893836      36.893836      36.893836    
    996000   0.67953133    -7.4271406     -6.4078581      6.7619617      50218.233      36.893836      36.893836      36.893836    
    997000   0.67787687    -7.4274829     -6.4106821      6.7590716      50218.233      36.893836      36.893836      36.893836    
    998000   0.67999183    -7.4318302     -6.411857       6.7272524      50218.233      36.893836      36.893836      36.893836    
    999000   0.68011238    -7.4277774     -6.4076234      6.7576745      50218.233      36.893836      36.893836      36.893836    
   1000000   0.68130679    -7.4276608     -6.4057152      6.76092        50218.233      36.893836      36.893836      36.893836    
Loop time of 1666.32 on 5 procs for 1000000 steps with 70304 atoms

Performance: 518507.058 tau/day, 600.124 timesteps/s, 42.191 Matom-step/s
94.8% CPU use with 5 MPI tasks x 1 OpenMP threads

MPI task timing breakdown:
Section |  min time  |  avg time  |  max time  |%varavg| %total
---------------------------------------------------------------
Pair    | 603.76     | 675.56     | 758.64     | 210.1 | 40.54
Neigh   | 6.1295     | 6.3539     | 6.5724     |   6.8 |  0.38
Comm    | 253.44     | 256.24     | 258.48     |  10.3 | 15.38
Output  | 0.17977    | 0.18892    | 0.20973    |   2.5 |  0.01
Modify  | 557.41     | 642.82     | 717.93     | 223.1 | 38.58
Other   |            | 85.16      |            |       |  5.11

Nlocal:        14060.8 ave       14084 max       14016 min
Histogram: 1 0 0 0 1 0 0 0 0 3
Nghost:        18697.8 ave       18747 max       18630 min
Histogram: 1 0 0 0 1 0 0 2 0 1
Neighs:              0 ave           0 max           0 min
Histogram: 5 0 0 0 0 0 0 0 0 0

Total # of neighbors = 0
Ave neighs/atom = 0
Neighbor list builds = 249660
Dangerous builds = 0
clear
OMP_NUM_THREADS environment is not set. Defaulting to 1 thread. (src/comm.cpp:98)
  using 1 OpenMP thread(s) per MPI task
package gpu 0
jump dms660.lmp

variable T equal 660
# T = 1000* (temp in LJ unit)
variable f equal 1000
log log.${T}
log log.660
