variable TLJ equal (${T}/1000)
variable TLJ equal (525/1000)
variable NCyle equal 10
variable iStep equal (${f})
variable iStep equal (1000)
variable dumpStep equal (${f}*100)
variable dumpStep equal (1000*100)
variable runStep equal (${f}*100*${NCyle})
variable runStep equal (1000*100*${NCyle})
variable runStep equal (1000*100*10)

units       lj
atom_style  atomic
dimension 3
boundary     p p p
pair_style  lj/cut 2.5
read_data  ../data/T${T}.dat
read_data  ../data/T525.dat
Reading data file ...
  orthogonal box = (0.97250269 0.97250269 0.97250269) to (37.866338 37.866338 37.866338)
  1 by 1 by 1 MPI processor grid
  reading atoms ...
  70304 atoms
  reading velocities ...
  70304 velocities
  read_data CPU = 0.224 seconds
change_box all triclinic
Changing box ...
  triclinic box = (0.97250269 0.97250269 0.97250269) to (37.866338 37.866338 37.866338) with tilt (0 0 0)
mass 1 1
mass 2 1
pair_modify shift yes
pair_coeff  1 1 1 1
pair_coeff  1 2 1.5 0.8
pair_coeff  2 2 0.5 0.88


timestep 0.01
thermo ${iStep}
thermo 1000
reset_timestep 0
thermo_style custom step temp pe etotal press vol lx ly lz
fix             1 all nvt temp ${TLJ}  ${TLJ}  0.1
fix             1 all nvt temp 0.525  ${TLJ}  0.1
fix             1 all nvt temp 0.525  0.525  0.1
thermo_modify flush yes

fix dsf all deform 1 xy  wiggle 0.5  ${f}   units box
fix dsf all deform 1 xy  wiggle 0.5  1000   units box
fix ps1 all ave/time 1 1 ${iStep} c_thermo_press[1] c_thermo_press[2]  c_thermo_press[3] c_thermo_press[4]  c_thermo_press[5] c_thermo_press[6]  file  stress.${T}
fix ps1 all ave/time 1 1 1000 c_thermo_press[1] c_thermo_press[2]  c_thermo_press[3] c_thermo_press[4]  c_thermo_press[5] c_thermo_press[6]  file  stress.${T}
fix ps1 all ave/time 1 1 1000 c_thermo_press[1] c_thermo_press[2]  c_thermo_press[3] c_thermo_press[4]  c_thermo_press[5] c_thermo_press[6]  file  stress.525
dump            1 all custom ${dumpStep} dump.${T} id type x y z
dump            1 all custom 100000 dump.${T} id type x y z
dump            1 all custom 100000 dump.525 id type x y z
dump_modify 1 sort id
fix nodrift all momentum 1  linear 1 1 1
fix com_seed all recenter INIT INIT INIT shift all
run ${runStep}
run 1000000
Generated 0 of 1 mixed pair_coeff terms from geometric mixing rule
Per MPI rank memory allocation (min/avg/max) = 21.18 | 21.18 | 21.18 Mbytes
   Step          Temp          PotEng         TotEng         Press          Volume           Lx             Ly             Lz      
         0   0.52697334    -7.7725012     -6.9820525      4.0039623      50218.233      36.893836      36.893836      36.893836    
      1000   0.52433574    -7.7600814     -6.973589       4.0941424      50218.233      36.893836      36.893836      36.893836    
      2000   0.52526566    -7.761833      -6.9739457      4.0866702      50218.233      36.893836      36.893836      36.893836    
      3000   0.52303944    -7.7674206     -6.9828726      4.0282465      50218.233      36.893836      36.893836      36.893836    
      4000   0.52555632    -7.7673202     -6.978997       4.0305138      50218.233      36.893836      36.893836      36.893836    
      5000   0.52477638    -7.7598724     -6.972719       4.0905403      50218.233      36.893836      36.893836      36.893836    
      6000   0.52307219    -7.7614244     -6.9768273      4.0852737      50218.233      36.893836      36.893836      36.893836    
      7000   0.52391351    -7.7585075     -6.9726484      4.0993473      50218.233      36.893836      36.893836      36.893836    
      8000   0.52507682    -7.7601504     -6.9725463      4.0913081      50218.233      36.893836      36.893836      36.893836    
      9000   0.52544821    -7.7553921     -6.967231       4.1294198      50218.233      36.893836      36.893836      36.893836    
     10000   0.52603589    -7.759995      -6.9709524      4.1078586      50218.233      36.893836      36.893836      36.893836    
     11000   0.52109112    -7.7640907     -6.9824652      4.050187       50218.233      36.893836      36.893836      36.893836    
     12000   0.52442787    -7.7621092     -6.9754786      4.0729345      50218.233      36.893836      36.893836      36.893836    
     13000   0.52540501    -7.7621363     -6.97404        4.0864492      50218.233      36.893836      36.893836      36.893836    
     14000   0.52638847    -7.7622462     -6.9726747      4.0932795      50218.233      36.893836      36.893836      36.893836    
     15000   0.52316917    -7.7622795     -6.9775369      4.0803039      50218.233      36.893836      36.893836      36.893836    
     16000   0.52727182    -7.7578204     -6.9669239      4.1090202      50218.233      36.893836      36.893836      36.893836    
     17000   0.52414825    -7.758772      -6.9725608      4.0950278      50218.233      36.893836      36.893836      36.893836    
     18000   0.52443602    -7.7607909     -6.9741481      4.0871605      50218.233      36.893836      36.893836      36.893836    
     19000   0.52420873    -7.7638526     -6.9775507      4.0720255      50218.233      36.893836      36.893836      36.893836    
     20000   0.52549332    -7.7584576     -6.9702289      4.1055643      50218.233      36.893836      36.893836      36.893836    
     21000   0.52392335    -7.7600285     -6.9741547      4.0995609      50218.233      36.893836      36.893836      36.893836    
     22000   0.52422129    -7.7658421     -6.9795214      4.0417569      50218.233      36.893836      36.893836      36.893836    
     23000   0.52482726    -7.7623621     -6.9751324      4.0797675      50218.233      36.893836      36.893836      36.893836    
     24000   0.52643893    -7.764014      -6.9743668      4.0659973      50218.233      36.893836      36.893836      36.893836    
     25000   0.52730182    -7.7636165     -6.972675       4.0775527      50218.233      36.893836      36.893836      36.893836    
     26000   0.52613189    -7.7615865     -6.9723999      4.082993       50218.233      36.893836      36.893836      36.893836    
     27000   0.52237996    -7.7601942     -6.9766354      4.0885657      50218.233      36.893836      36.893836      36.893836    
     28000   0.52494055    -7.7592419     -6.9718423      4.0925098      50218.233      36.893836      36.893836      36.893836    
     29000   0.52641784    -7.762674      -6.9730584      4.0799955      50218.233      36.893836      36.893836      36.893836    
     30000   0.521387      -7.7593013     -6.9772319      4.0906116      50218.233      36.893836      36.893836      36.893836    
     31000   0.52405849    -7.7559051     -6.9698285      4.1255923      50218.233      36.893836      36.893836      36.893836    
     32000   0.52557623    -7.761736      -6.9733828      4.0907721      50218.233      36.893836      36.893836      36.893836    
     33000   0.52725699    -7.7578278     -6.9669535      4.1071027      50218.233      36.893836      36.893836      36.893836    
     34000   0.52364162    -7.7595715     -6.9741203      4.1074292      50218.233      36.893836      36.893836      36.893836    
     35000   0.52142067    -7.7574491     -6.9753292      4.1141277      50218.233      36.893836      36.893836      36.893836    
     36000   0.52685206    -7.7631703     -6.9729034      4.0835034      50218.233      36.893836      36.893836      36.893836    
     37000   0.52574014    -7.7648893     -6.9762903      4.0759831      50218.233      36.893836      36.893836      36.893836    
     38000   0.52845456    -7.7635718     -6.9709012      4.0767405      50218.233      36.893836      36.893836      36.893836    
     39000   0.5273528     -7.7659564     -6.9749384      4.0689971      50218.233      36.893836      36.893836      36.893836    
     40000   0.52360722    -7.7602813     -6.9748816      4.0996678      50218.233      36.893836      36.893836      36.893836    
     41000   0.52582391    -7.7605068     -6.9717822      4.1026737      50218.233      36.893836      36.893836      36.893836    
     42000   0.52469267    -7.7618368     -6.974809       4.0835075      50218.233      36.893836      36.893836      36.893836    
     43000   0.52520181    -7.7644085     -6.9766169      4.0701084      50218.233      36.893836      36.893836      36.893836    
     44000   0.52313034    -7.7643842     -6.9796998      4.0637729      50218.233      36.893836      36.893836      36.893836    
     45000   0.52445003    -7.7620101     -6.9753463      4.08703        50218.233      36.893836      36.893836      36.893836    
     46000   0.52330454    -7.7628358     -6.9778902      4.0767928      50218.233      36.893836      36.893836      36.893836    
     47000   0.52674898    -7.7628635     -6.9727513      4.0906906      50218.233      36.893836      36.893836      36.893836    
     48000   0.52571982    -7.7600663     -6.9714978      4.0942786      50218.233      36.893836      36.893836      36.893836    
     49000   0.52788968    -7.7590322     -6.9672089      4.1218377      50218.233      36.893836      36.893836      36.893836    
     50000   0.52638187    -7.7567361     -6.9671745      4.1393107      50218.233      36.893836      36.893836      36.893836    
     51000   0.52541142    -7.7591698     -6.9710639      4.1165141      50218.233      36.893836      36.893836      36.893836    
     52000   0.52586625    -7.7604973     -6.9717092      4.096877       50218.233      36.893836      36.893836      36.893836    
     53000   0.52598783    -7.7579072     -6.9689367      4.1200276      50218.233      36.893836      36.893836      36.893836    
     54000   0.52395914    -7.7583136     -6.972386       4.1207484      50218.233      36.893836      36.893836      36.893836    
     55000   0.52655341    -7.7594184     -6.9695995      4.1125515      50218.233      36.893836      36.893836      36.893836    
     56000   0.5259196     -7.761096      -6.9722278      4.1011561      50218.233      36.893836      36.893836      36.893836    
     57000   0.52181406    -7.7612157     -6.9785057      4.0819745      50218.233      36.893836      36.893836      36.893836    
     58000   0.5228681     -7.7610618     -6.9767708      4.0824274      50218.233      36.893836      36.893836      36.893836    
     59000   0.52274638    -7.7597185     -6.9756101      4.1037252      50218.233      36.893836      36.893836      36.893836    
     60000   0.52464848    -7.7568269     -6.9698654      4.1230592      50218.233      36.893836      36.893836      36.893836    
     61000   0.52770484    -7.7630125     -6.9714665      4.086572       50218.233      36.893836      36.893836      36.893836    
     62000   0.52564846    -7.7619947     -6.9735332      4.0930237      50218.233      36.893836      36.893836      36.893836    
     63000   0.52700971    -7.7610255     -6.9705222      4.088611       50218.233      36.893836      36.893836      36.893836    
     64000   0.52437931    -7.7589731     -6.9724153      4.101901       50218.233      36.893836      36.893836      36.893836    
     65000   0.52440097    -7.7616533     -6.975063       4.0910892      50218.233      36.893836      36.893836      36.893836    
     66000   0.52532262    -7.7612969     -6.9733242      4.0775218      50218.233      36.893836      36.893836      36.893836    
     67000   0.52508975    -7.7625331     -6.9749097      4.0888288      50218.233      36.893836      36.893836      36.893836    
     68000   0.52286162    -7.7602165     -6.9759352      4.107587       50218.233      36.893836      36.893836      36.893836    
     69000   0.52498707    -7.7646205     -6.9771511      4.0521435      50218.233      36.893836      36.893836      36.893836    
     70000   0.52237312    -7.75991       -6.9763614      4.0953022      50218.233      36.893836      36.893836      36.893836    
     71000   0.52445527    -7.7647529     -6.9780812      4.0578512      50218.233      36.893836      36.893836      36.893836    
     72000   0.52662107    -7.7602363     -6.9703159      4.1004867      50218.233      36.893836      36.893836      36.893836    
     73000   0.52436913    -7.7593857     -6.9728432      4.0915067      50218.233      36.893836      36.893836      36.893836    
     74000   0.52279863    -7.7610128     -6.976826       4.0892584      50218.233      36.893836      36.893836      36.893836    
     75000   0.52604001    -7.7603333     -6.9712845      4.0895482      50218.233      36.893836      36.893836      36.893836    
     76000   0.52451391    -7.7603525     -6.9735928      4.0819903      50218.233      36.893836      36.893836      36.893836    
     77000   0.52610487    -7.7618198     -6.9726737      4.086332       50218.233      36.893836      36.893836      36.893836    
     78000   0.52794535    -7.7575774     -6.9656706      4.1168005      50218.233      36.893836      36.893836      36.893836    
     79000   0.52808838    -7.7599485     -6.9678272      4.1020657      50218.233      36.893836      36.893836      36.893836    
     80000   0.52361861    -7.762349      -6.9769322      4.070909       50218.233      36.893836      36.893836      36.893836    
     81000   0.52584783    -7.7624696     -6.973709       4.0743417      50218.233      36.893836      36.893836      36.893836    
     82000   0.52527784    -7.7585964     -6.9706909      4.1109606      50218.233      36.893836      36.893836      36.893836    
     83000   0.52700867    -7.7532383     -6.9627365      4.1554915      50218.233      36.893836      36.893836      36.893836    
     84000   0.52352239    -7.7579311     -6.9726587      4.1109699      50218.233      36.893836      36.893836      36.893836    
     85000   0.52493691    -7.7618485     -6.9744544      4.0797528      50218.233      36.893836      36.893836      36.893836    
     86000   0.52611515    -7.756634      -6.9674725      4.1164208      50218.233      36.893836      36.893836      36.893836    
     87000   0.52493105    -7.7596094     -6.9722241      4.1070086      50218.233      36.893836      36.893836      36.893836    
     88000   0.52394025    -7.7612245     -6.9753253      4.0865825      50218.233      36.893836      36.893836      36.893836    
     89000   0.52531565    -7.7622378     -6.9742755      4.0774747      50218.233      36.893836      36.893836      36.893836    
     90000   0.5282174     -7.760646      -6.9683311      4.0843697      50218.233      36.893836      36.893836      36.893836    
     91000   0.52450608    -7.7556797     -6.9689318      4.1296559      50218.233      36.893836      36.893836      36.893836    
     92000   0.52328329    -7.7645485     -6.9796348      4.0587844      50218.233      36.893836      36.893836      36.893836    
     93000   0.52600855    -7.759377      -6.9703754      4.1052047      50218.233      36.893836      36.893836      36.893836    
     94000   0.52456433    -7.7629342     -6.9760989      4.0765348      50218.233      36.893836      36.893836      36.893836    
     95000   0.52540548    -7.7670473     -6.9789503      4.0467462      50218.233      36.893836      36.893836      36.893836    
     96000   0.525158      -7.7630782     -6.9753524      4.0668752      50218.233      36.893836      36.893836      36.893836    
     97000   0.52385186    -7.7623038     -6.9765372      4.0771002      50218.233      36.893836      36.893836      36.893836    
     98000   0.52735535    -7.7643149     -6.9732932      4.0685313      50218.233      36.893836      36.893836      36.893836    
     99000   0.52791278    -7.7622023     -6.9703444      4.0932697      50218.233      36.893836      36.893836      36.893836    
    100000   0.5260582     -7.7629561     -6.97388        4.0744625      50218.233      36.893836      36.893836      36.893836    
    101000   0.52675011    -7.7602574     -6.9701435      4.1003661      50218.233      36.893836      36.893836      36.893836    
    102000   0.52523899    -7.7633264     -6.9754792      4.0832743      50218.233      36.893836      36.893836      36.893836    
    103000   0.52560199    -7.7650346     -6.9766429      4.0529488      50218.233      36.893836      36.893836      36.893836    
    104000   0.52437799    -7.7623266     -6.9757708      4.0864816      50218.233      36.893836      36.893836      36.893836    
    105000   0.524961      -7.7599383     -6.972508       4.0978126      50218.233      36.893836      36.893836      36.893836    
    106000   0.52612893    -7.7640762     -6.9748941      4.0737651      50218.233      36.893836      36.893836      36.893836    
    107000   0.52388859    -7.7607451     -6.9749234      4.0886173      50218.233      36.893836      36.893836      36.893836    
    108000   0.52314804    -7.7619341     -6.9772232      4.0915061      50218.233      36.893836      36.893836      36.893836    
    109000   0.52616338    -7.7611044     -6.9718705      4.09705        50218.233      36.893836      36.893836      36.893836    
    110000   0.52307756    -7.7596831     -6.9750779      4.0971001      50218.233      36.893836      36.893836      36.893836    
    111000   0.52345541    -7.7586394     -6.9734674      4.1011254      50218.233      36.893836      36.893836      36.893836    
    112000   0.52184932    -7.7614754     -6.9787126      4.0851326      50218.233      36.893836      36.893836      36.893836    
    113000   0.52592664    -7.7537228     -6.9648441      4.146456       50218.233      36.893836      36.893836      36.893836    
    114000   0.52436222    -7.7564784     -6.9699462      4.1238182      50218.233      36.893836      36.893836      36.893836    
    115000   0.52499238    -7.7609666     -6.9734892      4.08637        50218.233      36.893836      36.893836      36.893836    
    116000   0.5261876     -7.7586549     -6.9693847      4.1036066      50218.233      36.893836      36.893836      36.893836    
    117000   0.52496522    -7.7586762     -6.9712395      4.1011626      50218.233      36.893836      36.893836      36.893836    
    118000   0.52308495    -7.7635885     -6.9789722      4.0643842      50218.233      36.893836      36.893836      36.893836    
    119000   0.52707073    -7.7604512     -6.9698563      4.1005619      50218.233      36.893836      36.893836      36.893836    
    120000   0.52576736    -7.759482      -6.9708422      4.1123859      50218.233      36.893836      36.893836      36.893836    
    121000   0.52365757    -7.7615451     -6.9760699      4.0889508      50218.233      36.893836      36.893836      36.893836    
    122000   0.52253225    -7.7628119     -6.9790247      4.0687275      50218.233      36.893836      36.893836      36.893836    
    123000   0.52550333    -7.7566962     -6.9684524      4.1243376      50218.233      36.893836      36.893836      36.893836    
    124000   0.52425592    -7.7580702     -6.9716975      4.1105202      50218.233      36.893836      36.893836      36.893836    
    125000   0.52352293    -7.7621334     -6.9768602      4.0939314      50218.233      36.893836      36.893836      36.893836    
    126000   0.52580228    -7.7581246     -6.9694324      4.1205998      50218.233      36.893836      36.893836      36.893836    
    127000   0.52495053    -7.7603439     -6.9729293      4.1027157      50218.233      36.893836      36.893836      36.893836    
    128000   0.52635733    -7.7589427     -6.9694179      4.0993966      50218.233      36.893836      36.893836      36.893836    
    129000   0.52775908    -7.7604105     -6.9687831      4.0994829      50218.233      36.893836      36.893836      36.893836    
    130000   0.52411651    -7.7625848     -6.9764212      4.0734115      50218.233      36.893836      36.893836      36.893836    
    131000   0.52429677    -7.7604158     -6.9739818      4.0977461      50218.233      36.893836      36.893836      36.893836    
    132000   0.52553779    -7.7614739     -6.9731784      4.0993446      50218.233      36.893836      36.893836      36.893836    
    133000   0.52483715    -7.7651716     -6.9779271      4.0665581      50218.233      36.893836      36.893836      36.893836    
    134000   0.52560775    -7.7637868     -6.9753864      4.0724164      50218.233      36.893836      36.893836      36.893836    
    135000   0.52710659    -7.7614965     -6.9708478      4.0858995      50218.233      36.893836      36.893836      36.893836    
    136000   0.52453812    -7.7621214     -6.9753254      4.0798147      50218.233      36.893836      36.893836      36.893836    
    137000   0.52463076    -7.7561786     -6.9692437      4.1253542      50218.233      36.893836      36.893836      36.893836    
    138000   0.52596841    -7.7608823     -6.9719409      4.1021932      50218.233      36.893836      36.893836      36.893836    
    139000   0.52273022    -7.7569926     -6.9729084      4.1189378      50218.233      36.893836      36.893836      36.893836    
    140000   0.52755111    -7.7585765     -6.967261       4.1099821      50218.233      36.893836      36.893836      36.893836    
    141000   0.52758228    -7.7641695     -6.9728074      4.0694694      50218.233      36.893836      36.893836      36.893836    
    142000   0.5246024     -7.7572837     -6.9703913      4.1197633      50218.233      36.893836      36.893836      36.893836    
    143000   0.52439542    -7.7579237     -6.9713418      4.106966       50218.233      36.893836      36.893836      36.893836    
    144000   0.52652894    -7.7571326     -6.9673504      4.1211584      50218.233      36.893836      36.893836      36.893836    
    145000   0.52457049    -7.7573262     -6.9704817      4.1187844      50218.233      36.893836      36.893836      36.893836    
    146000   0.52441607    -7.7575967     -6.9709838      4.118868       50218.233      36.893836      36.893836      36.893836    
    147000   0.52434016    -7.7580258     -6.9715268      4.1051308      50218.233      36.893836      36.893836      36.893836    
    148000   0.52408488    -7.7568202     -6.9707041      4.1227696      50218.233      36.893836      36.893836      36.893836    
    149000   0.52546759    -7.759737      -6.9715468      4.0958406      50218.233      36.893836      36.893836      36.893836    
    150000   0.52676117    -7.7576994     -6.9675689      4.1175682      50218.233      36.893836      36.893836      36.893836    
    151000   0.52615794    -7.7583135     -6.9690878      4.1039077      50218.233      36.893836      36.893836      36.893836    
    152000   0.5260911     -7.7562774     -6.9671519      4.1356918      50218.233      36.893836      36.893836      36.893836    
    153000   0.52442541    -7.756059      -6.9694321      4.1171552      50218.233      36.893836      36.893836      36.893836    
    154000   0.52311236    -7.7554644     -6.970807       4.1289977      50218.233      36.893836      36.893836      36.893836    
    155000   0.52148462    -7.7609481     -6.9787323      4.0770284      50218.233      36.893836      36.893836      36.893836    
    156000   0.52631618    -7.7585997     -6.9691367      4.1094277      50218.233      36.893836      36.893836      36.893836    
    157000   0.52337187    -7.7608656     -6.975819       4.0744799      50218.233      36.893836      36.893836      36.893836    
    158000   0.52433495    -7.7584482     -6.971957       4.1048941      50218.233      36.893836      36.893836      36.893836    
    159000   0.52566635    -7.7575617     -6.9690733      4.1189578      50218.233      36.893836      36.893836      36.893836    
    160000   0.52944907    -7.7631185     -6.9689562      4.0786825      50218.233      36.893836      36.893836      36.893836    
    161000   0.5261819     -7.7597415     -6.9704799      4.1004188      50218.233      36.893836      36.893836      36.893836    
    162000   0.52233195    -7.7551077     -6.9716209      4.124684       50218.233      36.893836      36.893836      36.893836    
    163000   0.52436599    -7.7567868     -6.9702491      4.1286984      50218.233      36.893836      36.893836      36.893836    
    164000   0.52582707    -7.7586741     -6.9699447      4.1143363      50218.233      36.893836      36.893836      36.893836    
    165000   0.52650094    -7.7549645     -6.9652243      4.1413005      50218.233      36.893836      36.893836      36.893836    
    166000   0.52654638    -7.7557082     -6.9658998      4.1250395      50218.233      36.893836      36.893836      36.893836    
    167000   0.52276901    -7.756276      -6.9721336      4.1138451      50218.233      36.893836      36.893836      36.893836    
    168000   0.52341952    -7.7601633     -6.9750451      4.1023042      50218.233      36.893836      36.893836      36.893836    
    169000   0.52609682    -7.7634287     -6.9742947      4.075034       50218.233      36.893836      36.893836      36.893836    
    170000   0.52500203    -7.7603618     -6.97287        4.0987721      50218.233      36.893836      36.893836      36.893836    
    171000   0.52833769    -7.7559409     -6.9634456      4.1331549      50218.233      36.893836      36.893836      36.893836    
    172000   0.52672092    -7.7572141     -6.9671439      4.1328937      50218.233      36.893836      36.893836      36.893836    
    173000   0.5254445     -7.7588872     -6.9707316      4.1049197      50218.233      36.893836      36.893836      36.893836    
    174000   0.52633668    -7.7599596     -6.9704658      4.0876541      50218.233      36.893836      36.893836      36.893836    
    175000   0.5251247     -7.7574623     -6.9697865      4.1151709      50218.233      36.893836      36.893836      36.893836    
    176000   0.52612101    -7.7619182     -6.9727479      4.0782889      50218.233      36.893836      36.893836      36.893836    
    177000   0.52561579    -7.760218      -6.9718055      4.1015131      50218.233      36.893836      36.893836      36.893836    
    178000   0.5268529     -7.7558399     -6.9655718      4.1261672      50218.233      36.893836      36.893836      36.893836    
    179000   0.52458141    -7.7574005     -6.9705396      4.1162474      50218.233      36.893836      36.893836      36.893836    
    180000   0.5277018     -7.7563836     -6.9648421      4.1329999      50218.233      36.893836      36.893836      36.893836    
    181000   0.52280672    -7.7542961     -6.9700972      4.1406491      50218.233      36.893836      36.893836      36.893836    
    182000   0.52493946    -7.7598609     -6.9724629      4.1045904      50218.233      36.893836      36.893836      36.893836    
    183000   0.52317049    -7.7584761     -6.9737316      4.1044076      50218.233      36.893836      36.893836      36.893836    
    184000   0.52163284    -7.7607139     -6.9782757      4.0900583      50218.233      36.893836      36.893836      36.893836    
    185000   0.52248934    -7.7584577     -6.9747348      4.1229084      50218.233      36.893836      36.893836      36.893836    
    186000   0.52544048    -7.754145      -6.9659955      4.1392873      50218.233      36.893836      36.893836      36.893836    
    187000   0.52335675    -7.7582213     -6.9731973      4.1005865      50218.233      36.893836      36.893836      36.893836    
    188000   0.52663472    -7.7544479     -6.9645071      4.13229        50218.233      36.893836      36.893836      36.893836    
    189000   0.5243467     -7.7588283     -6.9723194      4.0933968      50218.233      36.893836      36.893836      36.893836    
    190000   0.52785084    -7.7594739     -6.9677089      4.1085956      50218.233      36.893836      36.893836      36.893836    
    191000   0.52510677    -7.7556659     -6.968017       4.1261682      50218.233      36.893836      36.893836      36.893836    
    192000   0.52578467    -7.7617516     -6.9730858      4.0796281      50218.233      36.893836      36.893836      36.893836    
    193000   0.52606948    -7.7572464     -6.9681534      4.1249346      50218.233      36.893836      36.893836      36.893836    
    194000   0.52350924    -7.7623728     -6.9771201      4.0703894      50218.233      36.893836      36.893836      36.893836    
    195000   0.52473751    -7.7603446     -6.9732495      4.0934217      50218.233      36.893836      36.893836      36.893836    
    196000   0.52536797    -7.7543805     -6.9663398      4.1431229      50218.233      36.893836      36.893836      36.893836    
    197000   0.52752169    -7.7516303     -6.960359       4.1745233      50218.233      36.893836      36.893836      36.893836    
    198000   0.52545526    -7.758346      -6.9701743      4.1026398      50218.233      36.893836      36.893836      36.893836    
    199000   0.52555854    -7.7599274     -6.9716008      4.0986719      50218.233      36.893836      36.893836      36.893836    
    200000   0.52656699    -7.7612577     -6.9714185      4.0797313      50218.233      36.893836      36.893836      36.893836    
    201000   0.52666062    -7.7567876     -6.9668079      4.120753       50218.233      36.893836      36.893836      36.893836    
    202000   0.52365467    -7.7612668     -6.975796       4.0719604      50218.233      36.893836      36.893836      36.893836    
    203000   0.52743547    -7.7562414     -6.9650994      4.1164041      50218.233      36.893836      36.893836      36.893836    
    204000   0.52712828    -7.7572542     -6.966573       4.1084277      50218.233      36.893836      36.893836      36.893836    
    205000   0.52628368    -7.758809      -6.9693947      4.1040184      50218.233      36.893836      36.893836      36.893836    
    206000   0.52600047    -7.7588956     -6.9699061      4.099966       50218.233      36.893836      36.893836      36.893836    
    207000   0.52570755    -7.7576745     -6.9691244      4.1178831      50218.233      36.893836      36.893836      36.893836    
    208000   0.5271351     -7.7539906     -6.9632992      4.1453647      50218.233      36.893836      36.893836      36.893836    
    209000   0.52603798    -7.763289      -6.9742433      4.0741486      50218.233      36.893836      36.893836      36.893836    
    210000   0.52442081    -7.7586796     -6.9720596      4.1048202      50218.233      36.893836      36.893836      36.893836    
    211000   0.52405513    -7.7593276     -6.973256       4.1002461      50218.233      36.893836      36.893836      36.893836    
    212000   0.52529808    -7.7554242     -6.9674883      4.1260351      50218.233      36.893836      36.893836      36.893836    
    213000   0.52482416    -7.7588571     -6.9716321      4.0965091      50218.233      36.893836      36.893836      36.893836    
    214000   0.52598162    -7.7540872     -6.965126       4.1344287      50218.233      36.893836      36.893836      36.893836    
    215000   0.52383959    -7.7562777     -6.9705295      4.1278419      50218.233      36.893836      36.893836      36.893836    
    216000   0.52530449    -7.7590988     -6.9711533      4.0972185      50218.233      36.893836      36.893836      36.893836    
    217000   0.52396578    -7.7573804     -6.9714429      4.1122244      50218.233      36.893836      36.893836      36.893836    
    218000   0.52219287    -7.7580939     -6.9748157      4.1038611      50218.233      36.893836      36.893836      36.893836    
    219000   0.52584468    -7.7556366     -6.9668808      4.1227941      50218.233      36.893836      36.893836      36.893836    
    220000   0.52497544    -7.758529      -6.971077       4.1065251      50218.233      36.893836      36.893836      36.893836    
    221000   0.52405067    -7.758635      -6.9725701      4.1018793      50218.233      36.893836      36.893836      36.893836    
    222000   0.52446793    -7.7596358     -6.9729451      4.1016109      50218.233      36.893836      36.893836      36.893836    
    223000   0.52409053    -7.756429      -6.9703044      4.1251924      50218.233      36.893836      36.893836      36.893836    
    224000   0.52377558    -7.7603357     -6.9746835      4.0866198      50218.233      36.893836      36.893836      36.893836    
    225000   0.52433312    -7.7594711     -6.9729826      4.0943617      50218.233      36.893836      36.893836      36.893836    
    226000   0.52244294    -7.7561116     -6.9724583      4.1149584      50218.233      36.893836      36.893836      36.893836    
    227000   0.52533257    -7.7587131     -6.9707254      4.1123883      50218.233      36.893836      36.893836      36.893836    
    228000   0.52427209    -7.7591223     -6.9727253      4.107777       50218.233      36.893836      36.893836      36.893836    
    229000   0.5244185     -7.7582029     -6.9715863      4.1131058      50218.233      36.893836      36.893836      36.893836    
    230000   0.52401722    -7.7530958     -6.9670811      4.1532355      50218.233      36.893836      36.893836      36.893836    
    231000   0.52845731    -7.7601724     -6.9674977      4.1030412      50218.233      36.893836      36.893836      36.893836    
    232000   0.52488326    -7.7574323     -6.9701186      4.1002042      50218.233      36.893836      36.893836      36.893836    
    233000   0.52247348    -7.7620801     -6.978381       4.0728229      50218.233      36.893836      36.893836      36.893836    
    234000   0.52685342    -7.758121      -6.9678521      4.1151659      50218.233      36.893836      36.893836      36.893836    
    235000   0.5226168     -7.7651954     -6.9812814      4.0484322      50218.233      36.893836      36.893836      36.893836    
    236000   0.52789305    -7.7616919     -6.9698636      4.0799703      50218.233      36.893836      36.893836      36.893836    
    237000   0.52379624    -7.7615355     -6.9758523      4.0848635      50218.233      36.893836      36.893836      36.893836    
    238000   0.52543124    -7.7606921     -6.9725565      4.0948803      50218.233      36.893836      36.893836      36.893836    
    239000   0.52366156    -7.75854       -6.9730588      4.0956527      50218.233      36.893836      36.893836      36.893836    
    240000   0.52595757    -7.7531964     -6.9642713      4.1424982      50218.233      36.893836      36.893836      36.893836    
    241000   0.52689483    -7.7591881     -6.9688571      4.1025309      50218.233      36.893836      36.893836      36.893836    
    242000   0.52526089    -7.7563163     -6.9684362      4.1265898      50218.233      36.893836      36.893836      36.893836    
    243000   0.52420194    -7.7581479     -6.9718562      4.0942273      50218.233      36.893836      36.893836      36.893836    
    244000   0.52393618    -7.7589838     -6.9730907      4.1176946      50218.233      36.893836      36.893836      36.893836    
    245000   0.5246099     -7.7607912     -6.9738876      4.0841444      50218.233      36.893836      36.893836      36.893836    
    246000   0.52548162    -7.7632886     -6.9750774      4.0753647      50218.233      36.893836      36.893836      36.893836    
    247000   0.52611012    -7.761712      -6.972558       4.0875902      50218.233      36.893836      36.893836      36.893836    
    248000   0.5211049     -7.7579941     -6.9763479      4.1100783      50218.233      36.893836      36.893836      36.893836    
    249000   0.52337665    -7.7609562     -6.9759024      4.0872531      50218.233      36.893836      36.893836      36.893836    
    250000   0.52466751    -7.7606619     -6.9736718      4.0810244      50218.233      36.893836      36.893836      36.893836    
    251000   0.52623729    -7.7573615     -6.9680168      4.1201452      50218.233      36.893836      36.893836      36.893836    
    252000   0.52407671    -7.7559814     -6.9698775      4.1326932      50218.233      36.893836      36.893836      36.893836    
    253000   0.52494034    -7.7556488     -6.9682495      4.1329411      50218.233      36.893836      36.893836      36.893836    
    254000   0.52431643    -7.7588438     -6.9723804      4.0965088      50218.233      36.893836      36.893836      36.893836    
    255000   0.52560444    -7.760455      -6.9720596      4.0923195      50218.233      36.893836      36.893836      36.893836    
    256000   0.52340459    -7.7600458     -6.9749501      4.0917284      50218.233      36.893836      36.893836      36.893836    
    257000   0.52185209    -7.7594345     -6.9766675      4.0995954      50218.233      36.893836      36.893836      36.893836    
    258000   0.52363449    -7.7548417     -6.9694011      4.142767       50218.233      36.893836      36.893836      36.893836    
    259000   0.52443084    -7.7593306     -6.9726955      4.1064017      50218.233      36.893836      36.893836      36.893836    
    260000   0.52384793    -7.7621578     -6.9763971      4.0800698      50218.233      36.893836      36.893836      36.893836    
    261000   0.52339603    -7.7618384     -6.9767555      4.0871511      50218.233      36.893836      36.893836      36.893836    
    262000   0.52492792    -7.757746      -6.9703653      4.1255808      50218.233      36.893836      36.893836      36.893836    
    263000   0.52805817    -7.7566427     -6.9645667      4.1353631      50218.233      36.893836      36.893836      36.893836    
    264000   0.52446569    -7.7580026     -6.9713153      4.1170943      50218.233      36.893836      36.893836      36.893836    
    265000   0.52682068    -7.7575237     -6.9673039      4.1253912      50218.233      36.893836      36.893836      36.893836    
    266000   0.52621538    -7.7586898     -6.9693779      4.0991959      50218.233      36.893836      36.893836      36.893836    
    267000   0.52469104    -7.7578103     -6.970785       4.1097533      50218.233      36.893836      36.893836      36.893836    
    268000   0.52292631    -7.7589685     -6.9745902      4.1103429      50218.233      36.893836      36.893836      36.893836    
    269000   0.52622549    -7.757849      -6.968522       4.1210751      50218.233      36.893836      36.893836      36.893836    
    270000   0.52467616    -7.7577562     -6.9707531      4.1194196      50218.233      36.893836      36.893836      36.893836    
    271000   0.52936023    -7.7539501     -6.959921       4.1501356      50218.233      36.893836      36.893836      36.893836    
    272000   0.5245737     -7.758851      -6.9720017      4.1109057      50218.233      36.893836      36.893836      36.893836    
    273000   0.52271118    -7.7513322     -6.9672766      4.1587174      50218.233      36.893836      36.893836      36.893836    
    274000   0.52565714    -7.7583399     -6.9698654      4.1125107      50218.233      36.893836      36.893836      36.893836    
    275000   0.52437496    -7.7549093     -6.968358       4.1329291      50218.233      36.893836      36.893836      36.893836    
    276000   0.5245497     -7.7550432     -6.9682298      4.1326662      50218.233      36.893836      36.893836      36.893836    
    277000   0.52442814    -7.7595448     -6.9729138      4.0957116      50218.233      36.893836      36.893836      36.893836    
    278000   0.52288357    -7.7545029     -6.9701887      4.1322804      50218.233      36.893836      36.893836      36.893836    
    279000   0.52486272    -7.7610221     -6.9737393      4.1007675      50218.233      36.893836      36.893836      36.893836    
    280000   0.52510831    -7.755692      -6.9680408      4.1283351      50218.233      36.893836      36.893836      36.893836    
    281000   0.52470059    -7.7555255     -6.9684858      4.1268301      50218.233      36.893836      36.893836      36.893836    
    282000   0.5237908     -7.7611766     -6.9755016      4.0835304      50218.233      36.893836      36.893836      36.893836    
    283000   0.52681224    -7.7548471     -6.96464        4.1331091      50218.233      36.893836      36.893836      36.893836    
    284000   0.52546531    -7.7578745     -6.9696878      4.1031226      50218.233      36.893836      36.893836      36.893836    
    285000   0.52602054    -7.7560772     -6.9670576      4.134797       50218.233      36.893836      36.893836      36.893836    
    286000   0.52395033    -7.7571222     -6.9712079      4.1149917      50218.233      36.893836      36.893836      36.893836    
    287000   0.52613848    -7.7548194     -6.9656229      4.1436313      50218.233      36.893836      36.893836      36.893836    
    288000   0.52546174    -7.7574193     -6.9692379      4.1184603      50218.233      36.893836      36.893836      36.893836    
    289000   0.52662649    -7.752746      -6.9628175      4.1564407      50218.233      36.893836      36.893836      36.893836    
    290000   0.52666742    -7.7563979     -6.9664081      4.1294899      50218.233      36.893836      36.893836      36.893836    
    291000   0.52734927    -7.7588621     -6.9678494      4.1139111      50218.233      36.893836      36.893836      36.893836    
    292000   0.51893182    -7.7595424     -6.9811557      4.1003713      50218.233      36.893836      36.893836      36.893836    
    293000   0.52246513    -7.7597047     -6.9760182      4.1013624      50218.233      36.893836      36.893836      36.893836    
    294000   0.52064983    -7.7577822     -6.9768185      4.1032067      50218.233      36.893836      36.893836      36.893836    
    295000   0.52386708    -7.7572835     -6.9714941      4.1240478      50218.233      36.893836      36.893836      36.893836    
    296000   0.5256045     -7.7558349     -6.9674393      4.1349815      50218.233      36.893836      36.893836      36.893836    
    297000   0.52368854    -7.7580697     -6.972548       4.1194616      50218.233      36.893836      36.893836      36.893836    
    298000   0.5253447     -7.7587501     -6.9707442      4.114997       50218.233      36.893836      36.893836      36.893836    
    299000   0.52514132    -7.7541388     -6.966438       4.1510938      50218.233      36.893836      36.893836      36.893836    
    300000   0.52752179    -7.7601799     -6.9689085      4.1038867      50218.233      36.893836      36.893836      36.893836    
    301000   0.52571029    -7.7585282     -6.969974       4.1167739      50218.233      36.893836      36.893836      36.893836    
    302000   0.52532906    -7.7607219     -6.9727396      4.1006141      50218.233      36.893836      36.893836      36.893836    
    303000   0.5248244     -7.7589039     -6.9716785      4.108746       50218.233      36.893836      36.893836      36.893836    
    304000   0.52345588    -7.757817      -6.9726444      4.108469       50218.233      36.893836      36.893836      36.893836    
    305000   0.5246504     -7.7600361     -6.9730717      4.1124393      50218.233      36.893836      36.893836      36.893836    
    306000   0.52451072    -7.7542372     -6.9674823      4.1438785      50218.233      36.893836      36.893836      36.893836    
    307000   0.52626334    -7.7599661     -6.9705823      4.1086471      50218.233      36.893836      36.893836      36.893836    
    308000   0.52651405    -7.7597856     -6.9700257      4.1113448      50218.233      36.893836      36.893836      36.893836    
    309000   0.52434811    -7.7584947     -6.9719837      4.1106585      50218.233      36.893836      36.893836      36.893836    
    310000   0.52469763    -7.7574481     -6.9704128      4.1177887      50218.233      36.893836      36.893836      36.893836    
    311000   0.52649928    -7.7598048     -6.9700671      4.1069173      50218.233      36.893836      36.893836      36.893836    
    312000   0.52532295    -7.7544022     -6.966429       4.1419913      50218.233      36.893836      36.893836      36.893836    
    313000   0.52388612    -7.755511      -6.969693       4.1282011      50218.233      36.893836      36.893836      36.893836    
    314000   0.52609985    -7.7540577     -6.9649191      4.1359227      50218.233      36.893836      36.893836      36.893836    
    315000   0.52220048    -7.7589722     -6.9756826      4.0981341      50218.233      36.893836      36.893836      36.893836    
    316000   0.52522942    -7.7548186     -6.9669856      4.1371403      50218.233      36.893836      36.893836      36.893836    
    317000   0.52489796    -7.7614416     -6.9741059      4.0890976      50218.233      36.893836      36.893836      36.893836    
    318000   0.52429365    -7.7560569     -6.9696276      4.1259914      50218.233      36.893836      36.893836      36.893836    
    319000   0.52398312    -7.7569281     -6.9709646      4.1231872      50218.233      36.893836      36.893836      36.893836    
    320000   0.52295856    -7.7561719     -6.9717452      4.124986       50218.233      36.893836      36.893836      36.893836    
    321000   0.52509111    -7.7554168     -6.9677914      4.1253774      50218.233      36.893836      36.893836      36.893836    
    322000   0.52211725    -7.7576003     -6.9744355      4.1184184      50218.233      36.893836      36.893836      36.893836    
    323000   0.52635283    -7.7605341     -6.971016       4.1038349      50218.233      36.893836      36.893836      36.893836    
    324000   0.52544245    -7.7563558     -6.9682034      4.1233823      50218.233      36.893836      36.893836      36.893836    
    325000   0.52797668    -7.762589      -6.9706353      4.093538       50218.233      36.893836      36.893836      36.893836    
    326000   0.5259287     -7.7565615     -6.9676797      4.1277194      50218.233      36.893836      36.893836      36.893836    
    327000   0.5234777     -7.7580015     -6.9727961      4.0992516      50218.233      36.893836      36.893836      36.893836    
    328000   0.52360059    -7.7637666     -6.9783769      4.0668727      50218.233      36.893836      36.893836      36.893836    
    329000   0.52555841    -7.7571748     -6.9688484      4.1124836      50218.233      36.893836      36.893836      36.893836    
    330000   0.52529029    -7.7617742     -6.97385        4.0879309      50218.233      36.893836      36.893836      36.893836    
    331000   0.52473462    -7.7588957     -6.971805       4.1032106      50218.233      36.893836      36.893836      36.893836    
    332000   0.52649431    -7.7574623     -6.967732       4.1337179      50218.233      36.893836      36.893836      36.893836    
    333000   0.52476677    -7.7578356     -6.9706967      4.1021755      50218.233      36.893836      36.893836      36.893836    
    334000   0.52380243    -7.7584086     -6.9727162      4.1074632      50218.233      36.893836      36.893836      36.893836    
    335000   0.52467778    -7.7552626     -6.9682571      4.1332985      50218.233      36.893836      36.893836      36.893836    
    336000   0.52278027    -7.7620721     -6.9779129      4.0855328      50218.233      36.893836      36.893836      36.893836    
    337000   0.52431148    -7.7584318     -6.9719757      4.1215885      50218.233      36.893836      36.893836      36.893836    
    338000   0.52460807    -7.75628       -6.9693791      4.1137407      50218.233      36.893836      36.893836      36.893836    
    339000   0.52498996    -7.7515924     -6.9641186      4.152784       50218.233      36.893836      36.893836      36.893836    
    340000   0.5242417     -7.7569807     -6.9706293      4.1211346      50218.233      36.893836      36.893836      36.893836    
    341000   0.52291505    -7.762093      -6.9777315      4.0809576      50218.233      36.893836      36.893836      36.893836    
    342000   0.52136671    -7.7543253     -6.9722864      4.1361079      50218.233      36.893836      36.893836      36.893836    
    343000   0.52238048    -7.7605704     -6.9770108      4.0896361      50218.233      36.893836      36.893836      36.893836    
    344000   0.52663544    -7.7586048     -6.9686629      4.1104893      50218.233      36.893836      36.893836      36.893836    
    345000   0.52502836    -7.7563868     -6.9688554      4.1313835      50218.233      36.893836      36.893836      36.893836    
    346000   0.52739317    -7.7610354     -6.9699569      4.0979897      50218.233      36.893836      36.893836      36.893836    
    347000   0.52272407    -7.7609374     -6.9768624      4.0878197      50218.233      36.893836      36.893836      36.893836    
    348000   0.52446223    -7.7589225     -6.9722403      4.1113334      50218.233      36.893836      36.893836      36.893836    
    349000   0.52451103    -7.7598821     -6.9731268      4.099273       50218.233      36.893836      36.893836      36.893836    
    350000   0.52688127    -7.758613      -6.9683023      4.1214511      50218.233      36.893836      36.893836      36.893836    
    351000   0.52534921    -7.7606061     -6.9725935      4.0812146      50218.233      36.893836      36.893836      36.893836    
    352000   0.52458142    -7.7579036     -6.9710426      4.1215132      50218.233      36.893836      36.893836      36.893836    
    353000   0.52677332    -7.7566478     -6.966499       4.1314734      50218.233      36.893836      36.893836      36.893836    
    354000   0.52374925    -7.7595174     -6.9739047      4.1056112      50218.233      36.893836      36.893836      36.893836    
    355000   0.52110424    -7.7593648     -6.9777195      4.0963923      50218.233      36.893836      36.893836      36.893836    
    356000   0.52645956    -7.754517      -6.9648389      4.1287948      50218.233      36.893836      36.893836      36.893836    
    357000   0.5243135     -7.7585123     -6.9720532      4.1077073      50218.233      36.893836      36.893836      36.893836    
    358000   0.52587301    -7.7581457     -6.9693475      4.1146788      50218.233      36.893836      36.893836      36.893836    
    359000   0.52437959    -7.7576265     -6.9710683      4.1256466      50218.233      36.893836      36.893836      36.893836    
    360000   0.52326762    -7.7601729     -6.9752827      4.0940972      50218.233      36.893836      36.893836      36.893836    
    361000   0.52748367    -7.7614364     -6.9702221      4.092138       50218.233      36.893836      36.893836      36.893836    
    362000   0.52632364    -7.7568955     -6.9674213      4.1319169      50218.233      36.893836      36.893836      36.893836    
    363000   0.52114538    -7.7595416     -6.9778346      4.1045157      50218.233      36.893836      36.893836      36.893836    
    364000   0.52723009    -7.757655      -6.9668211      4.1254767      50218.233      36.893836      36.893836      36.893836    
    365000   0.52508841    -7.755434      -6.9678126      4.1332681      50218.233      36.893836      36.893836      36.893836    
    366000   0.52316206    -7.7576074     -6.9728755      4.1188366      50218.233      36.893836      36.893836      36.893836    
    367000   0.52277452    -7.7575595     -6.9734089      4.1158765      50218.233      36.893836      36.893836      36.893836    
    368000   0.52559226    -7.7533998     -6.9650226      4.1558029      50218.233      36.893836      36.893836      36.893836    
    369000   0.52576482    -7.7571079     -6.9684719      4.1226182      50218.233      36.893836      36.893836      36.893836    
    370000   0.52277682    -7.7566661     -6.972512       4.1223403      50218.233      36.893836      36.893836      36.893836    
    371000   0.52584655    -7.7587145     -6.9699559      4.1025948      50218.233      36.893836      36.893836      36.893836    
    372000   0.52739782    -7.7545496     -6.9634641      4.141533       50218.233      36.893836      36.893836      36.893836    
    373000   0.52241867    -7.7563195     -6.9727027      4.1180525      50218.233      36.893836      36.893836      36.893836    
    374000   0.52849148    -7.7573714     -6.9646454      4.1271677      50218.233      36.893836      36.893836      36.893836    
    375000   0.52583201    -7.7607005     -6.9719637      4.0984915      50218.233      36.893836      36.893836      36.893836    
    376000   0.52438397    -7.7553166     -6.9687518      4.1460679      50218.233      36.893836      36.893836      36.893836    
    377000   0.52541766    -7.7566916     -6.9685763      4.1407963      50218.233      36.893836      36.893836      36.893836    
    378000   0.5240795     -7.7563802     -6.9702721      4.1332056      50218.233      36.893836      36.893836      36.893836    
    379000   0.52800393    -7.759057      -6.9670624      4.1089176      50218.233      36.893836      36.893836      36.893836    
    380000   0.52505882    -7.7561545     -6.9685774      4.1247953      50218.233      36.893836      36.893836      36.893836    
    381000   0.5256164     -7.7578492     -6.9694358      4.1185657      50218.233      36.893836      36.893836      36.893836    
    382000   0.52335463    -7.7553456     -6.9703248      4.1289218      50218.233      36.893836      36.893836      36.893836    
    383000   0.52419697    -7.7579403     -6.971656       4.1058665      50218.233      36.893836      36.893836      36.893836    
    384000   0.52227851    -7.7564586     -6.973052       4.1281218      50218.233      36.893836      36.893836      36.893836    
    385000   0.52394528    -7.7578406     -6.9719339      4.114502       50218.233      36.893836      36.893836      36.893836    
    386000   0.52900627    -7.753925      -6.9604269      4.1483188      50218.233      36.893836      36.893836      36.893836    
    387000   0.52565872    -7.7574722     -6.9689954      4.1238492      50218.233      36.893836      36.893836      36.893836    
    388000   0.52589971    -7.7607806     -6.9719422      4.1070893      50218.233      36.893836      36.893836      36.893836    
    389000   0.52444677    -7.7572104     -6.9705515      4.1105235      50218.233      36.893836      36.893836      36.893836    
    390000   0.52288948    -7.758507      -6.9741839      4.1136676      50218.233      36.893836      36.893836      36.893836    
    391000   0.5246869     -7.7559262     -6.9689071      4.131872       50218.233      36.893836      36.893836      36.893836    
    392000   0.52421077    -7.7586291     -6.9723241      4.1120099      50218.233      36.893836      36.893836      36.893836    
    393000   0.52241502    -7.7581661     -6.9745547      4.1071532      50218.233      36.893836      36.893836      36.893836    
    394000   0.52406179    -7.7547557     -6.9686742      4.136146       50218.233      36.893836      36.893836      36.893836    
    395000   0.52553627    -7.7578951     -6.9696019      4.1222275      50218.233      36.893836      36.893836      36.893836    
    396000   0.52378693    -7.7563729     -6.9707037      4.1215593      50218.233      36.893836      36.893836      36.893836    
    397000   0.5268218     -7.7580868     -6.9678654      4.1095511      50218.233      36.893836      36.893836      36.893836    
    398000   0.52631556    -7.7584182     -6.9689561      4.115727       50218.233      36.893836      36.893836      36.893836    
    399000   0.52665       -7.7568997     -6.9669359      4.1266015      50218.233      36.893836      36.893836      36.893836    
    400000   0.52445921    -7.7670321     -6.9803544      4.0601801      50218.233      36.893836      36.893836      36.893836    
    401000   0.5259182     -7.7585875     -6.9697214      4.1167809      50218.233      36.893836      36.893836      36.893836    
    402000   0.52598438    -7.7569527     -6.9679874      4.1282731      50218.233      36.893836      36.893836      36.893836    
    403000   0.52660959    -7.7551245     -6.9652214      4.1454542      50218.233      36.893836      36.893836      36.893836    
    404000   0.52768268    -7.7563563     -6.9648435      4.1309517      50218.233      36.893836      36.893836      36.893836    
    405000   0.5240784     -7.7533501     -6.9672436      4.155582       50218.233      36.893836      36.893836      36.893836    
    406000   0.52503931    -7.7592971     -6.9717493      4.0926404      50218.233      36.893836      36.893836      36.893836    
    407000   0.52482105    -7.7563864     -6.969166       4.1171417      50218.233      36.893836      36.893836      36.893836    
    408000   0.52627189    -7.7602571     -6.9708605      4.092662       50218.233      36.893836      36.893836      36.893836    
    409000   0.52542992    -7.75619       -6.9680563      4.130521       50218.233      36.893836      36.893836      36.893836    
    410000   0.52151452    -7.7578265     -6.9755659      4.1225556      50218.233      36.893836      36.893836      36.893836    
    411000   0.52568524    -7.762174      -6.9736574      4.0949063      50218.233      36.893836      36.893836      36.893836    
    412000   0.52657191    -7.7562878     -6.9664412      4.1362709      50218.233      36.893836      36.893836      36.893836    
    413000   0.52606836    -7.7542132     -6.9651218      4.1466302      50218.233      36.893836      36.893836      36.893836    
    414000   0.52244242    -7.7569495     -6.973297       4.1109265      50218.233      36.893836      36.893836      36.893836    
    415000   0.52564246    -7.7575247     -6.9690722      4.1212676      50218.233      36.893836      36.893836      36.893836    
    416000   0.5252463     -7.7596158     -6.9717575      4.1004009      50218.233      36.893836      36.893836      36.893836    
    417000   0.52548373    -7.7587646     -6.9705503      4.1039124      50218.233      36.893836      36.893836      36.893836    
    418000   0.5264769     -7.7602792     -6.9705751      4.0978753      50218.233      36.893836      36.893836      36.893836    
    419000   0.52375754    -7.7588934     -6.9732683      4.1038424      50218.233      36.893836      36.893836      36.893836    
    420000   0.52392772    -7.7550181     -6.9691377      4.1306026      50218.233      36.893836      36.893836      36.893836    
    421000   0.52443363    -7.7568065     -6.9701672      4.1252002      50218.233      36.893836      36.893836      36.893836    
    422000   0.52301358    -7.7583069     -6.9737977      4.1071441      50218.233      36.893836      36.893836      36.893836    
    423000   0.52809849    -7.7587102     -6.9665738      4.1185892      50218.233      36.893836      36.893836      36.893836    
    424000   0.52506945    -7.7548148     -6.9672218      4.1413857      50218.233      36.893836      36.893836      36.893836    
    425000   0.52218778    -7.756955      -6.9736844      4.1053965      50218.233      36.893836      36.893836      36.893836    
    426000   0.5251104     -7.7564441     -6.9687897      4.1313435      50218.233      36.893836      36.893836      36.893836    
    427000   0.52470292    -7.7543636     -6.9673204      4.1403277      50218.233      36.893836      36.893836      36.893836    
    428000   0.52419395    -7.758503      -6.9722233      4.110064       50218.233      36.893836      36.893836      36.893836    
    429000   0.52584879    -7.7558486     -6.9670866      4.119877       50218.233      36.893836      36.893836      36.893836    
    430000   0.52868375    -7.7557699     -6.9627556      4.1361409      50218.233      36.893836      36.893836      36.893836    
    431000   0.52540823    -7.7549529     -6.9668518      4.1380841      50218.233      36.893836      36.893836      36.893836    
    432000   0.5263751     -7.7603669     -6.9708155      4.0979421      50218.233      36.893836      36.893836      36.893836    
    433000   0.52962975    -7.7585134     -6.9640801      4.1345346      50218.233      36.893836      36.893836      36.893836    
    434000   0.5250038     -7.7560761     -6.9685816      4.1337896      50218.233      36.893836      36.893836      36.893836    
    435000   0.52465453    -7.755652      -6.9686814      4.127789       50218.233      36.893836      36.893836      36.893836    
    436000   0.52328948    -7.7599258     -6.9750027      4.1061932      50218.233      36.893836      36.893836      36.893836    
    437000   0.52699241    -7.756684      -6.9662066      4.1187567      50218.233      36.893836      36.893836      36.893836    
    438000   0.52153544    -7.7584745     -6.9761825      4.1164419      50218.233      36.893836      36.893836      36.893836    
    439000   0.52484682    -7.7569355     -6.9696765      4.1141808      50218.233      36.893836      36.893836      36.893836    
    440000   0.52367503    -7.7571474     -6.971646       4.1180333      50218.233      36.893836      36.893836      36.893836    
    441000   0.52671808    -7.7572004     -6.9671346      4.1117162      50218.233      36.893836      36.893836      36.893836    
    442000   0.52361865    -7.7547068     -6.96929        4.1364228      50218.233      36.893836      36.893836      36.893836    
    443000   0.52526231    -7.7588797     -6.9709975      4.1034981      50218.233      36.893836      36.893836      36.893836    
    444000   0.52522469    -7.7553698     -6.967544       4.1240201      50218.233      36.893836      36.893836      36.893836    
    445000   0.52489579    -7.7607278     -6.9733953      4.0922199      50218.233      36.893836      36.893836      36.893836    
    446000   0.52390283    -7.76023       -6.9743869      4.10002        50218.233      36.893836      36.893836      36.893836    
    447000   0.52383303    -7.7587828     -6.9730445      4.1101968      50218.233      36.893836      36.893836      36.893836    
    448000   0.5223565     -7.7565823     -6.9730587      4.1213317      50218.233      36.893836      36.893836      36.893836    
    449000   0.52613642    -7.7610659     -6.9718725      4.0866665      50218.233      36.893836      36.893836      36.893836    
    450000   0.52388476    -7.7593018     -6.9734859      4.1100666      50218.233      36.893836      36.893836      36.893836    
    451000   0.52691875    -7.7536774     -6.9633106      4.1434862      50218.233      36.893836      36.893836      36.893836    
    452000   0.52638427    -7.7539561     -6.9643909      4.1465502      50218.233      36.893836      36.893836      36.893836    
    453000   0.52506221    -7.7547358     -6.9671537      4.1304287      50218.233      36.893836      36.893836      36.893836    
    454000   0.524128      -7.7547633     -6.9685825      4.1319328      50218.233      36.893836      36.893836      36.893836    
    455000   0.52422665    -7.7571012     -6.9707724      4.1209483      50218.233      36.893836      36.893836      36.893836    
    456000   0.52149457    -7.7569091     -6.9746784      4.111863       50218.233      36.893836      36.893836      36.893836    
    457000   0.52427288    -7.7566809     -6.9702828      4.1210208      50218.233      36.893836      36.893836      36.893836    
    458000   0.52523749    -7.7545735     -6.9667285      4.1383351      50218.233      36.893836      36.893836      36.893836    
    459000   0.52556592    -7.756784      -6.9684463      4.1297162      50218.233      36.893836      36.893836      36.893836    
    460000   0.52612762    -7.7541195     -6.9649393      4.1518753      50218.233      36.893836      36.893836      36.893836    
    461000   0.52696499    -7.7553511     -6.9649149      4.1366911      50218.233      36.893836      36.893836      36.893836    
    462000   0.52564573    -7.7578413     -6.969384       4.1069837      50218.233      36.893836      36.893836      36.893836    
    463000   0.5266122     -7.7531224     -6.9632153      4.1583311      50218.233      36.893836      36.893836      36.893836    
    464000   0.52448192    -7.7566839     -6.9699723      4.1204688      50218.233      36.893836      36.893836      36.893836    
    465000   0.52559348    -7.760163      -6.971784       4.0991425      50218.233      36.893836      36.893836      36.893836    
    466000   0.52480401    -7.752202      -6.9650071      4.1546896      50218.233      36.893836      36.893836      36.893836    
    467000   0.52626948    -7.7561254     -6.9667324      4.13493        50218.233      36.893836      36.893836      36.893836    
    468000   0.5257494     -7.7559071     -6.9672942      4.1350826      50218.233      36.893836      36.893836      36.893836    
    469000   0.52410367    -7.7535759     -6.9674316      4.1431763      50218.233      36.893836      36.893836      36.893836    
    470000   0.52778007    -7.7536272     -6.9619684      4.1580073      50218.233      36.893836      36.893836      36.893836    
    471000   0.52636116    -7.7548655     -6.965335       4.146998       50218.233      36.893836      36.893836      36.893836    
    472000   0.5237139     -7.7541722     -6.9686125      4.1299101      50218.233      36.893836      36.893836      36.893836    
    473000   0.52631696    -7.758212      -6.9687478      4.1228895      50218.233      36.893836      36.893836      36.893836    
    474000   0.52265851    -7.7568512     -6.9728746      4.1186062      50218.233      36.893836      36.893836      36.893836    
    475000   0.52300734    -7.7558598     -6.9713599      4.1428546      50218.233      36.893836      36.893836      36.893836    
    476000   0.5251638     -7.7539991     -6.9662646      4.1519152      50218.233      36.893836      36.893836      36.893836    
    477000   0.52398502    -7.753786      -6.9678196      4.1541779      50218.233      36.893836      36.893836      36.893836    
    478000   0.52392182    -7.7532483     -6.9673768      4.1601055      50218.233      36.893836      36.893836      36.893836    
    479000   0.52679772    -7.7511458     -6.9609605      4.170085       50218.233      36.893836      36.893836      36.893836    
    480000   0.52600753    -7.7516269     -6.9626268      4.1626565      50218.233      36.893836      36.893836      36.893836    
    481000   0.52445621    -7.7581879     -6.9715147      4.1106373      50218.233      36.893836      36.893836      36.893836    
    482000   0.52283847    -7.7550663     -6.9708198      4.135827       50218.233      36.893836      36.893836      36.893836    
    483000   0.5242174     -7.7548561     -6.9685412      4.1238921      50218.233      36.893836      36.893836      36.893836    
    484000   0.52374122    -7.7535745     -6.9679738      4.1461247      50218.233      36.893836      36.893836      36.893836    
    485000   0.52303621    -7.754953      -6.9704099      4.1372627      50218.233      36.893836      36.893836      36.893836    
    486000   0.52443807    -7.7552208     -6.9685748      4.1356187      50218.233      36.893836      36.893836      36.893836    
    487000   0.52765852    -7.7553422     -6.9638657      4.1382308      50218.233      36.893836      36.893836      36.893836    
    488000   0.52638122    -7.7533012     -6.9637406      4.1624384      50218.233      36.893836      36.893836      36.893836    
    489000   0.52589234    -7.760506      -6.9716787      4.0923042      50218.233      36.893836      36.893836      36.893836    
    490000   0.5250363     -7.7571889     -6.9696456      4.1219363      50218.233      36.893836      36.893836      36.893836    
    491000   0.52375873    -7.7558367     -6.9702098      4.1236074      50218.233      36.893836      36.893836      36.893836    
    492000   0.52672112    -7.7534091     -6.9633387      4.1650136      50218.233      36.893836      36.893836      36.893836    
    493000   0.52480097    -7.7574273     -6.9702371      4.1189276      50218.233      36.893836      36.893836      36.893836    
    494000   0.52356077    -7.7552383     -6.9699083      4.1344065      50218.233      36.893836      36.893836      36.893836    
    495000   0.52521066    -7.7571542     -6.9693494      4.1213957      50218.233      36.893836      36.893836      36.893836    
    496000   0.5244929     -7.7582692     -6.971541       4.1191594      50218.233      36.893836      36.893836      36.893836    
    497000   0.52473177    -7.7560502     -6.9689637      4.1471275      50218.233      36.893836      36.893836      36.893836    
    498000   0.52629781    -7.7566509     -6.9672155      4.1287267      50218.233      36.893836      36.893836      36.893836    
    499000   0.52610059    -7.7574848     -6.9683452      4.1318898      50218.233      36.893836      36.893836      36.893836    
    500000   0.52655469    -7.7586879     -6.9688671      4.1154931      50218.233      36.893836      36.893836      36.893836    
    501000   0.52497951    -7.7572723     -6.9698142      4.1180847      50218.233      36.893836      36.893836      36.893836    
    502000   0.52306885    -7.7547387     -6.9701466      4.1309576      50218.233      36.893836      36.893836      36.893836    
    503000   0.52485119    -7.7564555     -6.9691899      4.1246158      50218.233      36.893836      36.893836      36.893836    
    504000   0.52644982    -7.7589967     -6.9693332      4.1131244      50218.233      36.893836      36.893836      36.893836    
    505000   0.5260467     -7.7578177     -6.9687589      4.1167174      50218.233      36.893836      36.893836      36.893836    
    506000   0.52096181    -7.7561398     -6.9747082      4.119186       50218.233      36.893836      36.893836      36.893836    
    507000   0.52341298    -7.7563423     -6.971234       4.1198622      50218.233      36.893836      36.893836      36.893836    
    508000   0.52547997    -7.756419      -6.9682102      4.1307957      50218.233      36.893836      36.893836      36.893836    
    509000   0.52260947    -7.7530652     -6.9691621      4.1544404      50218.233      36.893836      36.893836      36.893836    
    510000   0.52531104    -7.7556616     -6.9677063      4.134694       50218.233      36.893836      36.893836      36.893836    
    511000   0.524823      -7.7563788     -6.9691555      4.1219035      50218.233      36.893836      36.893836      36.893836    
    512000   0.52613578    -7.755001      -6.9658085      4.1449596      50218.233      36.893836      36.893836      36.893836    
    513000   0.52301023    -7.7521769     -6.9676727      4.1586543      50218.233      36.893836      36.893836      36.893836    
    514000   0.52377418    -7.754766      -6.9691159      4.1378408      50218.233      36.893836      36.893836      36.893836    
    515000   0.52628021    -7.7563548     -6.9669457      4.1421902      50218.233      36.893836      36.893836      36.893836    
    516000   0.52475471    -7.7581855     -6.9710646      4.1131508      50218.233      36.893836      36.893836      36.893836    
    517000   0.5264083     -7.7552156     -6.9656144      4.1251005      50218.233      36.893836      36.893836      36.893836    
    518000   0.52426742    -7.7546364     -6.9682464      4.1416055      50218.233      36.893836      36.893836      36.893836    
    519000   0.52688812    -7.7578452     -6.9675242      4.1191867      50218.233      36.893836      36.893836      36.893836    
    520000   0.526313      -7.7566485     -6.9671902      4.1327519      50218.233      36.893836      36.893836      36.893836    
    521000   0.52594824    -7.757435      -6.9685239      4.1261604      50218.233      36.893836      36.893836      36.893836    
    522000   0.52685418    -7.7544501     -6.9641801      4.1458914      50218.233      36.893836      36.893836      36.893836    
    523000   0.52691369    -7.7551621     -6.9648028      4.1384883      50218.233      36.893836      36.893836      36.893836    
    524000   0.52600764    -7.756434      -6.9674338      4.1269496      50218.233      36.893836      36.893836      36.893836    
    525000   0.5247195     -7.7564553     -6.9693872      4.1366646      50218.233      36.893836      36.893836      36.893836    
    526000   0.52725919    -7.7570127     -6.9661352      4.1311096      50218.233      36.893836      36.893836      36.893836    
    527000   0.52391287    -7.7544284     -6.9685703      4.155264       50218.233      36.893836      36.893836      36.893836    
    528000   0.52593191    -7.7522255     -6.9633389      4.1566078      50218.233      36.893836      36.893836      36.893836    
    529000   0.52525454    -7.7537527     -6.9658821      4.1594723      50218.233      36.893836      36.893836      36.893836    
    530000   0.52486154    -7.7581544     -6.9708732      4.1209534      50218.233      36.893836      36.893836      36.893836    
    531000   0.5264004     -7.7552712     -6.9656818      4.1481053      50218.233      36.893836      36.893836      36.893836    
    532000   0.52451819    -7.7478502     -6.9610841      4.1986326      50218.233      36.893836      36.893836      36.893836    
    533000   0.52397696    -7.7554535     -6.9694993      4.1383432      50218.233      36.893836      36.893836      36.893836    
    534000   0.52538784    -7.7540084     -6.9659378      4.1502293      50218.233      36.893836      36.893836      36.893836    
    535000   0.52564209    -7.7551723     -6.9667204      4.1337041      50218.233      36.893836      36.893836      36.893836    
    536000   0.52650995    -7.7529851     -6.9632314      4.1504253      50218.233      36.893836      36.893836      36.893836    
    537000   0.52579636    -7.7567474     -6.9680641      4.1347534      50218.233      36.893836      36.893836      36.893836    
    538000   0.52579223    -7.7569023     -6.9682251      4.1290667      50218.233      36.893836      36.893836      36.893836    
    539000   0.52692583    -7.7518619     -6.9614844      4.1573476      50218.233      36.893836      36.893836      36.893836    
    540000   0.52524339    -7.7582657     -6.9704118      4.1115287      50218.233      36.893836      36.893836      36.893836    
    541000   0.52609088    -7.7535643     -6.9644392      4.1473841      50218.233      36.893836      36.893836      36.893836    
    542000   0.52496974    -7.7537311     -6.9662877      4.1387733      50218.233      36.893836      36.893836      36.893836    
    543000   0.5274194     -7.7522302     -6.9611124      4.1652025      50218.233      36.893836      36.893836      36.893836    
    544000   0.52674233    -7.7523743     -6.9622721      4.161311       50218.233      36.893836      36.893836      36.893836    
    545000   0.52256638    -7.7529074     -6.969069       4.1448137      50218.233      36.893836      36.893836      36.893836    
    546000   0.52375102    -7.7534849     -6.9678696      4.1478591      50218.233      36.893836      36.893836      36.893836    
    547000   0.52365371    -7.7566184     -6.971149       4.1256145      50218.233      36.893836      36.893836      36.893836    
    548000   0.52384743    -7.7584785     -6.9727185      4.1153598      50218.233      36.893836      36.893836      36.893836    
    549000   0.52416183    -7.7560846     -6.969853       4.1229492      50218.233      36.893836      36.893836      36.893836    
    550000   0.52490628    -7.7564737     -6.9691255      4.1261555      50218.233      36.893836      36.893836      36.893836    
    551000   0.52722527    -7.7559033     -6.9650766      4.1362078      50218.233      36.893836      36.893836      36.893836    
    552000   0.52629502    -7.7535748     -6.9641435      4.1462868      50218.233      36.893836      36.893836      36.893836    
    553000   0.52473334    -7.7591426     -6.9720538      4.1164394      50218.233      36.893836      36.893836      36.893836    
    554000   0.5238951     -7.7532286     -6.9673972      4.1490488      50218.233      36.893836      36.893836      36.893836    
    555000   0.52390488    -7.7548274     -6.9689813      4.142054       50218.233      36.893836      36.893836      36.893836    
    556000   0.52404156    -7.7547795     -6.9687283      4.1204556      50218.233      36.893836      36.893836      36.893836    
    557000   0.52420955    -7.7538781     -6.967575       4.1471123      50218.233      36.893836      36.893836      36.893836    
    558000   0.52693744    -7.7551061     -6.9647112      4.1309348      50218.233      36.893836      36.893836      36.893836    
    559000   0.52532544    -7.7581995     -6.9702226      4.1081568      50218.233      36.893836      36.893836      36.893836    
    560000   0.52480453    -7.7569456     -6.96975        4.1201804      50218.233      36.893836      36.893836      36.893836    
    561000   0.52608298    -7.7549015     -6.9657882      4.1413497      50218.233      36.893836      36.893836      36.893836    
    562000   0.52699132    -7.7517934     -6.9613177      4.1612703      50218.233      36.893836      36.893836      36.893836    
    563000   0.52296629    -7.7519354     -6.9674971      4.1686051      50218.233      36.893836      36.893836      36.893836    
    564000   0.52676873    -7.7513263     -6.9611845      4.162183       50218.233      36.893836      36.893836      36.893836    
    565000   0.52661641    -7.7529283     -6.9630149      4.1525335      50218.233      36.893836      36.893836      36.893836    
    566000   0.5230284     -7.754227      -6.9696956      4.1393891      50218.233      36.893836      36.893836      36.893836    
    567000   0.52189661    -7.7546993     -6.9718655      4.1532647      50218.233      36.893836      36.893836      36.893836    
    568000   0.52371246    -7.754376      -6.9688184      4.1475843      50218.233      36.893836      36.893836      36.893836    
    569000   0.5232947     -7.7533562     -6.9684253      4.1544378      50218.233      36.893836      36.893836      36.893836    
    570000   0.52168668    -7.7523589     -6.96984        4.1598314      50218.233      36.893836      36.893836      36.893836    
    571000   0.52414631    -7.7563214     -6.9701131      4.1249582      50218.233      36.893836      36.893836      36.893836    
    572000   0.52821038    -7.7530829     -6.9607786      4.1498375      50218.233      36.893836      36.893836      36.893836    
    573000   0.52560037    -7.749492      -6.9611026      4.1777982      50218.233      36.893836      36.893836      36.893836    
    574000   0.52655172    -7.7554123     -6.965596       4.13767        50218.233      36.893836      36.893836      36.893836    
    575000   0.5240272     -7.7536748     -6.9676452      4.1503466      50218.233      36.893836      36.893836      36.893836    
    576000   0.52680555    -7.7531378     -6.9629407      4.1563403      50218.233      36.893836      36.893836      36.893836    
    577000   0.5250746     -7.7534273     -6.9658266      4.1525334      50218.233      36.893836      36.893836      36.893836    
    578000   0.5239577     -7.7544551     -6.9685298      4.1506797      50218.233      36.893836      36.893836      36.893836    
    579000   0.52473051    -7.7526068     -6.9655222      4.1691435      50218.233      36.893836      36.893836      36.893836    
    580000   0.52596893    -7.7544424     -6.9655002      4.1501655      50218.233      36.893836      36.893836      36.893836    
    581000   0.52648074    -7.7490045     -6.9592946      4.1886298      50218.233      36.893836      36.893836      36.893836    
    582000   0.52484888    -7.7530366     -6.9657744      4.1635673      50218.233      36.893836      36.893836      36.893836    
    583000   0.52673795    -7.7506028     -6.9605071      4.1760858      50218.233      36.893836      36.893836      36.893836    
    584000   0.52365452    -7.749523      -6.9640524      4.1835753      50218.233      36.893836      36.893836      36.893836    
    585000   0.52302318    -7.7520085     -6.9674849      4.1789645      50218.233      36.893836      36.893836      36.893836    
    586000   0.52209234    -7.7517766     -6.9686493      4.1597706      50218.233      36.893836      36.893836      36.893836    
    587000   0.5232687     -7.7565923     -6.9717004      4.1276637      50218.233      36.893836      36.893836      36.893836    
    588000   0.52236838    -7.753568      -6.9700266      4.1464658      50218.233      36.893836      36.893836      36.893836    
    589000   0.525824      -7.7527429     -6.9640181      4.1569064      50218.233      36.893836      36.893836      36.893836    
    590000   0.524719      -7.7538327     -6.9667654      4.136725       50218.233      36.893836      36.893836      36.893836    
    591000   0.52297296    -7.7552857     -6.9708374      4.1402796      50218.233      36.893836      36.893836      36.893836    
    592000   0.52703939    -7.7527487     -6.9622008      4.1551575      50218.233      36.893836      36.893836      36.893836    
    593000   0.52545767    -7.7579212     -6.9697459      4.1245882      50218.233      36.893836      36.893836      36.893836    
    594000   0.52401497    -7.7578435     -6.9718322      4.1222273      50218.233      36.893836      36.893836      36.893836    
    595000   0.52338242    -7.7517068     -6.9666444      4.1670948      50218.233      36.893836      36.893836      36.893836    
    596000   0.52506731    -7.7544301     -6.9668403      4.1375956      50218.233      36.893836      36.893836      36.893836    
    597000   0.52368791    -7.7498683     -6.9643476      4.1700696      50218.233      36.893836      36.893836      36.893836    
    598000   0.52516623    -7.7530721     -6.965334       4.1553242      50218.233      36.893836      36.893836      36.893836    
    599000   0.52602388    -7.7528804     -6.9638558      4.156093       50218.233      36.893836      36.893836      36.893836    
    600000   0.52672272    -7.7536282     -6.9635553      4.1548871      50218.233      36.893836      36.893836      36.893836    
    601000   0.52421704    -7.7520125     -6.9656982      4.1655173      50218.233      36.893836      36.893836      36.893836    
    602000   0.52612737    -7.7568601     -6.9676802      4.1247309      50218.233      36.893836      36.893836      36.893836    
    603000   0.52578054    -7.7516284     -6.9629688      4.1613046      50218.233      36.893836      36.893836      36.893836    
    604000   0.52484851    -7.7532023     -6.9659408      4.1427064      50218.233      36.893836      36.893836      36.893836    
    605000   0.52386019    -7.7544151     -6.968636       4.1424323      50218.233      36.893836      36.893836      36.893836    
    606000   0.52451728    -7.7554809     -6.9687162      4.1324719      50218.233      36.893836      36.893836      36.893836    
    607000   0.52237702    -7.755302      -6.9717476      4.1396562      50218.233      36.893836      36.893836      36.893836    
    608000   0.52706074    -7.754664      -6.9640842      4.1418533      50218.233      36.893836      36.893836      36.893836    
    609000   0.5226978     -7.753837      -6.9698015      4.1490207      50218.233      36.893836      36.893836      36.893836    
    610000   0.52848186    -7.7524956     -6.959784       4.1641553      50218.233      36.893836      36.893836      36.893836    
    611000   0.52329818    -7.7491543     -6.9642182      4.1771706      50218.233      36.893836      36.893836      36.893836    
    612000   0.52469364    -7.7543324     -6.9673031      4.1330998      50218.233      36.893836      36.893836      36.893836    
    613000   0.52347104    -7.7521809     -6.9669855      4.1584905      50218.233      36.893836      36.893836      36.893836    
    614000   0.52372062    -7.7548687     -6.9692989      4.1401241      50218.233      36.893836      36.893836      36.893836    
    615000   0.52677345    -7.7557231     -6.9655742      4.1431204      50218.233      36.893836      36.893836      36.893836    
    616000   0.52577426    -7.757327      -6.9686768      4.1260877      50218.233      36.893836      36.893836      36.893836    
    617000   0.52533957    -7.7533825     -6.9653844      4.1549632      50218.233      36.893836      36.893836      36.893836    
    618000   0.52132437    -7.7490303     -6.9670549      4.1706926      50218.233      36.893836      36.893836      36.893836    
    619000   0.52650495    -7.7504883     -6.9607422      4.1698         50218.233      36.893836      36.893836      36.893836    
    620000   0.5257691     -7.7539506     -6.9653082      4.1511067      50218.233      36.893836      36.893836      36.893836    
    621000   0.52737001    -7.7526096     -6.9615658      4.1530368      50218.233      36.893836      36.893836      36.893836    
    622000   0.52557545    -7.7539149     -6.9655629      4.1376513      50218.233      36.893836      36.893836      36.893836    
    623000   0.52627938    -7.7500436     -6.9606358      4.17106        50218.233      36.893836      36.893836      36.893836    
    624000   0.52596407    -7.7538613     -6.9649264      4.1592312      50218.233      36.893836      36.893836      36.893836    
    625000   0.52615603    -7.7527796     -6.9635568      4.1603802      50218.233      36.893836      36.893836      36.893836    
    626000   0.52414781    -7.7520786     -6.9658681      4.1629477      50218.233      36.893836      36.893836      36.893836    
    627000   0.52282922    -7.7551422     -6.9709095      4.1324372      50218.233      36.893836      36.893836      36.893836    
    628000   0.52312531    -7.7492412     -6.9645644      4.1832165      50218.233      36.893836      36.893836      36.893836    
    629000   0.52201371    -7.7539267     -6.9709173      4.1534223      50218.233      36.893836      36.893836      36.893836    
    630000   0.52468514    -7.7545317     -6.9675152      4.1442017      50218.233      36.893836      36.893836      36.893836    
    631000   0.52704665    -7.7530827     -6.962524       4.1560289      50218.233      36.893836      36.893836      36.893836    
    632000   0.52473056    -7.7514638     -6.9643791      4.1644512      50218.233      36.893836      36.893836      36.893836    
    633000   0.52398602    -7.7552277     -6.9692599      4.1394699      50218.233      36.893836      36.893836      36.893836    
    634000   0.52697269    -7.7540701     -6.9636223      4.1334906      50218.233      36.893836      36.893836      36.893836    
    635000   0.52096698    -7.7535842     -6.9721448      4.1341471      50218.233      36.893836      36.893836      36.893836    
    636000   0.52484948    -7.7560039     -6.9687409      4.1371586      50218.233      36.893836      36.893836      36.893836    
    637000   0.5264355     -7.7534683     -6.9638263      4.1467522      50218.233      36.893836      36.893836      36.893836    
    638000   0.52470986    -7.7555761     -6.9685225      4.1268058      50218.233      36.893836      36.893836      36.893836    
    639000   0.524398      -7.7545748     -6.967989       4.1362005      50218.233      36.893836      36.893836      36.893836    
    640000   0.52625646    -7.7585901     -6.9692166      4.1135263      50218.233      36.893836      36.893836      36.893836    
    641000   0.52421514    -7.7536121     -6.9673006      4.141837       50218.233      36.893836      36.893836      36.893836    
    642000   0.52785614    -7.7554553     -6.9636824      4.1444881      50218.233      36.893836      36.893836      36.893836    
    643000   0.52694228    -7.7602376     -6.9698354      4.1040327      50218.233      36.893836      36.893836      36.893836    
    644000   0.52482914    -7.7561415     -6.968909       4.1260761      50218.233      36.893836      36.893836      36.893836    
    645000   0.52605491    -7.7557014     -6.9666302      4.1272558      50218.233      36.893836      36.893836      36.893836    
    646000   0.52840724    -7.7491726     -6.956573       4.1786484      50218.233      36.893836      36.893836      36.893836    
    647000   0.52180228    -7.758376      -6.9756837      4.1085132      50218.233      36.893836      36.893836      36.893836    
    648000   0.52088152    -7.7569437     -6.9756325      4.1122738      50218.233      36.893836      36.893836      36.893836    
    649000   0.52628285    -7.755951      -6.966538       4.1295618      50218.233      36.893836      36.893836      36.893836    
    650000   0.52630759    -7.7580079     -6.9685578      4.1197672      50218.233      36.893836      36.893836      36.893836    
    651000   0.52609968    -7.7592416     -6.9701033      4.1096927      50218.233      36.893836      36.893836      36.893836    
    652000   0.52503812    -7.759112      -6.971566       4.114342       50218.233      36.893836      36.893836      36.893836    
    653000   0.52802063    -7.7625697     -6.97055        4.0896203      50218.233      36.893836      36.893836      36.893836    
    654000   0.52639704    -7.7577983     -6.968214       4.1225179      50218.233      36.893836      36.893836      36.893836    
    655000   0.52337885    -7.7578461     -6.972789       4.1152961      50218.233      36.893836      36.893836      36.893836    
    656000   0.52404339    -7.7543337     -6.9682798      4.1425748      50218.233      36.893836      36.893836      36.893836    
    657000   0.52531942    -7.7554881     -6.9675201      4.1319012      50218.233      36.893836      36.893836      36.893836    
    658000   0.52271129    -7.7527579     -6.9687021      4.147283       50218.233      36.893836      36.893836      36.893836    
    659000   0.52742697    -7.7556093     -6.9644801      4.1359566      50218.233      36.893836      36.893836      36.893836    
    660000   0.52607664    -7.7534842     -6.9643804      4.1452237      50218.233      36.893836      36.893836      36.893836    
    661000   0.52409433    -7.7566691     -6.9705388      4.1219315      50218.233      36.893836      36.893836      36.893836    
    662000   0.5246456     -7.755855      -6.9688978      4.1360575      50218.233      36.893836      36.893836      36.893836    
    663000   0.52508355    -7.7577589     -6.9701448      4.1237296      50218.233      36.893836      36.893836      36.893836    
    664000   0.52716709    -7.7586454     -6.967906       4.1214433      50218.233      36.893836      36.893836      36.893836    
    665000   0.52798162    -7.7601876     -6.9682264      4.1017925      50218.233      36.893836      36.893836      36.893836    
    666000   0.52259919    -7.751977      -6.9680893      4.1485036      50218.233      36.893836      36.893836      36.893836    
    667000   0.5233907     -7.752991      -6.9679162      4.1482256      50218.233      36.893836      36.893836      36.893836    
    668000   0.52247386    -7.7567492     -6.9730496      4.1076023      50218.233      36.893836      36.893836      36.893836    
    669000   0.52660531    -7.759381      -6.9694843      4.0910162      50218.233      36.893836      36.893836      36.893836    
    670000   0.530389      -7.755714      -6.9601418      4.1406394      50218.233      36.893836      36.893836      36.893836    
    671000   0.52556805    -7.7553952     -6.9670543      4.1336544      50218.233      36.893836      36.893836      36.893836    
    672000   0.52631834    -7.7586668     -6.9692005      4.1070897      50218.233      36.893836      36.893836      36.893836    
    673000   0.52423083    -7.7514621     -6.9651271      4.1655312      50218.233      36.893836      36.893836      36.893836    
    674000   0.52448533    -7.7538083     -6.9670915      4.1413515      50218.233      36.893836      36.893836      36.893836    
    675000   0.5226447     -7.7555464     -6.9715906      4.1270052      50218.233      36.893836      36.893836      36.893836    
    676000   0.52881823    -7.7527868     -6.9595708      4.1603154      50218.233      36.893836      36.893836      36.893836    
    677000   0.52375845    -7.760561      -6.9749345      4.092912       50218.233      36.893836      36.893836      36.893836    
    678000   0.5231329     -7.7539836     -6.9692954      4.1408851      50218.233      36.893836      36.893836      36.893836    
    679000   0.52678653    -7.7520144     -6.9618458      4.1744261      50218.233      36.893836      36.893836      36.893836    
    680000   0.52418189    -7.7578586     -6.9715969      4.1071308      50218.233      36.893836      36.893836      36.893836    
    681000   0.5275805     -7.7525341     -6.9611746      4.1512567      50218.233      36.893836      36.893836      36.893836    
    682000   0.52658989    -7.757061      -6.9671874      4.1113043      50218.233      36.893836      36.893836      36.893836    
    683000   0.5237082     -7.7562023     -6.9706511      4.1325573      50218.233      36.893836      36.893836      36.893836    
    684000   0.52117821    -7.7607351     -6.9789789      4.085548       50218.233      36.893836      36.893836      36.893836    
    685000   0.52537624    -7.7537788     -6.9657257      4.1504261      50218.233      36.893836      36.893836      36.893836    
    686000   0.52301109    -7.7574621     -6.9729566      4.1059357      50218.233      36.893836      36.893836      36.893836    
    687000   0.52485013    -7.7545987     -6.9673348      4.1396224      50218.233      36.893836      36.893836      36.893836    
    688000   0.52636532    -7.7567007     -6.967164       4.1305218      50218.233      36.893836      36.893836      36.893836    
    689000   0.52537579    -7.7559741     -6.9679216      4.1221618      50218.233      36.893836      36.893836      36.893836    
    690000   0.52448296    -7.7592228     -6.9725096      4.101377       50218.233      36.893836      36.893836      36.893836    
    691000   0.52349241    -7.7534389     -6.9682115      4.1476504      50218.233      36.893836      36.893836      36.893836    
    692000   0.5248834     -7.7552975     -6.9679836      4.135689       50218.233      36.893836      36.893836      36.893836    
    693000   0.52537622    -7.7584156     -6.9703625      4.1199661      50218.233      36.893836      36.893836      36.893836    
    694000   0.52174069    -7.7591017     -6.9765018      4.0990949      50218.233      36.893836      36.893836      36.893836    
    695000   0.52617721    -7.7581358     -6.9688812      4.1103374      50218.233      36.893836      36.893836      36.893836    
    696000   0.52607974    -7.7580195     -6.9689111      4.1055741      50218.233      36.893836      36.893836      36.893836    
    697000   0.5274754     -7.7556702     -6.9644684      4.1356539      50218.233      36.893836      36.893836      36.893836    
    698000   0.52526791    -7.7638348     -6.9759441      4.0683309      50218.233      36.893836      36.893836      36.893836    
    699000   0.52459117    -7.7538498     -6.9669743      4.1323314      50218.233      36.893836      36.893836      36.893836    
    700000   0.52385941    -7.7595862     -6.9738083      4.1042686      50218.233      36.893836      36.893836      36.893836    
    701000   0.52544239    -7.7533801     -6.9652278      4.1451144      50218.233      36.893836      36.893836      36.893836    
    702000   0.52715417    -7.7575274     -6.9668074      4.1188033      50218.233      36.893836      36.893836      36.893836    
    703000   0.52505427    -7.7536301     -6.9660599      4.1612053      50218.233      36.893836      36.893836      36.893836    
    704000   0.52147908    -7.7543991     -6.9721916      4.1258622      50218.233      36.893836      36.893836      36.893836    
    705000   0.52480445    -7.7568935     -6.969698       4.1329645      50218.233      36.893836      36.893836      36.893836    
    706000   0.52345141    -7.7563276     -6.9711616      4.1205293      50218.233      36.893836      36.893836      36.893836    
    707000   0.5241944     -7.7566356     -6.9703552      4.1144102      50218.233      36.893836      36.893836      36.893836    
    708000   0.52481597    -7.7569704     -6.9697577      4.1224431      50218.233      36.893836      36.893836      36.893836    
    709000   0.52461978    -7.7537579     -6.9668394      4.1486905      50218.233      36.893836      36.893836      36.893836    
    710000   0.52638361    -7.760377      -6.9708128      4.0914483      50218.233      36.893836      36.893836      36.893836    
    711000   0.52279628    -7.7590662     -6.9748829      4.0935954      50218.233      36.893836      36.893836      36.893836    
    712000   0.52599439    -7.7579941     -6.9690138      4.1054591      50218.233      36.893836      36.893836      36.893836    
    713000   0.52360629    -7.7552214     -6.9698231      4.1212289      50218.233      36.893836      36.893836      36.893836    
    714000   0.52218699    -7.7551771     -6.9719077      4.1340944      50218.233      36.893836      36.893836      36.893836    
    715000   0.52461899    -7.7523132     -6.9653959      4.1481086      50218.233      36.893836      36.893836      36.893836    
    716000   0.52293214    -7.753223      -6.9688359      4.1478063      50218.233      36.893836      36.893836      36.893836    
    717000   0.52388337    -7.7567591     -6.9709452      4.1139105      50218.233      36.893836      36.893836      36.893836    
    718000   0.52494808    -7.7552367     -6.9678258      4.1321805      50218.233      36.893836      36.893836      36.893836    
    719000   0.52616886    -7.7555063     -6.9662643      4.1318073      50218.233      36.893836      36.893836      36.893836    
    720000   0.52582727    -7.7564748     -6.9677451      4.1204757      50218.233      36.893836      36.893836      36.893836    
    721000   0.5249033     -7.7562755     -6.9689317      4.1235005      50218.233      36.893836      36.893836      36.893836    
    722000   0.52594818    -7.7508702     -6.9619592      4.1678068      50218.233      36.893836      36.893836      36.893836    
    723000   0.5273376     -7.7568498     -6.9658547      4.1206764      50218.233      36.893836      36.893836      36.893836    
    724000   0.5258967     -7.7534929     -6.9646591      4.1530329      50218.233      36.893836      36.893836      36.893836    
    725000   0.52147843    -7.760392      -6.9781855      4.0930725      50218.233      36.893836      36.893836      36.893836    
    726000   0.52572429    -7.7585586     -6.9699834      4.1165564      50218.233      36.893836      36.893836      36.893836    
    727000   0.52439094    -7.7525756     -6.9660004      4.159543       50218.233      36.893836      36.893836      36.893836    
    728000   0.52619649    -7.7516338     -6.9623503      4.1621031      50218.233      36.893836      36.893836      36.893836    
    729000   0.52567633    -7.7523127     -6.9638094      4.1539593      50218.233      36.893836      36.893836      36.893836    
    730000   0.52499761    -7.7525808     -6.9650956      4.1602086      50218.233      36.893836      36.893836      36.893836    
    731000   0.525174      -7.7526418     -6.964892       4.1561485      50218.233      36.893836      36.893836      36.893836    
    732000   0.52621742    -7.7537112     -6.9643963      4.1580084      50218.233      36.893836      36.893836      36.893836    
    733000   0.52622978    -7.7553598     -6.9660263      4.1338131      50218.233      36.893836      36.893836      36.893836    
    734000   0.52635382    -7.7581205     -6.968601       4.1277729      50218.233      36.893836      36.893836      36.893836    
    735000   0.52617283    -7.7562147     -6.9669667      4.1168307      50218.233      36.893836      36.893836      36.893836    
    736000   0.52284486    -7.756744      -6.9724879      4.1247963      50218.233      36.893836      36.893836      36.893836    
    737000   0.52506723    -7.7550825     -6.9674928      4.1394017      50218.233      36.893836      36.893836      36.893836    
    738000   0.52587554    -7.7536398     -6.9648377      4.1454149      50218.233      36.893836      36.893836      36.893836    
    739000   0.52644116    -7.7554838     -6.9658333      4.1299325      50218.233      36.893836      36.893836      36.893836    
    740000   0.52266607    -7.7546771     -6.9706891      4.1415969      50218.233      36.893836      36.893836      36.893836    
    741000   0.52518891    -7.7513049     -6.9635327      4.1608486      50218.233      36.893836      36.893836      36.893836    
    742000   0.52400279    -7.7577732     -6.9717801      4.1209848      50218.233      36.893836      36.893836      36.893836    
    743000   0.52533382    -7.7586199     -6.9706303      4.1087092      50218.233      36.893836      36.893836      36.893836    
    744000   0.52650192    -7.7546714     -6.9649298      4.1365812      50218.233      36.893836      36.893836      36.893836    
    745000   0.52499179    -7.7580046     -6.9705281      4.1188543      50218.233      36.893836      36.893836      36.893836    
    746000   0.52172204    -7.7538416     -6.9712697      4.137991       50218.233      36.893836      36.893836      36.893836    
    747000   0.52618536    -7.7556125     -6.9663457      4.1289954      50218.233      36.893836      36.893836      36.893836    
    748000   0.52170926    -7.7581922     -6.9756394      4.1012471      50218.233      36.893836      36.893836      36.893836    
    749000   0.52893088    -7.7564966     -6.9631116      4.1315734      50218.233      36.893836      36.893836      36.893836    
    750000   0.52479008    -7.7511649     -6.963991       4.1606914      50218.233      36.893836      36.893836      36.893836    
    751000   0.5251485     -7.7562027     -6.9684912      4.1324528      50218.233      36.893836      36.893836      36.893836    
    752000   0.52411868    -7.7550442     -6.9688773      4.1203548      50218.233      36.893836      36.893836      36.893836    
    753000   0.52288648    -7.7513312     -6.9670127      4.1569852      50218.233      36.893836      36.893836      36.893836    
    754000   0.52544492    -7.7586846     -6.9705285      4.0994373      50218.233      36.893836      36.893836      36.893836    
    755000   0.52618268    -7.757847      -6.9685842      4.100387       50218.233      36.893836      36.893836      36.893836    
    756000   0.52620603    -7.7529584     -6.9636606      4.1637064      50218.233      36.893836      36.893836      36.893836    
    757000   0.52442994    -7.7575043     -6.9708706      4.1171276      50218.233      36.893836      36.893836      36.893836    
    758000   0.52440467    -7.757684      -6.9710882      4.1181527      50218.233      36.893836      36.893836      36.893836    
    759000   0.52650956    -7.7534092     -6.9636561      4.1463882      50218.233      36.893836      36.893836      36.893836    
    760000   0.52616715    -7.756569      -6.9673295      4.1247074      50218.233      36.893836      36.893836      36.893836    
    761000   0.52506248    -7.754767      -6.9671845      4.1316528      50218.233      36.893836      36.893836      36.893836    
    762000   0.52642966    -7.7555049     -6.9658717      4.1351546      50218.233      36.893836      36.893836      36.893836    
    763000   0.52607977    -7.7559078     -6.9667994      4.1265704      50218.233      36.893836      36.893836      36.893836    
    764000   0.5243351     -7.7557421     -6.9692507      4.1274213      50218.233      36.893836      36.893836      36.893836    
    765000   0.52649193    -7.7552935     -6.9655669      4.1374039      50218.233      36.893836      36.893836      36.893836    
    766000   0.52716608    -7.7539674     -6.9632295      4.1449464      50218.233      36.893836      36.893836      36.893836    
    767000   0.52589124    -7.7554482     -6.9666225      4.1326109      50218.233      36.893836      36.893836      36.893836    
    768000   0.52345351    -7.7557338     -6.9705647      4.1345354      50218.233      36.893836      36.893836      36.893836    
    769000   0.5263104     -7.7548757     -6.9654213      4.148055       50218.233      36.893836      36.893836      36.893836    
    770000   0.52584772    -7.7566494     -6.9678891      4.1270926      50218.233      36.893836      36.893836      36.893836    
    771000   0.52413463    -7.7536211     -6.9674303      4.1377431      50218.233      36.893836      36.893836      36.893836    
    772000   0.52354845    -7.7555714     -6.9702599      4.1261966      50218.233      36.893836      36.893836      36.893836    
    773000   0.52484616    -7.7572544     -6.9699964      4.1211851      50218.233      36.893836      36.893836      36.893836    
    774000   0.52613458    -7.7539985     -6.9648079      4.1617544      50218.233      36.893836      36.893836      36.893836    
    775000   0.52532304    -7.7536262     -6.9656528      4.1457413      50218.233      36.893836      36.893836      36.893836    
    776000   0.52525311    -7.7558729     -6.9680045      4.1276825      50218.233      36.893836      36.893836      36.893836    
    777000   0.52401345    -7.7538988     -6.9678898      4.1428416      50218.233      36.893836      36.893836      36.893836    
    778000   0.52416625    -7.7526531     -6.9664149      4.153003       50218.233      36.893836      36.893836      36.893836    
    779000   0.524844      -7.7554637     -6.9682089      4.1394394      50218.233      36.893836      36.893836      36.893836    
    780000   0.52495619    -7.755663      -6.9682399      4.1352421      50218.233      36.893836      36.893836      36.893836    
    781000   0.52587788    -7.7563338     -6.9675282      4.1236634      50218.233      36.893836      36.893836      36.893836    
    782000   0.52792656    -7.7540084     -6.9621299      4.1427184      50218.233      36.893836      36.893836      36.893836    
    783000   0.52313004    -7.7591226     -6.9744387      4.1042075      50218.233      36.893836      36.893836      36.893836    
    784000   0.52382879    -7.7519797     -6.9662477      4.1548461      50218.233      36.893836      36.893836      36.893836    
    785000   0.52526249    -7.7572938     -6.9694113      4.1079085      50218.233      36.893836      36.893836      36.893836    
    786000   0.52548842    -7.7596767     -6.9714553      4.0996613      50218.233      36.893836      36.893836      36.893836    
    787000   0.52410138    -7.756038      -6.9698971      4.1244967      50218.233      36.893836      36.893836      36.893836    
    788000   0.52369594    -7.7565334     -6.9710007      4.1230804      50218.233      36.893836      36.893836      36.893836    
    789000   0.52260113    -7.7604037     -6.9765131      4.0921193      50218.233      36.893836      36.893836      36.893836    
    790000   0.52487998    -7.7527088     -6.9654001      4.1577603      50218.233      36.893836      36.893836      36.893836    
    791000   0.52266128    -7.7514856     -6.9675048      4.1574175      50218.233      36.893836      36.893836      36.893836    
    792000   0.52188024    -7.7562309     -6.9734217      4.1268912      50218.233      36.893836      36.893836      36.893836    
    793000   0.52534554    -7.7525255     -6.9645184      4.1589107      50218.233      36.893836      36.893836      36.893836    
    794000   0.52095522    -7.7537692     -6.9723475      4.128604       50218.233      36.893836      36.893836      36.893836    
    795000   0.52483594    -7.7589788     -6.971736       4.0945235      50218.233      36.893836      36.893836      36.893836    
    796000   0.52752535    -7.7583231     -6.9670463      4.1119146      50218.233      36.893836      36.893836      36.893836    
    797000   0.52358567    -7.7570832     -6.9717158      4.1158416      50218.233      36.893836      36.893836      36.893836    
    798000   0.52355324    -7.7533873     -6.9680686      4.1445524      50218.233      36.893836      36.893836      36.893836    
    799000   0.52710763    -7.7599677     -6.9693175      4.1009534      50218.233      36.893836      36.893836      36.893836    
    800000   0.52617471    -7.7544864     -6.9652355      4.1284307      50218.233      36.893836      36.893836      36.893836    
    801000   0.52458797    -7.7557856     -6.9689148      4.1303615      50218.233      36.893836      36.893836      36.893836    
    802000   0.52695681    -7.7580021     -6.9675781      4.1121362      50218.233      36.893836      36.893836      36.893836    
    803000   0.52429078    -7.7531155     -6.9666905      4.1572657      50218.233      36.893836      36.893836      36.893836    
    804000   0.52517309    -7.7563648     -6.9686164      4.1211096      50218.233      36.893836      36.893836      36.893836    
    805000   0.52311014    -7.7568529     -6.9721989      4.1198186      50218.233      36.893836      36.893836      36.893836    
    806000   0.52650508    -7.7525389     -6.9627925      4.1560128      50218.233      36.893836      36.893836      36.893836    
    807000   0.52713327    -7.7510803     -6.9603917      4.1558         50218.233      36.893836      36.893836      36.893836    
    808000   0.52541605    -7.7590834     -6.9709705      4.0974306      50218.233      36.893836      36.893836      36.893836    
    809000   0.5247702     -7.7578388     -6.9706947      4.1170044      50218.233      36.893836      36.893836      36.893836    
    810000   0.52546724    -7.7502502     -6.9620606      4.1551566      50218.233      36.893836      36.893836      36.893836    
    811000   0.52504552    -7.7574558     -6.9698988      4.1160214      50218.233      36.893836      36.893836      36.893836    
    812000   0.5274934     -7.755352      -6.9641232      4.1367948      50218.233      36.893836      36.893836      36.893836    
    813000   0.52580368    -7.757361      -6.9686667      4.1151556      50218.233      36.893836      36.893836      36.893836    
    814000   0.52524168    -7.7536908     -6.9658395      4.1376084      50218.233      36.893836      36.893836      36.893836    
    815000   0.52391685    -7.7556903     -6.9698262      4.1261764      50218.233      36.893836      36.893836      36.893836    
    816000   0.52617862    -7.7564746     -6.9672179      4.1304344      50218.233      36.893836      36.893836      36.893836    
    817000   0.52557463    -7.7554093     -6.9670586      4.1382752      50218.233      36.893836      36.893836      36.893836    
    818000   0.52457724    -7.7541565     -6.9673018      4.1320409      50218.233      36.893836      36.893836      36.893836    
    819000   0.52581603    -7.7549399     -6.9662271      4.1307805      50218.233      36.893836      36.893836      36.893836    
    820000   0.52165174    -7.7538669     -6.9714004      4.1323029      50218.233      36.893836      36.893836      36.893836    
    821000   0.52554932    -7.757444      -6.9691312      4.1182305      50218.233      36.893836      36.893836      36.893836    
    822000   0.52094083    -7.7546918     -6.9732916      4.1373767      50218.233      36.893836      36.893836      36.893836    
    823000   0.52106142    -7.7523691     -6.9707881      4.1386169      50218.233      36.893836      36.893836      36.893836    
    824000   0.5233352     -7.7532445     -6.9682529      4.1390474      50218.233      36.893836      36.893836      36.893836    
    825000   0.5259218     -7.7527703     -6.9638988      4.1569976      50218.233      36.893836      36.893836      36.893836    
    826000   0.52529243    -7.7570517     -6.9691243      4.1178145      50218.233      36.893836      36.893836      36.893836    
    827000   0.52764442    -7.7546488     -6.9631935      4.1388513      50218.233      36.893836      36.893836      36.893836    
    828000   0.5235082     -7.7539244     -6.9686732      4.1443845      50218.233      36.893836      36.893836      36.893836    
    829000   0.52831132    -7.7555284     -6.9630727      4.1416588      50218.233      36.893836      36.893836      36.893836    
    830000   0.52455815    -7.7512536     -6.9644275      4.1606691      50218.233      36.893836      36.893836      36.893836    
    831000   0.52615332    -7.7541896     -6.9649708      4.1372727      50218.233      36.893836      36.893836      36.893836    
    832000   0.52677805    -7.7522332     -6.9620774      4.1545462      50218.233      36.893836      36.893836      36.893836    
    833000   0.52250411    -7.7527241     -6.9689791      4.1517874      50218.233      36.893836      36.893836      36.893836    
    834000   0.52227481    -7.7540852     -6.9706841      4.1343031      50218.233      36.893836      36.893836      36.893836    
    835000   0.52689724    -7.7538451     -6.9635105      4.147358       50218.233      36.893836      36.893836      36.893836    
    836000   0.52604568    -7.7560981     -6.9670408      4.1272516      50218.233      36.893836      36.893836      36.893836    
    837000   0.52521187    -7.7582318     -6.9704252      4.1072427      50218.233      36.893836      36.893836      36.893836    
    838000   0.52518245    -7.7588245     -6.971062       4.1042298      50218.233      36.893836      36.893836      36.893836    
    839000   0.52347751    -7.7581127     -6.9729076      4.1192988      50218.233      36.893836      36.893836      36.893836    
    840000   0.52589874    -7.7568646     -6.9680277      4.1349456      50218.233      36.893836      36.893836      36.893836    
    841000   0.52248181    -7.7591359     -6.9754243      4.0988309      50218.233      36.893836      36.893836      36.893836    
    842000   0.52369348    -7.7511973     -6.9656682      4.1654003      50218.233      36.893836      36.893836      36.893836    
    843000   0.52704251    -7.7574374     -6.9668849      4.1305537      50218.233      36.893836      36.893836      36.893836    
    844000   0.52560225    -7.7572195     -6.9688273      4.1195679      50218.233      36.893836      36.893836      36.893836    
    845000   0.52560217    -7.7593998     -6.9710078      4.0907623      50218.233      36.893836      36.893836      36.893836    
    846000   0.52479949    -7.7560614     -6.9688733      4.1255888      50218.233      36.893836      36.893836      36.893836    
    847000   0.5244979     -7.7537788     -6.9670431      4.1557047      50218.233      36.893836      36.893836      36.893836    
    848000   0.52544531    -7.757445      -6.9692882      4.1195094      50218.233      36.893836      36.893836      36.893836    
    849000   0.52364711    -7.7558744     -6.970415       4.118633       50218.233      36.893836      36.893836      36.893836    
    850000   0.52630803    -7.7550883     -6.9656375      4.142141       50218.233      36.893836      36.893836      36.893836    
    851000   0.52557287    -7.7578244     -6.9694763      4.1128209      50218.233      36.893836      36.893836      36.893836    
    852000   0.52520559    -7.7513753     -6.9635781      4.1659366      50218.233      36.893836      36.893836      36.893836    
    853000   0.52593734    -7.7504461     -6.9615513      4.1736251      50218.233      36.893836      36.893836      36.893836    
    854000   0.52272406    -7.7588189     -6.974744       4.1094447      50218.233      36.893836      36.893836      36.893836    
    855000   0.52590147    -7.7544107     -6.9655697      4.1430492      50218.233      36.893836      36.893836      36.893836    
    856000   0.52609108    -7.749697      -6.9605716      4.1687462      50218.233      36.893836      36.893836      36.893836    
    857000   0.52416515    -7.753155      -6.9669184      4.1370223      50218.233      36.893836      36.893836      36.893836    
    858000   0.52495908    -7.7529609     -6.9655335      4.1583754      50218.233      36.893836      36.893836      36.893836    
    859000   0.52570048    -7.7564471     -6.9679076      4.127743       50218.233      36.893836      36.893836      36.893836    
    860000   0.52475229    -7.7543071     -6.9671899      4.1461382      50218.233      36.893836      36.893836      36.893836    
    861000   0.52603181    -7.7520395     -6.9630031      4.1580273      50218.233      36.893836      36.893836      36.893836    
    862000   0.529994      -7.7550362     -6.9600565      4.1483679      50218.233      36.893836      36.893836      36.893836    
    863000   0.52533988    -7.7488404     -6.9608418      4.1807947      50218.233      36.893836      36.893836      36.893836    
    864000   0.52682862    -7.7552827     -6.965051       4.1329599      50218.233      36.893836      36.893836      36.893836    
    865000   0.52618617    -7.750412      -6.9611439      4.1709902      50218.233      36.893836      36.893836      36.893836    
    866000   0.52478868    -7.7543767     -6.9672048      4.1461891      50218.233      36.893836      36.893836      36.893836    
    867000   0.52302525    -7.7548407     -6.970314       4.1367067      50218.233      36.893836      36.893836      36.893836    
    868000   0.52383741    -7.7532685     -6.9675235      4.1541981      50218.233      36.893836      36.893836      36.893836    
    869000   0.52149518    -7.7527949     -6.9705633      4.1428466      50218.233      36.893836      36.893836      36.893836    
    870000   0.52664826    -7.7546486     -6.9646874      4.1444635      50218.233      36.893836      36.893836      36.893836    
    871000   0.52370331    -7.748547      -6.9630032      4.172773       50218.233      36.893836      36.893836      36.893836    
    872000   0.52364756    -7.7571252     -6.9716651      4.1098804      50218.233      36.893836      36.893836      36.893836    
    873000   0.52467141    -7.7537239     -6.966728       4.1581564      50218.233      36.893836      36.893836      36.893836    
    874000   0.52699021    -7.7525914     -6.9621174      4.1502824      50218.233      36.893836      36.893836      36.893836    
    875000   0.52120754    -7.7529078     -6.9711076      4.1563302      50218.233      36.893836      36.893836      36.893836    
    876000   0.52357041    -7.7558156     -6.9704712      4.121857       50218.233      36.893836      36.893836      36.893836    
    877000   0.52396763    -7.7570535     -6.9711133      4.1230696      50218.233      36.893836      36.893836      36.893836    
    878000   0.52316406    -7.7538691     -6.9691342      4.1448373      50218.233      36.893836      36.893836      36.893836    
    879000   0.52322772    -7.7532215     -6.9683911      4.1509922      50218.233      36.893836      36.893836      36.893836    
    880000   0.52252394    -7.7568982     -6.9731235      4.1192384      50218.233      36.893836      36.893836      36.893836    
    881000   0.52405697    -7.7512185     -6.9651443      4.164527       50218.233      36.893836      36.893836      36.893836    
    882000   0.52499155    -7.7511698     -6.9636937      4.1681841      50218.233      36.893836      36.893836      36.893836    
    883000   0.52468081    -7.7524876     -6.9654776      4.1492797      50218.233      36.893836      36.893836      36.893836    
    884000   0.52353312    -7.7558226     -6.9705341      4.1343598      50218.233      36.893836      36.893836      36.893836    
    885000   0.52301843    -7.7547256     -6.9702091      4.140236       50218.233      36.893836      36.893836      36.893836    
    886000   0.52264762    -7.7553317     -6.9713714      4.1249575      50218.233      36.893836      36.893836      36.893836    
    887000   0.52496179    -7.754322      -6.9668905      4.1458872      50218.233      36.893836      36.893836      36.893836    
    888000   0.52429408    -7.7551498     -6.9687198      4.1203837      50218.233      36.893836      36.893836      36.893836    
    889000   0.52449187    -7.7582054     -6.9714788      4.0985225      50218.233      36.893836      36.893836      36.893836    
    890000   0.52628494    -7.7596139     -6.9701978      4.1033443      50218.233      36.893836      36.893836      36.893836    
    891000   0.52866918    -7.7563749     -6.9633824      4.1290846      50218.233      36.893836      36.893836      36.893836    
    892000   0.52417666    -7.7520061     -6.9657522      4.15982        50218.233      36.893836      36.893836      36.893836    
    893000   0.52388248    -7.7582284     -6.9724159      4.1042947      50218.233      36.893836      36.893836      36.893836    
    894000   0.52840716    -7.751511      -6.9589115      4.1629623      50218.233      36.893836      36.893836      36.893836    
    895000   0.52460116    -7.7569205     -6.97003        4.1329285      50218.233      36.893836      36.893836      36.893836    
    896000   0.52622258    -7.7531047     -6.963782       4.1413239      50218.233      36.893836      36.893836      36.893836    
    897000   0.52805189    -7.7564745     -6.964408       4.1262831      50218.233      36.893836      36.893836      36.893836    
    898000   0.52465924    -7.756535      -6.9695573      4.1274929      50218.233      36.893836      36.893836      36.893836    
    899000   0.52636414    -7.756523      -6.9669881      4.1257388      50218.233      36.893836      36.893836      36.893836    
    900000   0.5261686     -7.7538966     -6.964655       4.1470076      50218.233      36.893836      36.893836      36.893836    
    901000   0.52753962    -7.759822      -6.9685238      4.0953175      50218.233      36.893836      36.893836      36.893836    
    902000   0.52528168    -7.757852      -6.9699407      4.1133001      50218.233      36.893836      36.893836      36.893836    
    903000   0.52456342    -7.7575369     -6.970703       4.1152537      50218.233      36.893836      36.893836      36.893836    
    904000   0.52615597    -7.755687      -6.9664643      4.1404403      50218.233      36.893836      36.893836      36.893836    
    905000   0.52432108    -7.7528228     -6.9663524      4.1443312      50218.233      36.893836      36.893836      36.893836    
    906000   0.52598668    -7.7491556     -6.9601868      4.1831219      50218.233      36.893836      36.893836      36.893836    
    907000   0.5279833     -7.75623       -6.9642663      4.1431517      50218.233      36.893836      36.893836      36.893836    
    908000   0.52326465    -7.7563104     -6.9714246      4.135971       50218.233      36.893836      36.893836      36.893836    
    909000   0.52379575    -7.7523355     -6.966653       4.1614769      50218.233      36.893836      36.893836      36.893836    
    910000   0.52662585    -7.7598328     -6.9699053      4.094432       50218.233      36.893836      36.893836      36.893836    
    911000   0.52369976    -7.7555971     -6.9700586      4.1359038      50218.233      36.893836      36.893836      36.893836    
    912000   0.52404574    -7.7526829     -6.9666255      4.1514414      50218.233      36.893836      36.893836      36.893836    
    913000   0.52570563    -7.7553502     -6.966803       4.1237338      50218.233      36.893836      36.893836      36.893836    
    914000   0.52678395    -7.7515893     -6.9614247      4.1763674      50218.233      36.893836      36.893836      36.893836    
    915000   0.52543106    -7.7577706     -6.9696352      4.1224698      50218.233      36.893836      36.893836      36.893836    
    916000   0.52709111    -7.7554409     -6.9648155      4.1416846      50218.233      36.893836      36.893836      36.893836    
    917000   0.52331617    -7.7529111     -6.967948       4.1497355      50218.233      36.893836      36.893836      36.893836    
    918000   0.52589188    -7.7505996     -6.961773       4.1622652      50218.233      36.893836      36.893836      36.893836    
    919000   0.52471068    -7.7535542     -6.9664994      4.1466207      50218.233      36.893836      36.893836      36.893836    
    920000   0.52189286    -7.7533734     -6.9705453      4.1423094      50218.233      36.893836      36.893836      36.893836    
    921000   0.52506856    -7.7494923     -6.9619006      4.1850426      50218.233      36.893836      36.893836      36.893836    
    922000   0.52695398    -7.752146      -6.9617262      4.1574929      50218.233      36.893836      36.893836      36.893836    
    923000   0.524797      -7.7536611     -6.9664768      4.14235        50218.233      36.893836      36.893836      36.893836    
    924000   0.52519209    -7.7498831     -6.9621061      4.1758696      50218.233      36.893836      36.893836      36.893836    
    925000   0.52673417    -7.7583875     -6.9682975      4.1114662      50218.233      36.893836      36.893836      36.893836    
    926000   0.5239524     -7.7531154     -6.9671979      4.1269551      50218.233      36.893836      36.893836      36.893836    
    927000   0.52691346    -7.7513898     -6.9610309      4.1590955      50218.233      36.893836      36.893836      36.893836    
    928000   0.52220846    -7.7529717     -6.9696701      4.1529171      50218.233      36.893836      36.893836      36.893836    
    929000   0.52400622    -7.7524336     -6.9664354      4.1435799      50218.233      36.893836      36.893836      36.893836    
    930000   0.52778479    -7.7524916     -6.9608257      4.1530355      50218.233      36.893836      36.893836      36.893836    
    931000   0.52414194    -7.7559533     -6.9697515      4.1326389      50218.233      36.893836      36.893836      36.893836    
    932000   0.52285481    -7.7546433     -6.9703722      4.1272591      50218.233      36.893836      36.893836      36.893836    
    933000   0.5267772     -7.7543518     -6.9641973      4.1409492      50218.233      36.893836      36.893836      36.893836    
    934000   0.52619374    -7.7536606     -6.9643813      4.1430984      50218.233      36.893836      36.893836      36.893836    
    935000   0.522224      -7.7554006     -6.9720758      4.1244437      50218.233      36.893836      36.893836      36.893836    
    936000   0.52402126    -7.7534354     -6.9674147      4.1437174      50218.233      36.893836      36.893836      36.893836    
    937000   0.52615299    -7.7533805     -6.9641622      4.1480597      50218.233      36.893836      36.893836      36.893836    
    938000   0.52640111    -7.7499107     -6.9603203      4.1749445      50218.233      36.893836      36.893836      36.893836    
    939000   0.52304064    -7.7517026     -6.9671528      4.1500695      50218.233      36.893836      36.893836      36.893836    
    940000   0.5286912     -7.7539884     -6.9609629      4.1442601      50218.233      36.893836      36.893836      36.893836    
    941000   0.52420804    -7.7589365     -6.9726357      4.1060361      50218.233      36.893836      36.893836      36.893836    
    942000   0.52449374    -7.7571565     -6.9704271      4.112268       50218.233      36.893836      36.893836      36.893836    
    943000   0.52640352    -7.7552207     -6.9656266      4.1349179      50218.233      36.893836      36.893836      36.893836    
    944000   0.52594368    -7.7502213     -6.961317       4.167951       50218.233      36.893836      36.893836      36.893836    
    945000   0.52370162    -7.7540276     -6.9684864      4.1292207      50218.233      36.893836      36.893836      36.893836    
    946000   0.52403435    -7.75453       -6.9684896      4.1452566      50218.233      36.893836      36.893836      36.893836    
    947000   0.52383453    -7.7514831     -6.9657425      4.1566625      50218.233      36.893836      36.893836      36.893836    
    948000   0.52487052    -7.7529031     -6.9656086      4.1582281      50218.233      36.893836      36.893836      36.893836    
    949000   0.52444531    -7.7534502     -6.9667935      4.1517752      50218.233      36.893836      36.893836      36.893836    
    950000   0.52704584    -7.7530029     -6.9624454      4.153401       50218.233      36.893836      36.893836      36.893836    
    951000   0.52477691    -7.7555005     -6.9683464      4.1300993      50218.233      36.893836      36.893836      36.893836    
    952000   0.52332445    -7.7534828     -6.9685073      4.1468107      50218.233      36.893836      36.893836      36.893836    
    953000   0.52218499    -7.7562788     -6.9730125      4.1202031      50218.233      36.893836      36.893836      36.893836    
    954000   0.52670468    -7.7569894     -6.9669437      4.1174304      50218.233      36.893836      36.893836      36.893836    
    955000   0.52408387    -7.7558225     -6.9697079      4.1376911      50218.233      36.893836      36.893836      36.893836    
    956000   0.52442391    -7.7543995     -6.9677748      4.1346642      50218.233      36.893836      36.893836      36.893836    
    957000   0.52558353    -7.757329      -6.9689649      4.1041999      50218.233      36.893836      36.893836      36.893836    
    958000   0.52477287    -7.7529071     -6.965759       4.1513444      50218.233      36.893836      36.893836      36.893836    
    959000   0.52324428    -7.7585578     -6.9737025      4.1008365      50218.233      36.893836      36.893836      36.893836    
    960000   0.52441042    -7.755603      -6.9689986      4.1277626      50218.233      36.893836      36.893836      36.893836    
    961000   0.52669634    -7.7541901     -6.9641569      4.1444333      50218.233      36.893836      36.893836      36.893836    
    962000   0.52502858    -7.7485263     -6.9609946      4.172493       50218.233      36.893836      36.893836      36.893836    
    963000   0.5288761     -7.7521877     -6.9588849      4.1529835      50218.233      36.893836      36.893836      36.893836    
    964000   0.52396652    -7.7558729     -6.9699343      4.1302329      50218.233      36.893836      36.893836      36.893836    
    965000   0.52718379    -7.7546585     -6.9638941      4.1268377      50218.233      36.893836      36.893836      36.893836    
    966000   0.52675823    -7.7524729     -6.9623468      4.1562241      50218.233      36.893836      36.893836      36.893836    
    967000   0.52673637    -7.7521435     -6.9620502      4.1524264      50218.233      36.893836      36.893836      36.893836    
    968000   0.52287253    -7.7500928     -6.9657952      4.1685602      50218.233      36.893836      36.893836      36.893836    
    969000   0.52601129    -7.7527956     -6.9637898      4.1526538      50218.233      36.893836      36.893836      36.893836    
    970000   0.52435132    -7.7525813     -6.9660655      4.1528631      50218.233      36.893836      36.893836      36.893836    
    971000   0.52454803    -7.7531144     -6.9663035      4.1461315      50218.233      36.893836      36.893836      36.893836    
    972000   0.52365747    -7.7529266     -6.9674515      4.1506344      50218.233      36.893836      36.893836      36.893836    
    973000   0.52637244    -7.7511101     -6.9615627      4.1721951      50218.233      36.893836      36.893836      36.893836    
    974000   0.52448174    -7.7532559     -6.9665445      4.1577003      50218.233      36.893836      36.893836      36.893836    
    975000   0.52597439    -7.7528537     -6.9639034      4.1700992      50218.233      36.893836      36.893836      36.893836    
    976000   0.5236489     -7.7542556     -6.9687934      4.1471505      50218.233      36.893836      36.893836      36.893836    
    977000   0.52447568    -7.7531031     -6.9664008      4.1626596      50218.233      36.893836      36.893836      36.893836    
    978000   0.52634025    -7.7564023     -6.9669032      4.1319936      50218.233      36.893836      36.893836      36.893836    
    979000   0.52231658    -7.7523101     -6.9688464      4.1564297      50218.233      36.893836      36.893836      36.893836    
    980000   0.52263134    -7.7524244     -6.9684885      4.1500755      50218.233      36.893836      36.893836      36.893836    
    981000   0.52442077    -7.751403      -6.964783       4.1570016      50218.233      36.893836      36.893836      36.893836    
    982000   0.52391848    -7.7499336     -6.964067       4.1714568      50218.233      36.893836      36.893836      36.893836    
    983000   0.52643751    -7.7530419     -6.9633968      4.1576669      50218.233      36.893836      36.893836      36.893836    
    984000   0.52339021    -7.7509906     -6.9659164      4.1591476      50218.233      36.893836      36.893836      36.893836    
    985000   0.52457333    -7.7565994     -6.9697506      4.1286645      50218.233      36.893836      36.893836      36.893836    
    986000   0.52579565    -7.7509214     -6.9622392      4.165527       50218.233      36.893836      36.893836      36.893836    
    987000   0.5264063     -7.7538793     -6.9642811      4.139502       50218.233      36.893836      36.893836      36.893836    
    988000   0.52453049    -7.75274       -6.9659555      4.1533332      50218.233      36.893836      36.893836      36.893836    
    989000   0.52214458    -7.7544778     -6.9712721      4.1345223      50218.233      36.893836      36.893836      36.893836    
    990000   0.52862249    -7.7491381     -6.9562157      4.1981168      50218.233      36.893836      36.893836      36.893836    
    991000   0.52286614    -7.7537577     -6.9694697      4.1477261      50218.233      36.893836      36.893836      36.893836    
    992000   0.52666426    -7.7493557     -6.9593706      4.1798447      50218.233      36.893836      36.893836      36.893836    
    993000   0.52574863    -7.7506549     -6.9620432      4.1628795      50218.233      36.893836      36.893836      36.893836    
    994000   0.52675528    -7.751834      -6.9617123      4.1709624      50218.233      36.893836      36.893836      36.893836    
    995000   0.52381485    -7.7500994     -6.9643883      4.1603139      50218.233      36.893836      36.893836      36.893836    
    996000   0.52718234    -7.7549911     -6.9642289      4.1404259      50218.233      36.893836      36.893836      36.893836    
    997000   0.52677892    -7.7515508     -6.9613936      4.1629079      50218.233      36.893836      36.893836      36.893836    
    998000   0.52465108    -7.7546441     -6.9676787      4.1469179      50218.233      36.893836      36.893836      36.893836    
    999000   0.52235498    -7.7540626     -6.9705412      4.1338329      50218.233      36.893836      36.893836      36.893836    
   1000000   0.52470246    -7.7554627     -6.9684202      4.1350992      50218.233      36.893836      36.893836      36.893836    
Loop time of 4274.29 on 1 procs for 1000000 steps with 70304 atoms

Performance: 202138.642 tau/day, 233.957 timesteps/s, 16.448 Matom-step/s
100.0% CPU use with 1 MPI tasks x 1 OpenMP threads

MPI task timing breakdown:
Section |  min time  |  avg time  |  max time  |%varavg| %total
---------------------------------------------------------------
Pair    | 1020.5     | 1020.5     | 1020.5     |   0.0 | 23.88
Neigh   | 40.418     | 40.418     | 40.418     |   0.0 |  0.95
Comm    | 510.3      | 510.3      | 510.3      |   0.0 | 11.94
Output  | 0.74763    | 0.74763    | 0.74763    |   0.0 |  0.02
Modify  | 2267.6     | 2267.6     | 2267.6     |   0.0 | 53.05
Other   |            | 434.7      |            |       | 10.17

Nlocal:          70304 ave       70304 max       70304 min
Histogram: 1 0 0 0 0 0 0 0 0 0
Nghost:          37140 ave       37140 max       37140 min
Histogram: 1 0 0 0 0 0 0 0 0 0
Neighs:              0 ave           0 max           0 min
Histogram: 1 0 0 0 0 0 0 0 0 0

Total # of neighbors = 0
Ave neighs/atom = 0
Neighbor list builds = 208923
Dangerous builds = 0
clear
OMP_NUM_THREADS environment is not set. Defaulting to 1 thread. (src/comm.cpp:98)
  using 1 OpenMP thread(s) per MPI task
package gpu 0
jump dms635.lmp

variable T equal 635
# T = 1000* (temp in LJ unit)
variable f equal 1000
log log.${T}
log log.635
