variable TLJ equal (${T}/1000)
variable TLJ equal (615/1000)
variable NCyle equal 10
variable iStep equal (${f})
variable iStep equal (1000)
variable dumpStep equal (${f}*100)
variable dumpStep equal (1000*100)
variable runStep equal (${f}*100*${NCyle})
variable runStep equal (1000*100*${NCyle})
variable runStep equal (1000*100*10)

units       lj
atom_style  atomic
dimension 3
boundary     p p p
pair_style  lj/cut 2.5
read_data  ../data/T${T}.dat
read_data  ../data/T615.dat
Reading data file ...
  orthogonal box = (0.97250269 0.97250269 0.97250269) to (37.866338 37.866338 37.866338)
  1 by 1 by 1 MPI processor grid
  reading atoms ...
  70304 atoms
  reading velocities ...
  70304 velocities
  read_data CPU = 0.224 seconds
change_box all triclinic
Changing box ...
  triclinic box = (0.97250269 0.97250269 0.97250269) to (37.866338 37.866338 37.866338) with tilt (0 0 0)
mass 1 1
mass 2 1
pair_modify shift yes
pair_coeff  1 1 1 1
pair_coeff  1 2 1.5 0.8
pair_coeff  2 2 0.5 0.88


timestep 0.01
thermo ${iStep}
thermo 1000
reset_timestep 0
thermo_style custom step temp pe etotal press vol lx ly lz
fix             1 all nvt temp ${TLJ}  ${TLJ}  0.1
fix             1 all nvt temp 0.615  ${TLJ}  0.1
fix             1 all nvt temp 0.615  0.615  0.1
thermo_modify flush yes

fix dsf all deform 1 xy  wiggle 0.5  ${f}   units box
fix dsf all deform 1 xy  wiggle 0.5  1000   units box
fix ps1 all ave/time 1 1 ${iStep} c_thermo_press[1] c_thermo_press[2]  c_thermo_press[3] c_thermo_press[4]  c_thermo_press[5] c_thermo_press[6]  file  stress.${T}
fix ps1 all ave/time 1 1 1000 c_thermo_press[1] c_thermo_press[2]  c_thermo_press[3] c_thermo_press[4]  c_thermo_press[5] c_thermo_press[6]  file  stress.${T}
fix ps1 all ave/time 1 1 1000 c_thermo_press[1] c_thermo_press[2]  c_thermo_press[3] c_thermo_press[4]  c_thermo_press[5] c_thermo_press[6]  file  stress.615
dump            1 all custom ${dumpStep} dump.${T} id type x y z
dump            1 all custom 100000 dump.${T} id type x y z
dump            1 all custom 100000 dump.615 id type x y z
dump_modify 1 sort id
fix nodrift all momentum 1  linear 1 1 1
fix com_seed all recenter INIT INIT INIT shift all
run ${runStep}
run 1000000
Generated 0 of 1 mixed pair_coeff terms from geometric mixing rule
Per MPI rank memory allocation (min/avg/max) = 21.18 | 21.18 | 21.18 Mbytes
   Step          Temp          PotEng         TotEng         Press          Volume           Lx             Ly             Lz      
         0   0.6167712     -7.5797811     -6.6546375      5.5554853      50218.233      36.893836      36.893836      36.893836    
      1000   0.61641047    -7.5711905     -6.646588       5.6142363      50218.233      36.893836      36.893836      36.893836    
      2000   0.61704245    -7.5671974     -6.6416469      5.6493534      50218.233      36.893836      36.893836      36.893836    
      3000   0.61487078    -7.5705963     -6.6483032      5.6210777      50218.233      36.893836      36.893836      36.893836    
      4000   0.61782604    -7.5645444     -6.6378186      5.6692419      50218.233      36.893836      36.893836      36.893836    
      5000   0.61306368    -7.5623413     -6.6427589      5.6952756      50218.233      36.893836      36.893836      36.893836    
      6000   0.61535735    -7.5611169     -6.638094       5.6918729      50218.233      36.893836      36.893836      36.893836    
      7000   0.61388378    -7.5654772     -6.6446646      5.663864       50218.233      36.893836      36.893836      36.893836    
      8000   0.61369638    -7.5675693     -6.6470378      5.6416982      50218.233      36.893836      36.893836      36.893836    
      9000   0.61303375    -7.5676404     -6.6481029      5.6396103      50218.233      36.893836      36.893836      36.893836    
     10000   0.61355187    -7.5678062     -6.6474915      5.6312652      50218.233      36.893836      36.893836      36.893836    
     11000   0.61551566    -7.565482      -6.6422216      5.656565       50218.233      36.893836      36.893836      36.893836    
     12000   0.61332703    -7.5651902     -6.6452128      5.6628525      50218.233      36.893836      36.893836      36.893836    
     13000   0.61394619    -7.5579692     -6.637063       5.7142826      50218.233      36.893836      36.893836      36.893836    
     14000   0.6158345     -7.5628588     -6.6391202      5.6796217      50218.233      36.893836      36.893836      36.893836    
     15000   0.61515244    -7.5611616     -6.6384461      5.6891756      50218.233      36.893836      36.893836      36.893836    
     16000   0.61366953    -7.5666443     -6.6461531      5.658778       50218.233      36.893836      36.893836      36.893836    
     17000   0.61745068    -7.5602437     -6.6340809      5.7072638      50218.233      36.893836      36.893836      36.893836    
     18000   0.6179945     -7.5657139     -6.6387353      5.6689623      50218.233      36.893836      36.893836      36.893836    
     19000   0.61616398    -7.5628775     -6.6386446      5.6822403      50218.233      36.893836      36.893836      36.893836    
     20000   0.61365486    -7.5617203     -6.6412511      5.688372       50218.233      36.893836      36.893836      36.893836    
     21000   0.61422867    -7.5645394     -6.6432095      5.6735324      50218.233      36.893836      36.893836      36.893836    
     22000   0.61693891    -7.562656      -6.6372608      5.6914888      50218.233      36.893836      36.893836      36.893836    
     23000   0.61444483    -7.5666511     -6.6449969      5.6496852      50218.233      36.893836      36.893836      36.893836    
     24000   0.61572367    -7.561579      -6.6380067      5.6904146      50218.233      36.893836      36.893836      36.893836    
     25000   0.61510481    -7.5615124     -6.6388684      5.677206       50218.233      36.893836      36.893836      36.893836    
     26000   0.61206522    -7.565063      -6.6469782      5.6548         50218.233      36.893836      36.893836      36.893836    
     27000   0.61487117    -7.5615866     -6.639293       5.6733921      50218.233      36.893836      36.893836      36.893836    
     28000   0.61404299    -7.5617434     -6.640692       5.6875127      50218.233      36.893836      36.893836      36.893836    
     29000   0.61316288    -7.5630579     -6.6433267      5.6745758      50218.233      36.893836      36.893836      36.893836    
     30000   0.61441569    -7.559425      -6.6378146      5.6988124      50218.233      36.893836      36.893836      36.893836    
     31000   0.61669347    -7.5655858     -6.6405588      5.6646487      50218.233      36.893836      36.893836      36.893836    
     32000   0.62061707    -7.5598471     -6.6289348      5.717342       50218.233      36.893836      36.893836      36.893836    
     33000   0.6140412     -7.5646975     -6.6436488      5.6672467      50218.233      36.893836      36.893836      36.893836    
     34000   0.61647966    -7.561931      -6.6372246      5.6947155      50218.233      36.893836      36.893836      36.893836    
     35000   0.61573392    -7.5666709     -6.6430832      5.6578573      50218.233      36.893836      36.893836      36.893836    
     36000   0.6157753     -7.5579361     -6.6342863      5.7179723      50218.233      36.893836      36.893836      36.893836    
     37000   0.61564508    -7.5639333     -6.6404788      5.6682455      50218.233      36.893836      36.893836      36.893836    
     38000   0.61747698    -7.5640318     -6.6378295      5.6600352      50218.233      36.893836      36.893836      36.893836    
     39000   0.61216341    -7.5657756     -6.6475436      5.6470426      50218.233      36.893836      36.893836      36.893836    
     40000   0.61420728    -7.5654725     -6.6441747      5.6583604      50218.233      36.893836      36.893836      36.893836    
     41000   0.61583223    -7.5611123     -6.6373771      5.6829023      50218.233      36.893836      36.893836      36.893836    
     42000   0.61180564    -7.5713699     -6.6536745      5.6099067      50218.233      36.893836      36.893836      36.893836    
     43000   0.61626279    -7.567485      -6.643104       5.6372941      50218.233      36.893836      36.893836      36.893836    
     44000   0.61592553    -7.5644454     -6.6405702      5.6540902      50218.233      36.893836      36.893836      36.893836    
     45000   0.61115059    -7.5647258     -6.6480129      5.6492816      50218.233      36.893836      36.893836      36.893836    
     46000   0.61436983    -7.5627251     -6.6411835      5.6697077      50218.233      36.893836      36.893836      36.893836    
     47000   0.61635259    -7.5692241     -6.6447084      5.6140605      50218.233      36.893836      36.893836      36.893836    
     48000   0.6113745     -7.5653635     -6.6483148      5.6393041      50218.233      36.893836      36.893836      36.893836    
     49000   0.61635738    -7.5647026     -6.6401797      5.6565579      50218.233      36.893836      36.893836      36.893836    
     50000   0.61430478    -7.5610795     -6.6396354      5.6931738      50218.233      36.893836      36.893836      36.893836    
     51000   0.61670145    -7.5622046     -6.6371656      5.6712724      50218.233      36.893836      36.893836      36.893836    
     52000   0.61370688    -7.5619134     -6.6413662      5.678446       50218.233      36.893836      36.893836      36.893836    
     53000   0.61455287    -7.5636308     -6.6418146      5.6616823      50218.233      36.893836      36.893836      36.893836    
     54000   0.6112685     -7.5672463     -6.6503566      5.6303916      50218.233      36.893836      36.893836      36.893836    
     55000   0.61362812    -7.5672343     -6.6468052      5.6378902      50218.233      36.893836      36.893836      36.893836    
     56000   0.61377126    -7.5606355     -6.6399917      5.6724516      50218.233      36.893836      36.893836      36.893836    
     57000   0.61527706    -7.5618424     -6.63894        5.6847709      50218.233      36.893836      36.893836      36.893836    
     58000   0.61402666    -7.5629968     -6.6419699      5.6701256      50218.233      36.893836      36.893836      36.893836    
     59000   0.62034454    -7.5635424     -6.6330389      5.666478       50218.233      36.893836      36.893836      36.893836    
     60000   0.6146554     -7.5622731     -6.6403031      5.6754727      50218.233      36.893836      36.893836      36.893836    
     61000   0.61578153    -7.5687186     -6.6450594      5.6291798      50218.233      36.893836      36.893836      36.893836    
     62000   0.61418614    -7.561557      -6.6402909      5.6729816      50218.233      36.893836      36.893836      36.893836    
     63000   0.61358575    -7.5618713     -6.6415057      5.6749853      50218.233      36.893836      36.893836      36.893836    
     64000   0.61366978    -7.561162      -6.6406704      5.6656909      50218.233      36.893836      36.893836      36.893836    
     65000   0.6132301     -7.5636563     -6.6438242      5.6505515      50218.233      36.893836      36.893836      36.893836    
     66000   0.61618004    -7.5654678     -6.6412109      5.6436671      50218.233      36.893836      36.893836      36.893836    
     67000   0.61504427    -7.5658931     -6.6433398      5.6377934      50218.233      36.893836      36.893836      36.893836    
     68000   0.61225494    -7.5659565     -6.6475871      5.6471069      50218.233      36.893836      36.893836      36.893836    
     69000   0.61706298    -7.5695783     -6.643997       5.6164868      50218.233      36.893836      36.893836      36.893836    
     70000   0.61523851    -7.5666001     -6.6437554      5.649929       50218.233      36.893836      36.893836      36.893836    
     71000   0.61638797    -7.566221      -6.6416522      5.6430697      50218.233      36.893836      36.893836      36.893836    
     72000   0.6186319     -7.5608517     -6.632917       5.676252       50218.233      36.893836      36.893836      36.893836    
     73000   0.61400159    -7.5652511     -6.6442618      5.650715       50218.233      36.893836      36.893836      36.893836    
     74000   0.60926325    -7.5602013     -6.6463194      5.6875839      50218.233      36.893836      36.893836      36.893836    
     75000   0.61536843    -7.5649849     -6.6419454      5.6531265      50218.233      36.893836      36.893836      36.893836    
     76000   0.6152673     -7.5641564     -6.6412686      5.6468467      50218.233      36.893836      36.893836      36.893836    
     77000   0.61652248    -7.5626697     -6.6378992      5.6704831      50218.233      36.893836      36.893836      36.893836    
     78000   0.61499297    -7.5671866     -6.6447102      5.6379048      50218.233      36.893836      36.893836      36.893836    
     79000   0.61209913    -7.5605986     -6.642463       5.6907446      50218.233      36.893836      36.893836      36.893836    
     80000   0.61430471    -7.5624502     -6.6410062      5.6727976      50218.233      36.893836      36.893836      36.893836    
     81000   0.61475148    -7.5684707     -6.6463565      5.6192281      50218.233      36.893836      36.893836      36.893836    
     82000   0.61530507    -7.5629119     -6.6399674      5.6703618      50218.233      36.893836      36.893836      36.893836    
     83000   0.61370617    -7.5618763     -6.6413301      5.681199       50218.233      36.893836      36.893836      36.893836    
     84000   0.6170739     -7.5608374     -6.6352397      5.6981874      50218.233      36.893836      36.893836      36.893836    
     85000   0.61678082    -7.5612347     -6.6360766      5.6899031      50218.233      36.893836      36.893836      36.893836    
     86000   0.61645197    -7.5653924     -6.6407276      5.6445576      50218.233      36.893836      36.893836      36.893836    
     87000   0.61337008    -7.5665976     -6.6465556      5.640699       50218.233      36.893836      36.893836      36.893836    
     88000   0.61344884    -7.5637595     -6.6435994      5.6586918      50218.233      36.893836      36.893836      36.893836    
     89000   0.61656226    -7.5609426     -6.6361124      5.6838132      50218.233      36.893836      36.893836      36.893836    
     90000   0.61667888    -7.5589659     -6.6339607      5.7022679      50218.233      36.893836      36.893836      36.893836    
     91000   0.61676104    -7.5601907     -6.6350623      5.6930424      50218.233      36.893836      36.893836      36.893836    
     92000   0.61453805    -7.5633024     -6.6415084      5.6587706      50218.233      36.893836      36.893836      36.893836    
     93000   0.61766019    -7.5677992     -6.6413221      5.6323076      50218.233      36.893836      36.893836      36.893836    
     94000   0.61678807    -7.5623931     -6.6372241      5.6764302      50218.233      36.893836      36.893836      36.893836    
     95000   0.61468447    -7.5645139     -6.6425003      5.6586047      50218.233      36.893836      36.893836      36.893836    
     96000   0.61443999    -7.5576231     -6.6359762      5.7185669      50218.233      36.893836      36.893836      36.893836    
     97000   0.61709087    -7.5629927     -6.6373695      5.6674917      50218.233      36.893836      36.893836      36.893836    
     98000   0.61067379    -7.5641237     -6.6481261      5.6507024      50218.233      36.893836      36.893836      36.893836    
     99000   0.61559911    -7.5589211     -6.6355356      5.6995123      50218.233      36.893836      36.893836      36.893836    
    100000   0.61598572    -7.5636665     -6.639701       5.6589099      50218.233      36.893836      36.893836      36.893836    
    101000   0.61625784    -7.5621171     -6.6377435      5.6823711      50218.233      36.893836      36.893836      36.893836    
    102000   0.61641167    -7.5588736     -6.6342693      5.7047842      50218.233      36.893836      36.893836      36.893836    
    103000   0.61432741    -7.5625422     -6.6410642      5.6677456      50218.233      36.893836      36.893836      36.893836    
    104000   0.61470264    -7.5629791     -6.6409383      5.6598523      50218.233      36.893836      36.893836      36.893836    
    105000   0.61446375    -7.5610715     -6.639389       5.6675393      50218.233      36.893836      36.893836      36.893836    
    106000   0.61610499    -7.5646129     -6.6404686      5.6524594      50218.233      36.893836      36.893836      36.893836    
    107000   0.6145474     -7.5674607     -6.6456527      5.6267706      50218.233      36.893836      36.893836      36.893836    
    108000   0.61499622    -7.5561726     -6.6336914      5.7264091      50218.233      36.893836      36.893836      36.893836    
    109000   0.61394658    -7.5650121     -6.6441054      5.6601903      50218.233      36.893836      36.893836      36.893836    
    110000   0.61373106    -7.5614936     -6.6409101      5.6829926      50218.233      36.893836      36.893836      36.893836    
    111000   0.61417996    -7.5643055     -6.6430486      5.6608795      50218.233      36.893836      36.893836      36.893836    
    112000   0.6125817     -7.55872       -6.6398605      5.695378       50218.233      36.893836      36.893836      36.893836    
    113000   0.61694031    -7.56663       -6.6412327      5.6486338      50218.233      36.893836      36.893836      36.893836    
    114000   0.61942649    -7.5650779     -6.6359514      5.6711351      50218.233      36.893836      36.893836      36.893836    
    115000   0.6149947     -7.5653113     -6.6428323      5.6560636      50218.233      36.893836      36.893836      36.893836    
    116000   0.61690952    -7.5632673     -6.6379161      5.6714739      50218.233      36.893836      36.893836      36.893836    
    117000   0.61554188    -7.5594114     -6.6361117      5.7050147      50218.233      36.893836      36.893836      36.893836    
    118000   0.61955261    -7.5695974     -6.6402817      5.6311571      50218.233      36.893836      36.893836      36.893836    
    119000   0.61874322    -7.5635475     -6.6354458      5.6809033      50218.233      36.893836      36.893836      36.893836    
    120000   0.61164173    -7.5603379     -6.6428883      5.6725941      50218.233      36.893836      36.893836      36.893836    
    121000   0.61493058    -7.5620068     -6.639624       5.6729486      50218.233      36.893836      36.893836      36.893836    
    122000   0.61641741    -7.5663536     -6.6417406      5.6526314      50218.233      36.893836      36.893836      36.893836    
    123000   0.61575089    -7.5655979     -6.6419847      5.6506966      50218.233      36.893836      36.893836      36.893836    
    124000   0.61528642    -7.5645246     -6.6416081      5.6501595      50218.233      36.893836      36.893836      36.893836    
    125000   0.61272556    -7.5695162     -6.6504409      5.6272169      50218.233      36.893836      36.893836      36.893836    
    126000   0.61188795    -7.5662153     -6.6483965      5.638226       50218.233      36.893836      36.893836      36.893836    
    127000   0.61611073    -7.5677759     -6.643623       5.6317562      50218.233      36.893836      36.893836      36.893836    
    128000   0.61561582    -7.5617761     -6.6383655      5.6858733      50218.233      36.893836      36.893836      36.893836    
    129000   0.61500727    -7.56569       -6.6431922      5.6600735      50218.233      36.893836      36.893836      36.893836    
    130000   0.6134504     -7.5684898     -6.6483272      5.6251496      50218.233      36.893836      36.893836      36.893836    
    131000   0.61491171    -7.5613404     -6.6389859      5.6889885      50218.233      36.893836      36.893836      36.893836    
    132000   0.6140215     -7.5626591     -6.64164        5.6628125      50218.233      36.893836      36.893836      36.893836    
    133000   0.61487487    -7.5603439     -6.6380447      5.7020152      50218.233      36.893836      36.893836      36.893836    
    134000   0.61791325    -7.5671757     -6.640319       5.6398177      50218.233      36.893836      36.893836      36.893836    
    135000   0.61323629    -7.5664076     -6.6465662      5.6444323      50218.233      36.893836      36.893836      36.893836    
    136000   0.61414475    -7.5609112     -6.6397071      5.6865999      50218.233      36.893836      36.893836      36.893836    
    137000   0.61478154    -7.5678142     -6.645655       5.6371372      50218.233      36.893836      36.893836      36.893836    
    138000   0.61291919    -7.5684542     -6.6490885      5.6247176      50218.233      36.893836      36.893836      36.893836    
    139000   0.61679619    -7.561091      -6.6359099      5.6983625      50218.233      36.893836      36.893836      36.893836    
    140000   0.61159968    -7.5708347     -6.6534482      5.6217243      50218.233      36.893836      36.893836      36.893836    
    141000   0.6166299     -7.5617198     -6.6367881      5.6840774      50218.233      36.893836      36.893836      36.893836    
    142000   0.61562743    -7.5632036     -6.6397756      5.6589148      50218.233      36.893836      36.893836      36.893836    
    143000   0.6154481     -7.5688015     -6.6456425      5.6326814      50218.233      36.893836      36.893836      36.893836    
    144000   0.61582922    -7.5649612     -6.6412305      5.6530903      50218.233      36.893836      36.893836      36.893836    
    145000   0.61576388    -7.5619211     -6.6382884      5.6794869      50218.233      36.893836      36.893836      36.893836    
    146000   0.61177245    -7.5662324     -6.6485868      5.6507597      50218.233      36.893836      36.893836      36.893836    
    147000   0.61645184    -7.5647573     -6.6400927      5.6703514      50218.233      36.893836      36.893836      36.893836    
    148000   0.61669426    -7.5618625     -6.6368343      5.6838146      50218.233      36.893836      36.893836      36.893836    
    149000   0.6122197     -7.5706168     -6.6523003      5.6118635      50218.233      36.893836      36.893836      36.893836    
    150000   0.61250901    -7.5650881     -6.6463377      5.6565109      50218.233      36.893836      36.893836      36.893836    
    151000   0.61287056    -7.5658076     -6.6465148      5.64243        50218.233      36.893836      36.893836      36.893836    
    152000   0.61448947    -7.5716748     -6.6499537      5.597696       50218.233      36.893836      36.893836      36.893836    
    153000   0.61672279    -7.5696181     -6.6445471      5.6229038      50218.233      36.893836      36.893836      36.893836    
    154000   0.61686398    -7.5670619     -6.6417791      5.6371206      50218.233      36.893836      36.893836      36.893836    
    155000   0.61336126    -7.5641254     -6.6440966      5.6464982      50218.233      36.893836      36.893836      36.893836    
    156000   0.61529087    -7.5619997     -6.6390765      5.6809225      50218.233      36.893836      36.893836      36.893836    
    157000   0.61916048    -7.5703658     -6.6416383      5.6326596      50218.233      36.893836      36.893836      36.893836    
    158000   0.61677015    -7.5653811     -6.640239       5.6513165      50218.233      36.893836      36.893836      36.893836    
    159000   0.61382554    -7.5649502     -6.644225       5.6549226      50218.233      36.893836      36.893836      36.893836    
    160000   0.61606977    -7.5625478     -6.6384563      5.6795126      50218.233      36.893836      36.893836      36.893836    
    161000   0.61687302    -7.5632086     -6.6379122      5.677858       50218.233      36.893836      36.893836      36.893836    
    162000   0.61418516    -7.5624327     -6.6411681      5.675739       50218.233      36.893836      36.893836      36.893836    
    163000   0.61192153    -7.5659472     -6.648078       5.637783       50218.233      36.893836      36.893836      36.893836    
    164000   0.61641235    -7.5690354     -6.6444301      5.6397496      50218.233      36.893836      36.893836      36.893836    
    165000   0.61629631    -7.5707745     -6.6463432      5.6164884      50218.233      36.893836      36.893836      36.893836    
    166000   0.61411659    -7.5642155     -6.6430537      5.6606252      50218.233      36.893836      36.893836      36.893836    
    167000   0.61455677    -7.5726153     -6.6507933      5.6179953      50218.233      36.893836      36.893836      36.893836    
    168000   0.61562193    -7.5701937     -6.6467739      5.612037       50218.233      36.893836      36.893836      36.893836    
    169000   0.61509166    -7.5733599     -6.6507355      5.5986867      50218.233      36.893836      36.893836      36.893836    
    170000   0.61646822    -7.5721516     -6.6474624      5.6056254      50218.233      36.893836      36.893836      36.893836    
    171000   0.61581054    -7.5669961     -6.6432934      5.6517052      50218.233      36.893836      36.893836      36.893836    
    172000   0.61730984    -7.5693635     -6.6434119      5.6306973      50218.233      36.893836      36.893836      36.893836    
    173000   0.61102995    -7.5690264     -6.6524945      5.6177627      50218.233      36.893836      36.893836      36.893836    
    174000   0.61678147    -7.5708717     -6.6457127      5.6198734      50218.233      36.893836      36.893836      36.893836    
    175000   0.61548168    -7.5736313     -6.6504219      5.6004532      50218.233      36.893836      36.893836      36.893836    
    176000   0.61524497    -7.5715145     -6.6486602      5.6074384      50218.233      36.893836      36.893836      36.893836    
    177000   0.61374276    -7.5694651     -6.648864       5.6319583      50218.233      36.893836      36.893836      36.893836    
    178000   0.61532658    -7.5736978     -6.6507211      5.597784       50218.233      36.893836      36.893836      36.893836    
    179000   0.61447641    -7.5748705     -6.653169       5.5801656      50218.233      36.893836      36.893836      36.893836    
    180000   0.61410221    -7.5659029     -6.6447627      5.6411288      50218.233      36.893836      36.893836      36.893836    
    181000   0.61428857    -7.5650639     -6.6436441      5.6447123      50218.233      36.893836      36.893836      36.893836    
    182000   0.61520524    -7.5648131     -6.6420184      5.6555429      50218.233      36.893836      36.893836      36.893836    
    183000   0.61728603    -7.5653822     -6.6394663      5.6414209      50218.233      36.893836      36.893836      36.893836    
    184000   0.61373272    -7.5668668     -6.6462808      5.6421246      50218.233      36.893836      36.893836      36.893836    
    185000   0.61508184    -7.5661973     -6.6435876      5.6475767      50218.233      36.893836      36.893836      36.893836    
    186000   0.61628134    -7.5674951     -6.6430862      5.6345337      50218.233      36.893836      36.893836      36.893836    
    187000   0.61701458    -7.5657341     -6.6402254      5.6491734      50218.233      36.893836      36.893836      36.893836    
    188000   0.61156584    -7.5668673     -6.6495316      5.6433057      50218.233      36.893836      36.893836      36.893836    
    189000   0.61860781    -7.5640112     -6.6361126      5.6681388      50218.233      36.893836      36.893836      36.893836    
    190000   0.61556463    -7.5664267     -6.6430929      5.6511737      50218.233      36.893836      36.893836      36.893836    
    191000   0.61420603    -7.5740074     -6.6527114      5.5835995      50218.233      36.893836      36.893836      36.893836    
    192000   0.61443938    -7.5650916     -6.6434456      5.6528184      50218.233      36.893836      36.893836      36.893836    
    193000   0.61580763    -7.5589954     -6.6352971      5.6942129      50218.233      36.893836      36.893836      36.893836    
    194000   0.61277061    -7.5650155     -6.6458726      5.6439434      50218.233      36.893836      36.893836      36.893836    
    195000   0.61459988    -7.5639856     -6.6420988      5.6527879      50218.233      36.893836      36.893836      36.893836    
    196000   0.61352293    -7.5661067     -6.6458354      5.6461967      50218.233      36.893836      36.893836      36.893836    
    197000   0.61700333    -7.5655391     -6.6400473      5.6470005      50218.233      36.893836      36.893836      36.893836    
    198000   0.61603566    -7.5657766     -6.6417362      5.6444539      50218.233      36.893836      36.893836      36.893836    
    199000   0.61583573    -7.5660132     -6.6422728      5.6447945      50218.233      36.893836      36.893836      36.893836    
    200000   0.61583105    -7.5675484     -6.643815       5.6286888      50218.233      36.893836      36.893836      36.893836    
    201000   0.61580647    -7.5645743     -6.6408777      5.6545791      50218.233      36.893836      36.893836      36.893836    
    202000   0.61720565    -7.5606918     -6.6348965      5.6847485      50218.233      36.893836      36.893836      36.893836    
    203000   0.61572578    -7.5589713     -6.6353958      5.6837657      50218.233      36.893836      36.893836      36.893836    
    204000   0.61686484    -7.5621586     -6.6368745      5.666271       50218.233      36.893836      36.893836      36.893836    
    205000   0.61367054    -7.5659577     -6.645465       5.6271371      50218.233      36.893836      36.893836      36.893836    
    206000   0.61518601    -7.5625773     -6.6398114      5.6739199      50218.233      36.893836      36.893836      36.893836    
    207000   0.61468376    -7.5701654     -6.6481529      5.61313        50218.233      36.893836      36.893836      36.893836    
    208000   0.61502263    -7.5623096     -6.6397888      5.6801523      50218.233      36.893836      36.893836      36.893836    
    209000   0.61440451    -7.5649503     -6.6433567      5.6587918      50218.233      36.893836      36.893836      36.893836    
    210000   0.61644537    -7.5681781     -6.6435232      5.6345973      50218.233      36.893836      36.893836      36.893836    
    211000   0.61545402    -7.56115       -6.6379821      5.687502       50218.233      36.893836      36.893836      36.893836    
    212000   0.61276172    -7.5616483     -6.6425188      5.6652873      50218.233      36.893836      36.893836      36.893836    
    213000   0.61595       -7.5600546     -6.6361428      5.6919583      50218.233      36.893836      36.893836      36.893836    
    214000   0.61260922    -7.567487      -6.6485863      5.6337128      50218.233      36.893836      36.893836      36.893836    
    215000   0.6177711     -7.5670311     -6.6403877      5.6422977      50218.233      36.893836      36.893836      36.893836    
    216000   0.61560112    -7.5651541     -6.6417656      5.6474728      50218.233      36.893836      36.893836      36.893836    
    217000   0.61408633    -7.5651004     -6.643984       5.6578195      50218.233      36.893836      36.893836      36.893836    
    218000   0.61575861    -7.5645375     -6.6409127      5.6622049      50218.233      36.893836      36.893836      36.893836    
    219000   0.61287981    -7.5619782     -6.6426716      5.6757848      50218.233      36.893836      36.893836      36.893836    
    220000   0.61652405    -7.5657748     -6.6410019      5.6618003      50218.233      36.893836      36.893836      36.893836    
    221000   0.6149494     -7.5606344     -6.6382234      5.6909893      50218.233      36.893836      36.893836      36.893836    
    222000   0.61704859    -7.5599695     -6.6344098      5.7011174      50218.233      36.893836      36.893836      36.893836    
    223000   0.61656015    -7.5634747     -6.6386476      5.6713969      50218.233      36.893836      36.893836      36.893836    
    224000   0.61263257    -7.558095      -6.6391593      5.6927031      50218.233      36.893836      36.893836      36.893836    
    225000   0.61448342    -7.5607677     -6.6390557      5.6834973      50218.233      36.893836      36.893836      36.893836    
    226000   0.61717614    -7.5624827     -6.6367317      5.6661282      50218.233      36.893836      36.893836      36.893836    
    227000   0.61464605    -7.565902      -6.6439461      5.637579       50218.233      36.893836      36.893836      36.893836    
    228000   0.61540257    -7.5615195     -6.6384287      5.6823314      50218.233      36.893836      36.893836      36.893836    
    229000   0.61425392    -7.5619184     -6.6405507      5.6736304      50218.233      36.893836      36.893836      36.893836    
    230000   0.61690466    -7.5601886     -6.6348448      5.6864282      50218.233      36.893836      36.893836      36.893836    
    231000   0.61301577    -7.5592928     -6.6397822      5.6927839      50218.233      36.893836      36.893836      36.893836    
    232000   0.61197566    -7.5574574     -6.639507       5.7017112      50218.233      36.893836      36.893836      36.893836    
    233000   0.6143377     -7.5532279     -6.6317345      5.7454449      50218.233      36.893836      36.893836      36.893836    
    234000   0.6131732     -7.5511211     -6.6313744      5.7546843      50218.233      36.893836      36.893836      36.893836    
    235000   0.61288909    -7.5625144     -6.6431939      5.6709966      50218.233      36.893836      36.893836      36.893836    
    236000   0.61388967    -7.5601861     -6.6393647      5.6861707      50218.233      36.893836      36.893836      36.893836    
    237000   0.6144181     -7.5669323     -6.6453183      5.6375208      50218.233      36.893836      36.893836      36.893836    
    238000   0.61840691    -7.5557244     -6.6281273      5.7256782      50218.233      36.893836      36.893836      36.893836    
    239000   0.6155877     -7.5564836     -6.6331152      5.7172405      50218.233      36.893836      36.893836      36.893836    
    240000   0.61453044    -7.5580609     -6.6362784      5.7069254      50218.233      36.893836      36.893836      36.893836    
    241000   0.6127375     -7.5641222     -6.645029       5.6715822      50218.233      36.893836      36.893836      36.893836    
    242000   0.61271934    -7.5586098     -6.6395438      5.6960421      50218.233      36.893836      36.893836      36.893836    
    243000   0.61621388    -7.564669      -6.6403614      5.6623569      50218.233      36.893836      36.893836      36.893836    
    244000   0.61584349    -7.5611093     -6.6373572      5.6846034      50218.233      36.893836      36.893836      36.893836    
    245000   0.61476508    -7.5614774     -6.6393429      5.6820221      50218.233      36.893836      36.893836      36.893836    
    246000   0.61353781    -7.5616592     -6.6413656      5.6736249      50218.233      36.893836      36.893836      36.893836    
    247000   0.6147375     -7.5635193     -6.6414262      5.6650331      50218.233      36.893836      36.893836      36.893836    
    248000   0.61663817    -7.5586293     -6.6336852      5.6955711      50218.233      36.893836      36.893836      36.893836    
    249000   0.61556012    -7.5674586     -6.6441316      5.634175       50218.233      36.893836      36.893836      36.893836    
    250000   0.61913421    -7.562093      -6.6334049      5.6705867      50218.233      36.893836      36.893836      36.893836    
    251000   0.61451177    -7.5636433     -6.6418888      5.6742715      50218.233      36.893836      36.893836      36.893836    
    252000   0.61495502    -7.5627202     -6.6403008      5.66134        50218.233      36.893836      36.893836      36.893836    
    253000   0.61506911    -7.5570674     -6.6344768      5.7157072      50218.233      36.893836      36.893836      36.893836    
    254000   0.61750191    -7.5642811     -6.6380414      5.6702078      50218.233      36.893836      36.893836      36.893836    
    255000   0.61612619    -7.5594268     -6.6352507      5.7013047      50218.233      36.893836      36.893836      36.893836    
    256000   0.61758576    -7.5628248     -6.6364593      5.6863769      50218.233      36.893836      36.893836      36.893836    
    257000   0.609524      -7.5617995     -6.6475265      5.6677468      50218.233      36.893836      36.893836      36.893836    
    258000   0.61491739    -7.5647574     -6.6423944      5.6575537      50218.233      36.893836      36.893836      36.893836    
    259000   0.61568978    -7.5578539     -6.6343323      5.7031756      50218.233      36.893836      36.893836      36.893836    
    260000   0.61533641    -7.5597483     -6.6367568      5.7111931      50218.233      36.893836      36.893836      36.893836    
    261000   0.61414054    -7.5579052     -6.6367075      5.7204981      50218.233      36.893836      36.893836      36.893836    
    262000   0.61487269    -7.5661688     -6.6438729      5.6465649      50218.233      36.893836      36.893836      36.893836    
    263000   0.61685584    -7.5655618     -6.6402912      5.6654133      50218.233      36.893836      36.893836      36.893836    
    264000   0.61398417    -7.5647543     -6.6437911      5.659165       50218.233      36.893836      36.893836      36.893836    
    265000   0.61512924    -7.563112      -6.6404313      5.6831728      50218.233      36.893836      36.893836      36.893836    
    266000   0.61413148    -7.5643957     -6.6432116      5.6578621      50218.233      36.893836      36.893836      36.893836    
    267000   0.61374519    -7.5629139     -6.6423092      5.6596818      50218.233      36.893836      36.893836      36.893836    
    268000   0.6140189     -7.5634764     -6.6424612      5.6775348      50218.233      36.893836      36.893836      36.893836    
    269000   0.61411213    -7.5621586     -6.6410035      5.6901528      50218.233      36.893836      36.893836      36.893836    
    270000   0.61101859    -7.5633445     -6.6468296      5.6690505      50218.233      36.893836      36.893836      36.893836    
    271000   0.6172145     -7.5598995     -6.6340909      5.7015752      50218.233      36.893836      36.893836      36.893836    
    272000   0.6126889     -7.5591169     -6.6400966      5.7032371      50218.233      36.893836      36.893836      36.893836    
    273000   0.6130793     -7.5636949     -6.644089       5.6610591      50218.233      36.893836      36.893836      36.893836    
    274000   0.61227878    -7.5624464     -6.6440413      5.6782585      50218.233      36.893836      36.893836      36.893836    
    275000   0.61503713    -7.5648921     -6.6423495      5.6707475      50218.233      36.893836      36.893836      36.893836    
    276000   0.61352321    -7.563622      -6.6433502      5.6705926      50218.233      36.893836      36.893836      36.893836    
    277000   0.61569742    -7.5636828     -6.6401498      5.6683878      50218.233      36.893836      36.893836      36.893836    
    278000   0.61247204    -7.5639374     -6.6452424      5.6719124      50218.233      36.893836      36.893836      36.893836    
    279000   0.61782122    -7.5709082     -6.6441896      5.6248874      50218.233      36.893836      36.893836      36.893836    
    280000   0.61442568    -7.5657416     -6.6441162      5.660079       50218.233      36.893836      36.893836      36.893836    
    281000   0.6135926     -7.5619185     -6.6415427      5.6863124      50218.233      36.893836      36.893836      36.893836    
    282000   0.61619116    -7.5645779     -6.6403044      5.66594        50218.233      36.893836      36.893836      36.893836    
    283000   0.61659025    -7.5618004     -6.6369282      5.6757848      50218.233      36.893836      36.893836      36.893836    
    284000   0.61607908    -7.5631852     -6.6390798      5.6691169      50218.233      36.893836      36.893836      36.893836    
    285000   0.61563224    -7.5553621     -6.6319269      5.7244615      50218.233      36.893836      36.893836      36.893836    
    286000   0.61795936    -7.5657988     -6.6388729      5.6723078      50218.233      36.893836      36.893836      36.893836    
    287000   0.61251105    -7.5630221     -6.6442686      5.6802783      50218.233      36.893836      36.893836      36.893836    
    288000   0.61523733    -7.5622228     -6.6393799      5.6822314      50218.233      36.893836      36.893836      36.893836    
    289000   0.61313559    -7.5604987     -6.6408084      5.6864461      50218.233      36.893836      36.893836      36.893836    
    290000   0.61737935    -7.5632955     -6.6372396      5.6724512      50218.233      36.893836      36.893836      36.893836    
    291000   0.61708275    -7.5579176     -6.6323067      5.7209093      50218.233      36.893836      36.893836      36.893836    
    292000   0.61398185    -7.5618108     -6.6408511      5.67727        50218.233      36.893836      36.893836      36.893836    
    293000   0.61560464    -7.559161      -6.6357672      5.6960245      50218.233      36.893836      36.893836      36.893836    
    294000   0.61652334    -7.5641258     -6.639354       5.6741777      50218.233      36.893836      36.893836      36.893836    
    295000   0.61380289    -7.5671708     -6.6464795      5.6412652      50218.233      36.893836      36.893836      36.893836    
    296000   0.61534903    -7.5643962     -6.6413858      5.6747134      50218.233      36.893836      36.893836      36.893836    
    297000   0.6146606     -7.566874      -6.6448963      5.6456138      50218.233      36.893836      36.893836      36.893836    
    298000   0.61565507    -7.5625086     -6.6390392      5.6677192      50218.233      36.893836      36.893836      36.893836    
    299000   0.6155534     -7.5598055     -6.6364885      5.6868179      50218.233      36.893836      36.893836      36.893836    
    300000   0.61663648    -7.5626951     -6.6377535      5.6656406      50218.233      36.893836      36.893836      36.893836    
    301000   0.61533104    -7.5604441     -6.6374606      5.6825032      50218.233      36.893836      36.893836      36.893836    
    302000   0.6105955     -7.5661218     -6.6502415      5.6414637      50218.233      36.893836      36.893836      36.893836    
    303000   0.61640269    -7.5634618     -6.6388709      5.6800063      50218.233      36.893836      36.893836      36.893836    
    304000   0.61370207    -7.5680025     -6.6474625      5.6314884      50218.233      36.893836      36.893836      36.893836    
    305000   0.61780236    -7.567875      -6.6411846      5.642416       50218.233      36.893836      36.893836      36.893836    
    306000   0.61610295    -7.565394      -6.6412527      5.6535141      50218.233      36.893836      36.893836      36.893836    
    307000   0.61407374    -7.5593308     -6.6382333      5.6906786      50218.233      36.893836      36.893836      36.893836    
    308000   0.61343666    -7.5622868     -6.6421449      5.6753285      50218.233      36.893836      36.893836      36.893836    
    309000   0.61573772    -7.5680552     -6.6444618      5.6430031      50218.233      36.893836      36.893836      36.893836    
    310000   0.61804826    -7.5627325     -6.6356733      5.681808       50218.233      36.893836      36.893836      36.893836    
    311000   0.61743149    -7.5681087     -6.6419746      5.6387704      50218.233      36.893836      36.893836      36.893836    
    312000   0.61374901    -7.5693483     -6.6487379      5.618461       50218.233      36.893836      36.893836      36.893836    
    313000   0.61704915    -7.5615373     -6.6359767      5.6820516      50218.233      36.893836      36.893836      36.893836    
    314000   0.61413069    -7.5627021     -6.6415192      5.6715223      50218.233      36.893836      36.893836      36.893836    
    315000   0.61654377    -7.5640449     -6.6392424      5.6694563      50218.233      36.893836      36.893836      36.893836    
    316000   0.61976402    -7.5665341     -6.6369013      5.6510942      50218.233      36.893836      36.893836      36.893836    
    317000   0.61159801    -7.5614344     -6.6440504      5.6891346      50218.233      36.893836      36.893836      36.893836    
    318000   0.61702664    -7.5614876     -6.6359608      5.6919626      50218.233      36.893836      36.893836      36.893836    
    319000   0.61653346    -7.5605725     -6.6357855      5.6944944      50218.233      36.893836      36.893836      36.893836    
    320000   0.61739781    -7.5668467     -6.6407632      5.6467277      50218.233      36.893836      36.893836      36.893836    
    321000   0.61726567    -7.5663369     -6.6404516      5.6600961      50218.233      36.893836      36.893836      36.893836    
    322000   0.6189172     -7.5655726     -6.63721        5.6597494      50218.233      36.893836      36.893836      36.893836    
    323000   0.61495167    -7.5617295     -6.6393151      5.6780127      50218.233      36.893836      36.893836      36.893836    
    324000   0.61770086    -7.560363      -6.6338249      5.705867       50218.233      36.893836      36.893836      36.893836    
    325000   0.61478641    -7.5617228     -6.6395563      5.695926       50218.233      36.893836      36.893836      36.893836    
    326000   0.61413618    -7.5648902     -6.643699       5.6587808      50218.233      36.893836      36.893836      36.893836    
    327000   0.61571913    -7.5675142     -6.6439486      5.6375505      50218.233      36.893836      36.893836      36.893836    
    328000   0.61199574    -7.5685487     -6.6505682      5.6276954      50218.233      36.893836      36.893836      36.893836    
    329000   0.61190547    -7.5629175     -6.6450724      5.6693556      50218.233      36.893836      36.893836      36.893836    
    330000   0.61470731    -7.5607232     -6.6386753      5.6887488      50218.233      36.893836      36.893836      36.893836    
    331000   0.6114414     -7.5706922     -6.6535431      5.6051088      50218.233      36.893836      36.893836      36.893836    
    332000   0.61383021    -7.5620247     -6.6412925      5.6621672      50218.233      36.893836      36.893836      36.893836    
    333000   0.61476494    -7.5655997     -6.6434654      5.6471867      50218.233      36.893836      36.893836      36.893836    
    334000   0.6145564     -7.5588712     -6.6370497      5.698352       50218.233      36.893836      36.893836      36.893836    
    335000   0.61787533    -7.5638076     -6.6370078      5.6632705      50218.233      36.893836      36.893836      36.893836    
    336000   0.61282797    -7.5635384     -6.6443095      5.6615635      50218.233      36.893836      36.893836      36.893836    
    337000   0.61389092    -7.5583076     -6.6374843      5.6947851      50218.233      36.893836      36.893836      36.893836    
    338000   0.61439814    -7.5636635     -6.6420794      5.6631753      50218.233      36.893836      36.893836      36.893836    
    339000   0.61575972    -7.5626356     -6.6390092      5.6725584      50218.233      36.893836      36.893836      36.893836    
    340000   0.6126584     -7.5659738     -6.6469993      5.6542653      50218.233      36.893836      36.893836      36.893836    
    341000   0.61670086    -7.5608597     -6.6358216      5.6934542      50218.233      36.893836      36.893836      36.893836    
    342000   0.61503109    -7.5629567     -6.6404231      5.6767977      50218.233      36.893836      36.893836      36.893836    
    343000   0.61558801    -7.5608011     -6.6374322      5.6979805      50218.233      36.893836      36.893836      36.893836    
    344000   0.61446693    -7.562532      -6.6408447      5.663181       50218.233      36.893836      36.893836      36.893836    
    345000   0.6159596     -7.5627515     -6.6388252      5.6778002      50218.233      36.893836      36.893836      36.893836    
    346000   0.61573665    -7.5600114     -6.6364196      5.6913373      50218.233      36.893836      36.893836      36.893836    
    347000   0.61860672    -7.5616506     -6.6337537      5.6834677      50218.233      36.893836      36.893836      36.893836    
    348000   0.6155232     -7.5588665     -6.6355948      5.716732       50218.233      36.893836      36.893836      36.893836    
    349000   0.61422524    -7.5586739     -6.6373492      5.6981344      50218.233      36.893836      36.893836      36.893836    
    350000   0.61689759    -7.5604485     -6.6351152      5.6986941      50218.233      36.893836      36.893836      36.893836    
    351000   0.61758454    -7.5653963     -6.6390327      5.6605623      50218.233      36.893836      36.893836      36.893836    
    352000   0.61670464    -7.5633236     -6.6382798      5.6720206      50218.233      36.893836      36.893836      36.893836    
    353000   0.61626907    -7.568043      -6.6436526      5.6310376      50218.233      36.893836      36.893836      36.893836    
    354000   0.6147408     -7.5661492     -6.6440511      5.6451872      50218.233      36.893836      36.893836      36.893836    
    355000   0.61612659    -7.5609599     -6.6367831      5.6933149      50218.233      36.893836      36.893836      36.893836    
    356000   0.61527103    -7.5588493     -6.6359559      5.7044795      50218.233      36.893836      36.893836      36.893836    
    357000   0.61641229    -7.5618795     -6.6372742      5.6725527      50218.233      36.893836      36.893836      36.893836    
    358000   0.61342478    -7.5615624     -6.6414383      5.67267        50218.233      36.893836      36.893836      36.893836    
    359000   0.61304898    -7.5599522     -6.6403918      5.6933758      50218.233      36.893836      36.893836      36.893836    
    360000   0.61511513    -7.5559418     -6.6332822      5.7152308      50218.233      36.893836      36.893836      36.893836    
    361000   0.6158824     -7.5605237     -6.6367132      5.6845148      50218.233      36.893836      36.893836      36.893836    
    362000   0.61669221    -7.5616007     -6.6365755      5.7030903      50218.233      36.893836      36.893836      36.893836    
    363000   0.61477766    -7.5568271     -6.6346737      5.7193835      50218.233      36.893836      36.893836      36.893836    
    364000   0.61665826    -7.5617039     -6.6367297      5.6841486      50218.233      36.893836      36.893836      36.893836    
    365000   0.61654619    -7.5572333     -6.6324272      5.7186767      50218.233      36.893836      36.893836      36.893836    
    366000   0.61126279    -7.5580194     -6.6411382      5.7133615      50218.233      36.893836      36.893836      36.893836    
    367000   0.61659571    -7.5539456     -6.6290652      5.7450066      50218.233      36.893836      36.893836      36.893836    
    368000   0.61381873    -7.5617283     -6.6410133      5.6887504      50218.233      36.893836      36.893836      36.893836    
    369000   0.61824701    -7.5636988     -6.6363415      5.6613969      50218.233      36.893836      36.893836      36.893836    
    370000   0.61594692    -7.5640376     -6.6401303      5.6685103      50218.233      36.893836      36.893836      36.893836    
    371000   0.61870198    -7.560944      -6.6329043      5.7018595      50218.233      36.893836      36.893836      36.893836    
    372000   0.61585027    -7.562517      -6.6387547      5.6770411      50218.233      36.893836      36.893836      36.893836    
    373000   0.61648342    -7.5652236     -6.6405116      5.6671327      50218.233      36.893836      36.893836      36.893836    
    374000   0.614688      -7.5633263     -6.6413074      5.670116       50218.233      36.893836      36.893836      36.893836    
    375000   0.61760937    -7.5595061     -6.6331052      5.6951429      50218.233      36.893836      36.893836      36.893836    
    376000   0.61710058    -7.5646462     -6.6390085      5.6552819      50218.233      36.893836      36.893836      36.893836    
    377000   0.61222378    -7.5654944     -6.6471717      5.6535637      50218.233      36.893836      36.893836      36.893836    
    378000   0.61671943    -7.5655399     -6.6404739      5.6633033      50218.233      36.893836      36.893836      36.893836    
    379000   0.61533947    -7.561607      -6.638611       5.6692388      50218.233      36.893836      36.893836      36.893836    
    380000   0.61839538    -7.564958      -6.6373781      5.6554163      50218.233      36.893836      36.893836      36.893836    
    381000   0.6158838     -7.5643501     -6.6405375      5.6729818      50218.233      36.893836      36.893836      36.893836    
    382000   0.6164567     -7.5655564     -6.6408845      5.648534       50218.233      36.893836      36.893836      36.893836    
    383000   0.61223873    -7.5684556     -6.6501106      5.6261023      50218.233      36.893836      36.893836      36.893836    
    384000   0.61577298    -7.5644836     -6.6408373      5.6672385      50218.233      36.893836      36.893836      36.893836    
    385000   0.61462113    -7.5654619     -6.6435433      5.6508421      50218.233      36.893836      36.893836      36.893836    
    386000   0.61368794    -7.5691457     -6.6486269      5.627407       50218.233      36.893836      36.893836      36.893836    
    387000   0.61157297    -7.5640897     -6.6467433      5.6534719      50218.233      36.893836      36.893836      36.893836    
    388000   0.61529733    -7.5613821     -6.6384492      5.6869015      50218.233      36.893836      36.893836      36.893836    
    389000   0.6169288     -7.5611994     -6.6358194      5.6841508      50218.233      36.893836      36.893836      36.893836    
    390000   0.61496589    -7.5586207     -6.636185       5.6910346      50218.233      36.893836      36.893836      36.893836    
    391000   0.61317312    -7.5630637     -6.6433171      5.6636349      50218.233      36.893836      36.893836      36.893836    
    392000   0.6163792     -7.5677813     -6.6432256      5.6398751      50218.233      36.893836      36.893836      36.893836    
    393000   0.61522715    -7.5618042     -6.6389766      5.6688732      50218.233      36.893836      36.893836      36.893836    
    394000   0.61178254    -7.5664111     -6.6487503      5.627124       50218.233      36.893836      36.893836      36.893836    
    395000   0.61136111    -7.5649243     -6.6478957      5.6553547      50218.233      36.893836      36.893836      36.893836    
    396000   0.61453768    -7.5678404     -6.646047       5.6354441      50218.233      36.893836      36.893836      36.893836    
    397000   0.61554689    -7.5658396     -6.6425324      5.6515673      50218.233      36.893836      36.893836      36.893836    
    398000   0.61401121    -7.5661987     -6.645195       5.6502339      50218.233      36.893836      36.893836      36.893836    
    399000   0.61555274    -7.5717571     -6.6484412      5.6130378      50218.233      36.893836      36.893836      36.893836    
    400000   0.61437658    -7.5676498     -6.6460981      5.6384138      50218.233      36.893836      36.893836      36.893836    
    401000   0.61770237    -7.5630244     -6.636484       5.6866496      50218.233      36.893836      36.893836      36.893836    
    402000   0.61493473    -7.5641357     -6.6417467      5.6700743      50218.233      36.893836      36.893836      36.893836    
    403000   0.61597369    -7.5615679     -6.6376205      5.6923848      50218.233      36.893836      36.893836      36.893836    
    404000   0.61517476    -7.5672655     -6.6445164      5.64682        50218.233      36.893836      36.893836      36.893836    
    405000   0.61331432    -7.5636406     -6.6436822      5.6606196      50218.233      36.893836      36.893836      36.893836    
    406000   0.61746104    -7.5616688     -6.6354905      5.6783955      50218.233      36.893836      36.893836      36.893836    
    407000   0.61415393    -7.5660495     -6.6448317      5.6505973      50218.233      36.893836      36.893836      36.893836    
    408000   0.61533907    -7.566353      -6.6433575      5.6405931      50218.233      36.893836      36.893836      36.893836    
    409000   0.61313693    -7.5598268     -6.6401345      5.6855111      50218.233      36.893836      36.893836      36.893836    
    410000   0.61670445    -7.5641332     -6.6390896      5.6584736      50218.233      36.893836      36.893836      36.893836    
    411000   0.61344026    -7.5657198     -6.6455725      5.6508726      50218.233      36.893836      36.893836      36.893836    
    412000   0.61717703    -7.5681639     -6.6424115      5.6331077      50218.233      36.893836      36.893836      36.893836    
    413000   0.61464474    -7.5598483     -6.6378943      5.6864494      50218.233      36.893836      36.893836      36.893836    
    414000   0.61752071    -7.5553352     -6.6290673      5.7356679      50218.233      36.893836      36.893836      36.893836    
    415000   0.61579227    -7.566119      -6.6424438      5.6500188      50218.233      36.893836      36.893836      36.893836    
    416000   0.61443951    -7.5655369     -6.6438908      5.6400894      50218.233      36.893836      36.893836      36.893836    
    417000   0.61418431    -7.5612583     -6.6399949      5.6962927      50218.233      36.893836      36.893836      36.893836    
    418000   0.61662348    -7.5587483     -6.6338262      5.7055754      50218.233      36.893836      36.893836      36.893836    
    419000   0.61498486    -7.5665793     -6.6441152      5.6325111      50218.233      36.893836      36.893836      36.893836    
    420000   0.615677      -7.5613142     -6.6378118      5.6875334      50218.233      36.893836      36.893836      36.893836    
    421000   0.615666      -7.564086      -6.6406002      5.6581563      50218.233      36.893836      36.893836      36.893836    
    422000   0.61365271    -7.5622508     -6.6417848      5.6738106      50218.233      36.893836      36.893836      36.893836    
    423000   0.61536153    -7.5650702     -6.642041       5.6585657      50218.233      36.893836      36.893836      36.893836    
    424000   0.61423608    -7.5634345     -6.6420934      5.6672236      50218.233      36.893836      36.893836      36.893836    
    425000   0.61379061    -7.5579419     -6.637269       5.7054699      50218.233      36.893836      36.893836      36.893836    
    426000   0.61367938    -7.5559919     -6.6354859      5.7084511      50218.233      36.893836      36.893836      36.893836    
    427000   0.61435347    -7.5617306     -6.6402135      5.6853383      50218.233      36.893836      36.893836      36.893836    
    428000   0.61458445    -7.56738       -6.6455165      5.6336348      50218.233      36.893836      36.893836      36.893836    
    429000   0.61137789    -7.5577951     -6.6407413      5.6955533      50218.233      36.893836      36.893836      36.893836    
    430000   0.61613356    -7.5664619     -6.6422747      5.6442152      50218.233      36.893836      36.893836      36.893836    
    431000   0.61751938    -7.5614483     -6.6351824      5.689003       50218.233      36.893836      36.893836      36.893836    
    432000   0.6159753     -7.5610643     -6.6371145      5.6786198      50218.233      36.893836      36.893836      36.893836    
    433000   0.61490582    -7.5678335     -6.6454879      5.6354601      50218.233      36.893836      36.893836      36.893836    
    434000   0.61638626    -7.5645203     -6.6399541      5.6679295      50218.233      36.893836      36.893836      36.893836    
    435000   0.61556275    -7.5658915     -6.6425605      5.6505163      50218.233      36.893836      36.893836      36.893836    
    436000   0.61326021    -7.5598056     -6.6399283      5.6976541      50218.233      36.893836      36.893836      36.893836    
    437000   0.61505313    -7.5584417     -6.6358752      5.7041031      50218.233      36.893836      36.893836      36.893836    
    438000   0.61458675    -7.5588848     -6.6370178      5.6918077      50218.233      36.893836      36.893836      36.893836    
    439000   0.6134331     -7.5599765     -6.6398399      5.6931806      50218.233      36.893836      36.893836      36.893836    
    440000   0.61515245    -7.5610746     -6.638359       5.7002805      50218.233      36.893836      36.893836      36.893836    
    441000   0.61015811    -7.5603148     -6.6450906      5.6940936      50218.233      36.893836      36.893836      36.893836    
    442000   0.61417515    -7.5626047     -6.6413551      5.6739131      50218.233      36.893836      36.893836      36.893836    
    443000   0.61721615    -7.5626468     -6.6368357      5.680506       50218.233      36.893836      36.893836      36.893836    
    444000   0.61563841    -7.5670907     -6.6436462      5.6339654      50218.233      36.893836      36.893836      36.893836    
    445000   0.61512114    -7.5671523     -6.6444837      5.6435756      50218.233      36.893836      36.893836      36.893836    
    446000   0.61855208    -7.5615502     -6.6337353      5.683422       50218.233      36.893836      36.893836      36.893836    
    447000   0.61683034    -7.5631349     -6.6379026      5.6660185      50218.233      36.893836      36.893836      36.893836    
    448000   0.61517234    -7.5664484     -6.643703       5.6469706      50218.233      36.893836      36.893836      36.893836    
    449000   0.6131733     -7.5642789     -6.644532       5.6630678      50218.233      36.893836      36.893836      36.893836    
    450000   0.61512563    -7.5604205     -6.6377452      5.6859642      50218.233      36.893836      36.893836      36.893836    
    451000   0.61536165    -7.5622142     -6.6391848      5.6692345      50218.233      36.893836      36.893836      36.893836    
    452000   0.61691716    -7.559241      -6.6338784      5.6960823      50218.233      36.893836      36.893836      36.893836    
    453000   0.61589334    -7.5541898     -6.6303629      5.733337       50218.233      36.893836      36.893836      36.893836    
    454000   0.6141736     -7.562927      -6.6416797      5.6762237      50218.233      36.893836      36.893836      36.893836    
    455000   0.61561156    -7.5670102     -6.643606       5.6373685      50218.233      36.893836      36.893836      36.893836    
    456000   0.61761143    -7.5665878     -6.6401838      5.6459055      50218.233      36.893836      36.893836      36.893836    
    457000   0.61582501    -7.5651379     -6.6414135      5.6556157      50218.233      36.893836      36.893836      36.893836    
    458000   0.61531784    -7.5641654     -6.6412017      5.6578124      50218.233      36.893836      36.893836      36.893836    
    459000   0.6146872     -7.5593838     -6.6373661      5.6829099      50218.233      36.893836      36.893836      36.893836    
    460000   0.61738234    -7.5649032     -6.6388429      5.6494368      50218.233      36.893836      36.893836      36.893836    
    461000   0.61582295    -7.564032      -6.6403108      5.6615681      50218.233      36.893836      36.893836      36.893836    
    462000   0.61720259    -7.5685065     -6.6427158      5.64125        50218.233      36.893836      36.893836      36.893836    
    463000   0.61350351    -7.5666926     -6.6464504      5.6338099      50218.233      36.893836      36.893836      36.893836    
    464000   0.61822547    -7.5625562     -6.6352312      5.678769       50218.233      36.893836      36.893836      36.893836    
    465000   0.61691841    -7.5595873     -6.6342228      5.6965238      50218.233      36.893836      36.893836      36.893836    
    466000   0.61491691    -7.5622683     -6.6399061      5.6782874      50218.233      36.893836      36.893836      36.893836    
    467000   0.61720467    -7.5682966     -6.6425028      5.6292797      50218.233      36.893836      36.893836      36.893836    
    468000   0.61724525    -7.5710652     -6.6452105      5.6153571      50218.233      36.893836      36.893836      36.893836    
    469000   0.61395279    -7.558021      -6.6371049      5.7065489      50218.233      36.893836      36.893836      36.893836    
    470000   0.61341385    -7.5607753     -6.6406676      5.6846846      50218.233      36.893836      36.893836      36.893836    
    471000   0.6113667     -7.5596087     -6.6425717      5.7007198      50218.233      36.893836      36.893836      36.893836    
    472000   0.61422037    -7.5642397     -6.6429222      5.6680965      50218.233      36.893836      36.893836      36.893836    
    473000   0.61854353    -7.5617158     -6.6339137      5.700336       50218.233      36.893836      36.893836      36.893836    
    474000   0.61478104    -7.559807      -6.6376486      5.6946554      50218.233      36.893836      36.893836      36.893836    
    475000   0.61401959    -7.5663049     -6.6452886      5.6518668      50218.233      36.893836      36.893836      36.893836    
    476000   0.61519131    -7.5647911     -6.6420173      5.6698286      50218.233      36.893836      36.893836      36.893836    
    477000   0.61709398    -7.5587401     -6.6331123      5.7079523      50218.233      36.893836      36.893836      36.893836    
    478000   0.61338228    -7.5584242     -6.6383639      5.7102881      50218.233      36.893836      36.893836      36.893836    
    479000   0.6134605     -7.5653243     -6.6451466      5.6535466      50218.233      36.893836      36.893836      36.893836    
    480000   0.61389519    -7.5600016     -6.6391719      5.6979229      50218.233      36.893836      36.893836      36.893836    
    481000   0.61582242    -7.5619182     -6.6381978      5.6777439      50218.233      36.893836      36.893836      36.893836    
    482000   0.61349764    -7.5693072     -6.6490738      5.6258994      50218.233      36.893836      36.893836      36.893836    
    483000   0.61600706    -7.5654686     -6.6414712      5.6694848      50218.233      36.893836      36.893836      36.893836    
    484000   0.61569806    -7.5678211     -6.6442872      5.640277       50218.233      36.893836      36.893836      36.893836    
    485000   0.61410676    -7.5635335     -6.6423865      5.6646612      50218.233      36.893836      36.893836      36.893836    
    486000   0.61649941    -7.5591798     -6.6344438      5.7118459      50218.233      36.893836      36.893836      36.893836    
    487000   0.61473872    -7.5687277     -6.6466327      5.6232393      50218.233      36.893836      36.893836      36.893836    
    488000   0.60981013    -7.5650986     -6.6503964      5.6479259      50218.233      36.893836      36.893836      36.893836    
    489000   0.61318175    -7.5613482     -6.6415887      5.6828416      50218.233      36.893836      36.893836      36.893836    
    490000   0.61495942    -7.5622538     -6.6398278      5.6832949      50218.233      36.893836      36.893836      36.893836    
    491000   0.61263849    -7.5631904     -6.6442457      5.6743407      50218.233      36.893836      36.893836      36.893836    
    492000   0.61223712    -7.5597588     -6.6414162      5.7026462      50218.233      36.893836      36.893836      36.893836    
    493000   0.61709712    -7.5615125     -6.63588        5.6839179      50218.233      36.893836      36.893836      36.893836    
    494000   0.61792092    -7.5623908     -6.6355226      5.678027       50218.233      36.893836      36.893836      36.893836    
    495000   0.61206273    -7.5602203     -6.6421393      5.6919159      50218.233      36.893836      36.893836      36.893836    
    496000   0.61642237    -7.5623813     -6.6377609      5.6901261      50218.233      36.893836      36.893836      36.893836    
    497000   0.61530535    -7.5651762     -6.6422313      5.6499632      50218.233      36.893836      36.893836      36.893836    
    498000   0.61836949    -7.5596598     -6.6321187      5.6948255      50218.233      36.893836      36.893836      36.893836    
    499000   0.61494915    -7.559952      -6.6375414      5.6873127      50218.233      36.893836      36.893836      36.893836    
    500000   0.61764102    -7.5545289     -6.6280806      5.7427079      50218.233      36.893836      36.893836      36.893836    
    501000   0.61440409    -7.5642439     -6.6426508      5.659716       50218.233      36.893836      36.893836      36.893836    
    502000   0.61387547    -7.5558486     -6.6350485      5.7259963      50218.233      36.893836      36.893836      36.893836    
    503000   0.61304589    -7.5499149     -6.6303592      5.7677613      50218.233      36.893836      36.893836      36.893836    
    504000   0.61610581    -7.5579427     -6.6337971      5.7117765      50218.233      36.893836      36.893836      36.893836    
    505000   0.61708511    -7.5558184     -6.6302039      5.7217064      50218.233      36.893836      36.893836      36.893836    
    506000   0.61374574    -7.5563476     -6.6357421      5.7270775      50218.233      36.893836      36.893836      36.893836    
    507000   0.61564247    -7.5583518     -6.6349013      5.7078713      50218.233      36.893836      36.893836      36.893836    
    508000   0.61261421    -7.5524923     -6.633584       5.7360583      50218.233      36.893836      36.893836      36.893836    
    509000   0.6171512     -7.5576671     -6.6319535      5.7024235      50218.233      36.893836      36.893836      36.893836    
    510000   0.61440148    -7.5688788     -6.6472897      5.6132793      50218.233      36.893836      36.893836      36.893836    
    511000   0.61447954    -7.5660949     -6.6443887      5.6527527      50218.233      36.893836      36.893836      36.893836    
    512000   0.61229298    -7.5664391     -6.6480127      5.6245906      50218.233      36.893836      36.893836      36.893836    
    513000   0.61555133    -7.5551912     -6.6318773      5.7290681      50218.233      36.893836      36.893836      36.893836    
    514000   0.61447266    -7.5639131     -6.6422172      5.6638593      50218.233      36.893836      36.893836      36.893836    
    515000   0.61404125    -7.5644691     -6.6434204      5.6512714      50218.233      36.893836      36.893836      36.893836    
    516000   0.61189314    -7.5627448     -6.6449181      5.6788491      50218.233      36.893836      36.893836      36.893836    
    517000   0.61741305    -7.5666534     -6.640547       5.6581493      50218.233      36.893836      36.893836      36.893836    
    518000   0.61621185    -7.5645483     -6.6402437      5.6651491      50218.233      36.893836      36.893836      36.893836    
    519000   0.61729958    -7.5634523     -6.6375161      5.6661333      50218.233      36.893836      36.893836      36.893836    
    520000   0.61117879    -7.5646677     -6.6479126      5.6471648      50218.233      36.893836      36.893836      36.893836    
    521000   0.61333563    -7.5647589     -6.6447685      5.6539457      50218.233      36.893836      36.893836      36.893836    
    522000   0.61512973    -7.563992      -6.6413105      5.6673122      50218.233      36.893836      36.893836      36.893836    
    523000   0.61558746    -7.5678124     -6.6444443      5.6459149      50218.233      36.893836      36.893836      36.893836    
    524000   0.61832031    -7.5623953     -6.634928       5.6763375      50218.233      36.893836      36.893836      36.893836    
    525000   0.61219578    -7.5620023     -6.6437217      5.6705228      50218.233      36.893836      36.893836      36.893836    
    526000   0.6205739     -7.5570309     -6.6261833      5.7232361      50218.233      36.893836      36.893836      36.893836    
    527000   0.61483334    -7.5598056     -6.6375687      5.6938746      50218.233      36.893836      36.893836      36.893836    
    528000   0.61117378    -7.5654716     -6.648724       5.6629933      50218.233      36.893836      36.893836      36.893836    
    529000   0.61296827    -7.5601948     -6.6407555      5.6860671      50218.233      36.893836      36.893836      36.893836    
    530000   0.61758735    -7.5610144     -6.6346466      5.6993462      50218.233      36.893836      36.893836      36.893836    
    531000   0.61451458    -7.5651744     -6.6434157      5.6527335      50218.233      36.893836      36.893836      36.893836    
    532000   0.61645306    -7.564204      -6.6395376      5.6732323      50218.233      36.893836      36.893836      36.893836    
    533000   0.6138377     -7.5709685     -6.650225       5.5987012      50218.233      36.893836      36.893836      36.893836    
    534000   0.61378032    -7.5670293     -6.6463719      5.6430437      50218.233      36.893836      36.893836      36.893836    
    535000   0.60870781    -7.5632306     -6.6501819      5.665588       50218.233      36.893836      36.893836      36.893836    
    536000   0.6145485     -7.568925      -6.6471154      5.6325947      50218.233      36.893836      36.893836      36.893836    
    537000   0.61606538    -7.5667276     -6.6426427      5.6497393      50218.233      36.893836      36.893836      36.893836    
    538000   0.61435257    -7.5679094     -6.6463937      5.6355547      50218.233      36.893836      36.893836      36.893836    
    539000   0.61325004    -7.5670516     -6.6471896      5.6318578      50218.233      36.893836      36.893836      36.893836    
    540000   0.61603657    -7.5689521     -6.6449104      5.6345614      50218.233      36.893836      36.893836      36.893836    
    541000   0.61666065    -7.5701811     -6.6452033      5.6288291      50218.233      36.893836      36.893836      36.893836    
    542000   0.61747996    -7.5677898     -6.641583       5.6411582      50218.233      36.893836      36.893836      36.893836    
    543000   0.61487366    -7.5669867     -6.6446893      5.6338193      50218.233      36.893836      36.893836      36.893836    
    544000   0.61412384    -7.5689295     -6.6477569      5.6221324      50218.233      36.893836      36.893836      36.893836    
    545000   0.61291004    -7.5653085     -6.6459565      5.6589822      50218.233      36.893836      36.893836      36.893836    
    546000   0.6172284     -7.5680782     -6.6422488      5.6351853      50218.233      36.893836      36.893836      36.893836    
    547000   0.6162499     -7.5647617     -6.6404         5.6571268      50218.233      36.893836      36.893836      36.893836    
    548000   0.61252196    -7.5607638     -6.641994       5.6802663      50218.233      36.893836      36.893836      36.893836    
    549000   0.61535094    -7.5634661     -6.6404528      5.6711561      50218.233      36.893836      36.893836      36.893836    
    550000   0.61392676    -7.5603202     -6.6394432      5.6890449      50218.233      36.893836      36.893836      36.893836    
    551000   0.61883284    -7.5646196     -6.6363835      5.6581473      50218.233      36.893836      36.893836      36.893836    
    552000   0.61364125    -7.5632928     -6.642844       5.6674535      50218.233      36.893836      36.893836      36.893836    
    553000   0.61745495    -7.5636309     -6.6374617      5.6725453      50218.233      36.893836      36.893836      36.893836    
    554000   0.61453973    -7.5667432     -6.6449467      5.6581261      50218.233      36.893836      36.893836      36.893836    
    555000   0.61656938    -7.5645978     -6.6397569      5.6589515      50218.233      36.893836      36.893836      36.893836    
    556000   0.61334086    -7.564822      -6.6448238      5.6652021      50218.233      36.893836      36.893836      36.893836    
    557000   0.61217006    -7.5640304     -6.6457884      5.646332       50218.233      36.893836      36.893836      36.893836    
    558000   0.61551058    -7.5628968     -6.639644       5.6663939      50218.233      36.893836      36.893836      36.893836    
    559000   0.61871931    -7.5628619     -6.6347961      5.6797247      50218.233      36.893836      36.893836      36.893836    
    560000   0.61406204    -7.5643244     -6.6432445      5.6676455      50218.233      36.893836      36.893836      36.893836    
    561000   0.61118453    -7.5652047     -6.6484409      5.6556309      50218.233      36.893836      36.893836      36.893836    
    562000   0.61686544    -7.5636155     -6.6383305      5.6605705      50218.233      36.893836      36.893836      36.893836    
    563000   0.61628213    -7.5636101     -6.6392001      5.6622234      50218.233      36.893836      36.893836      36.893836    
    564000   0.61732858    -7.5622302     -6.6362505      5.6787778      50218.233      36.893836      36.893836      36.893836    
    565000   0.61678916    -7.5635119     -6.6383413      5.6575792      50218.233      36.893836      36.893836      36.893836    
    566000   0.61452499    -7.5600079     -6.6382335      5.6965498      50218.233      36.893836      36.893836      36.893836    
    567000   0.61498877    -7.5608011     -6.6383311      5.693689       50218.233      36.893836      36.893836      36.893836    
    568000   0.61497943    -7.5617731     -6.6393171      5.678179       50218.233      36.893836      36.893836      36.893836    
    569000   0.61444209    -7.5642056     -6.6425556      5.6630299      50218.233      36.893836      36.893836      36.893836    
    570000   0.61554977    -7.561473      -6.6381615      5.6765184      50218.233      36.893836      36.893836      36.893836    
    571000   0.61469284    -7.5636889     -6.6416627      5.6594051      50218.233      36.893836      36.893836      36.893836    
    572000   0.61473876    -7.5668289     -6.6447339      5.6409781      50218.233      36.893836      36.893836      36.893836    
    573000   0.61392976    -7.5633832     -6.6425017      5.6546585      50218.233      36.893836      36.893836      36.893836    
    574000   0.61486734    -7.5655273     -6.6432394      5.6395709      50218.233      36.893836      36.893836      36.893836    
    575000   0.61193705    -7.5643638     -6.6464713      5.660631       50218.233      36.893836      36.893836      36.893836    
    576000   0.61715615    -7.566667      -6.640946       5.6314989      50218.233      36.893836      36.893836      36.893836    
    577000   0.61565556    -7.5654657     -6.6419955      5.6464427      50218.233      36.893836      36.893836      36.893836    
    578000   0.61442637    -7.5659193     -6.6442928      5.6405311      50218.233      36.893836      36.893836      36.893836    
    579000   0.61637978    -7.5612749     -6.6367184      5.6856712      50218.233      36.893836      36.893836      36.893836    
    580000   0.61145423    -7.5596257     -6.6424574      5.6806654      50218.233      36.893836      36.893836      36.893836    
    581000   0.61743536    -7.5599527     -6.6338129      5.6895371      50218.233      36.893836      36.893836      36.893836    
    582000   0.6107321     -7.5714466     -6.6553615      5.60482        50218.233      36.893836      36.893836      36.893836    
    583000   0.6169879     -7.5657402     -6.6402715      5.6516981      50218.233      36.893836      36.893836      36.893836    
    584000   0.61533766    -7.5659991     -6.6430057      5.6426037      50218.233      36.893836      36.893836      36.893836    
    585000   0.61472142    -7.563999      -6.64193        5.667406       50218.233      36.893836      36.893836      36.893836    
    586000   0.61315113    -7.5678223     -6.6481086      5.6386068      50218.233      36.893836      36.893836      36.893836    
    587000   0.61492711    -7.5653945     -6.6430169      5.6510019      50218.233      36.893836      36.893836      36.893836    
    588000   0.61386036    -7.5676244     -6.6468469      5.6424387      50218.233      36.893836      36.893836      36.893836    
    589000   0.6156158     -7.5647538     -6.6413432      5.6433556      50218.233      36.893836      36.893836      36.893836    
    590000   0.61479669    -7.567116      -6.6449341      5.642572       50218.233      36.893836      36.893836      36.893836    
    591000   0.61325535    -7.5634278     -6.6435578      5.6721386      50218.233      36.893836      36.893836      36.893836    
    592000   0.62012346    -7.5667546     -6.6365827      5.6572007      50218.233      36.893836      36.893836      36.893836    
    593000   0.61406159    -7.5716285     -6.6505493      5.6071013      50218.233      36.893836      36.893836      36.893836    
    594000   0.61224207    -7.5675436     -6.6491935      5.6398675      50218.233      36.893836      36.893836      36.893836    
    595000   0.61092261    -7.5650958     -6.6487249      5.6525706      50218.233      36.893836      36.893836      36.893836    
    596000   0.61435375    -7.5671166     -6.6455991      5.6281705      50218.233      36.893836      36.893836      36.893836    
    597000   0.61712733    -7.5653932     -6.6397154      5.6500159      50218.233      36.893836      36.893836      36.893836    
    598000   0.61254522    -7.5695241     -6.6507193      5.6272111      50218.233      36.893836      36.893836      36.893836    
    599000   0.61446757    -7.5689541     -6.6472658      5.6265336      50218.233      36.893836      36.893836      36.893836    
    600000   0.61164615    -7.5576499     -6.6401938      5.6963351      50218.233      36.893836      36.893836      36.893836    
    601000   0.61257737    -7.5678988     -6.6490458      5.6226355      50218.233      36.893836      36.893836      36.893836    
    602000   0.61134255    -7.567504      -6.6505032      5.6304645      50218.233      36.893836      36.893836      36.893836    
    603000   0.61183226    -7.565669      -6.6479336      5.6408748      50218.233      36.893836      36.893836      36.893836    
    604000   0.61361892    -7.5663514     -6.6459361      5.6426805      50218.233      36.893836      36.893836      36.893836    
    605000   0.6125121     -7.5645098     -6.6457547      5.6469992      50218.233      36.893836      36.893836      36.893836    
    606000   0.61495756    -7.5659673     -6.6435441      5.6600724      50218.233      36.893836      36.893836      36.893836    
    607000   0.61432264    -7.5624972     -6.6410263      5.6637873      50218.233      36.893836      36.893836      36.893836    
    608000   0.6161946     -7.5648749     -6.6405961      5.652073       50218.233      36.893836      36.893836      36.893836    
    609000   0.61463645    -7.5612808     -6.6393392      5.679616       50218.233      36.893836      36.893836      36.893836    
    610000   0.61458401    -7.5675333     -6.6456704      5.649952       50218.233      36.893836      36.893836      36.893836    
    611000   0.61596176    -7.5663602     -6.6424307      5.6475183      50218.233      36.893836      36.893836      36.893836    
    612000   0.61554985    -7.5659779     -6.6426663      5.6482114      50218.233      36.893836      36.893836      36.893836    
    613000   0.61717453    -7.5653804     -6.6396318      5.6499884      50218.233      36.893836      36.893836      36.893836    
    614000   0.61615488    -7.5628414     -6.6386223      5.6695639      50218.233      36.893836      36.893836      36.893836    
    615000   0.61720711    -7.5650333     -6.6392358      5.6609782      50218.233      36.893836      36.893836      36.893836    
    616000   0.61353654    -7.5633711     -6.6430794      5.6626824      50218.233      36.893836      36.893836      36.893836    
    617000   0.61457169    -7.5628911     -6.6410467      5.6684777      50218.233      36.893836      36.893836      36.893836    
    618000   0.6162466     -7.5723638     -6.648007       5.6151795      50218.233      36.893836      36.893836      36.893836    
    619000   0.6155714     -7.5595082     -6.6361642      5.6923628      50218.233      36.893836      36.893836      36.893836    
    620000   0.61647147    -7.5691507     -6.6444566      5.6269105      50218.233      36.893836      36.893836      36.893836    
    621000   0.61533827    -7.5617175     -6.6387232      5.6750013      50218.233      36.893836      36.893836      36.893836    
    622000   0.61407281    -7.5597244     -6.6386283      5.6983747      50218.233      36.893836      36.893836      36.893836    
    623000   0.61599629    -7.5651988     -6.6412175      5.6511588      50218.233      36.893836      36.893836      36.893836    
    624000   0.61297379    -7.5629516     -6.643504       5.6719923      50218.233      36.893836      36.893836      36.893836    
    625000   0.61246958    -7.5610393     -6.6423481      5.6853579      50218.233      36.893836      36.893836      36.893836    
    626000   0.61652108    -7.5520618     -6.6272933      5.7426414      50218.233      36.893836      36.893836      36.893836    
    627000   0.61500264    -7.5619346     -6.6394437      5.6766443      50218.233      36.893836      36.893836      36.893836    
    628000   0.61767491    -7.5591        -6.6326008      5.6886078      50218.233      36.893836      36.893836      36.893836    
    629000   0.61488182    -7.5652327     -6.6429231      5.6638665      50218.233      36.893836      36.893836      36.893836    
    630000   0.61821749    -7.5569076     -6.6295946      5.7282299      50218.233      36.893836      36.893836      36.893836    
    631000   0.61431286    -7.5604053     -6.6389491      5.6992604      50218.233      36.893836      36.893836      36.893836    
    632000   0.61335406    -7.5587747     -6.6387567      5.7038016      50218.233      36.893836      36.893836      36.893836    
    633000   0.61625804    -7.5647008     -6.6403269      5.6764888      50218.233      36.893836      36.893836      36.893836    
    634000   0.61300295    -7.5649456     -6.6454543      5.6662739      50218.233      36.893836      36.893836      36.893836    
    635000   0.61526112    -7.5661243     -6.6432458      5.6518244      50218.233      36.893836      36.893836      36.893836    
    636000   0.61760674    -7.5600511     -6.6336541      5.7093188      50218.233      36.893836      36.893836      36.893836    
    637000   0.61466415    -7.5635223     -6.6415392      5.6692421      50218.233      36.893836      36.893836      36.893836    
    638000   0.61362646    -7.5616516     -6.641225       5.6939348      50218.233      36.893836      36.893836      36.893836    
    639000   0.61219873    -7.5641606     -6.6458756      5.6634876      50218.233      36.893836      36.893836      36.893836    
    640000   0.61700464    -7.5584223     -6.6329285      5.7044788      50218.233      36.893836      36.893836      36.893836    
    641000   0.61331505    -7.5619554     -6.6419959      5.6817003      50218.233      36.893836      36.893836      36.893836    
    642000   0.61353561    -7.5625414     -6.6422511      5.6647953      50218.233      36.893836      36.893836      36.893836    
    643000   0.61543344    -7.5598303     -6.6366932      5.684542       50218.233      36.893836      36.893836      36.893836    
    644000   0.61722893    -7.5549716     -6.6291414      5.7291795      50218.233      36.893836      36.893836      36.893836    
    645000   0.6174236     -7.5610623     -6.6349401      5.6844201      50218.233      36.893836      36.893836      36.893836    
    646000   0.61596059    -7.5652695     -6.6413418      5.6538177      50218.233      36.893836      36.893836      36.893836    
    647000   0.61071486    -7.5586068     -6.6425476      5.6934817      50218.233      36.893836      36.893836      36.893836    
    648000   0.61394737    -7.5620426     -6.6411347      5.6793795      50218.233      36.893836      36.893836      36.893836    
    649000   0.61333565    -7.5632731     -6.6432827      5.6507158      50218.233      36.893836      36.893836      36.893836    
    650000   0.61588954    -7.5689288     -6.6451077      5.6270842      50218.233      36.893836      36.893836      36.893836    
    651000   0.61437473    -7.5573086     -6.6357596      5.7084503      50218.233      36.893836      36.893836      36.893836    
    652000   0.61632755    -7.5672735     -6.6427953      5.6346778      50218.233      36.893836      36.893836      36.893836    
    653000   0.61586852    -7.5594956     -6.6357059      5.6903511      50218.233      36.893836      36.893836      36.893836    
    654000   0.61918513    -7.5623167     -6.6335523      5.670043       50218.233      36.893836      36.893836      36.893836    
    655000   0.6155024     -7.5615603     -6.6383198      5.6708569      50218.233      36.893836      36.893836      36.893836    
    656000   0.6152729     -7.5572275     -6.6343313      5.7064642      50218.233      36.893836      36.893836      36.893836    
    657000   0.61867162    -7.5632189     -6.6352247      5.6730163      50218.233      36.893836      36.893836      36.893836    
    658000   0.61636031    -7.5649004     -6.6403731      5.6642499      50218.233      36.893836      36.893836      36.893836    
    659000   0.6167662     -7.5649533     -6.6398171      5.6513619      50218.233      36.893836      36.893836      36.893836    
    660000   0.61395882    -7.5615311     -6.6406059      5.6698711      50218.233      36.893836      36.893836      36.893836    
    661000   0.61379735    -7.5685744     -6.6478915      5.620839       50218.233      36.893836      36.893836      36.893836    
    662000   0.61715435    -7.5658172     -6.6400989      5.6389314      50218.233      36.893836      36.893836      36.893836    
    663000   0.61784889    -7.5613543     -6.6345941      5.6867742      50218.233      36.893836      36.893836      36.893836    
    664000   0.61556868    -7.5643875     -6.6410476      5.6409452      50218.233      36.893836      36.893836      36.893836    
    665000   0.61453177    -7.5656323     -6.6438477      5.6611265      50218.233      36.893836      36.893836      36.893836    
    666000   0.61520211    -7.5637193     -6.6409292      5.6671213      50218.233      36.893836      36.893836      36.893836    
    667000   0.614366      -7.5685071     -6.6469712      5.6281708      50218.233      36.893836      36.893836      36.893836    
    668000   0.61378761    -7.5634269     -6.6427585      5.6579464      50218.233      36.893836      36.893836      36.893836    
    669000   0.61675623    -7.5679619     -6.6428407      5.62819        50218.233      36.893836      36.893836      36.893836    
    670000   0.61703353    -7.570614      -6.6450768      5.611717       50218.233      36.893836      36.893836      36.893836    
    671000   0.61256926    -7.5601804     -6.6413396      5.7026119      50218.233      36.893836      36.893836      36.893836    
    672000   0.61584055    -7.5719358     -6.6481881      5.6078624      50218.233      36.893836      36.893836      36.893836    
    673000   0.61779674    -7.5661486     -6.6394666      5.6490758      50218.233      36.893836      36.893836      36.893836    
    674000   0.61591754    -7.564317      -6.6404538      5.6747453      50218.233      36.893836      36.893836      36.893836    
    675000   0.61176084    -7.5751801     -6.6575519      5.5916446      50218.233      36.893836      36.893836      36.893836    
    676000   0.61730974    -7.567015      -6.6410636      5.6350484      50218.233      36.893836      36.893836      36.893836    
    677000   0.61328566    -7.5659603     -6.6460449      5.6363167      50218.233      36.893836      36.893836      36.893836    
    678000   0.61353449    -7.5697049     -6.6494162      5.6310091      50218.233      36.893836      36.893836      36.893836    
    679000   0.61672504    -7.5660928     -6.6410184      5.641346       50218.233      36.893836      36.893836      36.893836    
    680000   0.61491837    -7.563029      -6.6406645      5.6638757      50218.233      36.893836      36.893836      36.893836    
    681000   0.61487716    -7.5624229     -6.6401203      5.6751002      50218.233      36.893836      36.893836      36.893836    
    682000   0.61597498    -7.5665351     -6.6425858      5.6307796      50218.233      36.893836      36.893836      36.893836    
    683000   0.61762676    -7.5669786     -6.6405516      5.6381118      50218.233      36.893836      36.893836      36.893836    
    684000   0.61681501    -7.5645326     -6.6393232      5.6659821      50218.233      36.893836      36.893836      36.893836    
    685000   0.61429138    -7.5621304     -6.6407064      5.6705019      50218.233      36.893836      36.893836      36.893836    
    686000   0.61563983    -7.5651391     -6.6416925      5.6548395      50218.233      36.893836      36.893836      36.893836    
    687000   0.61478678    -7.5597002     -6.6375332      5.697926       50218.233      36.893836      36.893836      36.893836    
    688000   0.61366358    -7.5588077     -6.6383254      5.694566       50218.233      36.893836      36.893836      36.893836    
    689000   0.61414864    -7.5663228     -6.6451129      5.6294685      50218.233      36.893836      36.893836      36.893836    
    690000   0.61445092    -7.5626941     -6.6410308      5.6657786      50218.233      36.893836      36.893836      36.893836    
    691000   0.61411125    -7.5670932     -6.6459394      5.632747       50218.233      36.893836      36.893836      36.893836    
    692000   0.61793927    -7.5697617     -6.642866       5.6209689      50218.233      36.893836      36.893836      36.893836    
    693000   0.61571011    -7.5702538     -6.6467017      5.6125681      50218.233      36.893836      36.893836      36.893836    
    694000   0.61544098    -7.5625598     -6.6394115      5.6692664      50218.233      36.893836      36.893836      36.893836    
    695000   0.61473579    -7.5687105     -6.64662        5.6175216      50218.233      36.893836      36.893836      36.893836    
    696000   0.61509239    -7.5635232     -6.6408977      5.6752758      50218.233      36.893836      36.893836      36.893836    
    697000   0.61541412    -7.5592599     -6.6361519      5.7019667      50218.233      36.893836      36.893836      36.893836    
    698000   0.61561689    -7.5657941     -6.6423819      5.6676966      50218.233      36.893836      36.893836      36.893836    
    699000   0.617889      -7.5719414     -6.645121       5.6234303      50218.233      36.893836      36.893836      36.893836    
    700000   0.61695037    -7.5574622     -6.6320498      5.7215221      50218.233      36.893836      36.893836      36.893836    
    701000   0.61702864    -7.5610826     -6.6355528      5.694248       50218.233      36.893836      36.893836      36.893836    
    702000   0.61508442    -7.5649929     -6.6423794      5.6827328      50218.233      36.893836      36.893836      36.893836    
    703000   0.61398206    -7.5593377     -6.6383777      5.7088173      50218.233      36.893836      36.893836      36.893836    
    704000   0.61397118    -7.5646343     -6.6436906      5.6614853      50218.233      36.893836      36.893836      36.893836    
    705000   0.61355855    -7.5664185     -6.6460938      5.6533107      50218.233      36.893836      36.893836      36.893836    
    706000   0.61703746    -7.5638153     -6.6382723      5.670477       50218.233      36.893836      36.893836      36.893836    
    707000   0.61301299    -7.5605014     -6.640995       5.7032294      50218.233      36.893836      36.893836      36.893836    
    708000   0.61383434    -7.5691607     -6.6484223      5.6253895      50218.233      36.893836      36.893836      36.893836    
    709000   0.61743071    -7.5675119     -6.641379       5.6360849      50218.233      36.893836      36.893836      36.893836    
    710000   0.61573703    -7.5675922     -6.6439997      5.643909       50218.233      36.893836      36.893836      36.893836    
    711000   0.61443467    -7.5643253     -6.6426864      5.6631954      50218.233      36.893836      36.893836      36.893836    
    712000   0.61104904    -7.5610529     -6.6444923      5.6647285      50218.233      36.893836      36.893836      36.893836    
    713000   0.614743      -7.565902      -6.6438006      5.6511466      50218.233      36.893836      36.893836      36.893836    
    714000   0.61439325    -7.5679768     -6.6464         5.6382252      50218.233      36.893836      36.893836      36.893836    
    715000   0.6192875     -7.5636979     -6.6347799      5.680455       50218.233      36.893836      36.893836      36.893836    
    716000   0.61648201    -7.5709225     -6.6462127      5.6271225      50218.233      36.893836      36.893836      36.893836    
    717000   0.61570394    -7.5696406     -6.6460978      5.61501        50218.233      36.893836      36.893836      36.893836    
    718000   0.61814956    -7.5646175     -6.6374064      5.6765549      50218.233      36.893836      36.893836      36.893836    
    719000   0.61369274    -7.5683344     -6.6478084      5.6231546      50218.233      36.893836      36.893836      36.893836    
    720000   0.61378047    -7.566846      -6.6461884      5.6446242      50218.233      36.893836      36.893836      36.893836    
    721000   0.61701003    -7.5704202     -6.6449184      5.6180868      50218.233      36.893836      36.893836      36.893836    
    722000   0.61827803    -7.5567875     -6.6293837      5.7170692      50218.233      36.893836      36.893836      36.893836    
    723000   0.61581484    -7.5634925     -6.6397833      5.6630692      50218.233      36.893836      36.893836      36.893836    
    724000   0.61522453    -7.5662225     -6.6433989      5.6469934      50218.233      36.893836      36.893836      36.893836    
    725000   0.61723956    -7.5657103     -6.6398641      5.6534242      50218.233      36.893836      36.893836      36.893836    
    726000   0.61742806    -7.567932      -6.641803       5.6319513      50218.233      36.893836      36.893836      36.893836    
    727000   0.61398344    -7.5671133     -6.6461513      5.6470869      50218.233      36.893836      36.893836      36.893836    
    728000   0.61221322    -7.5619311     -6.6436244      5.6717141      50218.233      36.893836      36.893836      36.893836    
    729000   0.61458966    -7.5618857     -6.6400144      5.6673987      50218.233      36.893836      36.893836      36.893836    
    730000   0.61465037    -7.5631313     -6.6411689      5.6786112      50218.233      36.893836      36.893836      36.893836    
    731000   0.61360618    -7.5630922     -6.642696       5.6525139      50218.233      36.893836      36.893836      36.893836    
    732000   0.61699335    -7.5624137     -6.6369369      5.6706153      50218.233      36.893836      36.893836      36.893836    
    733000   0.61763642    -7.5636615     -6.63722        5.660503       50218.233      36.893836      36.893836      36.893836    
    734000   0.615071      -7.5670385     -6.6444451      5.6517227      50218.233      36.893836      36.893836      36.893836    
    735000   0.61357823    -7.5663401     -6.6459858      5.6402082      50218.233      36.893836      36.893836      36.893836    
    736000   0.61308268    -7.5631757     -6.6435648      5.6690564      50218.233      36.893836      36.893836      36.893836    
    737000   0.61403993    -7.5611187     -6.6400719      5.6850953      50218.233      36.893836      36.893836      36.893836    
    738000   0.61400884    -7.5626759     -6.6416758      5.6846243      50218.233      36.893836      36.893836      36.893836    
    739000   0.60993718    -7.5628056     -6.6479128      5.6726546      50218.233      36.893836      36.893836      36.893836    
    740000   0.61552608    -7.5711423     -6.6478663      5.6149413      50218.233      36.893836      36.893836      36.893836    
    741000   0.6131913     -7.5666002     -6.6468264      5.6485211      50218.233      36.893836      36.893836      36.893836    
    742000   0.61805902    -7.5703777     -6.6433024      5.6240389      50218.233      36.893836      36.893836      36.893836    
    743000   0.61089729    -7.565985      -6.6496521      5.6462718      50218.233      36.893836      36.893836      36.893836    
    744000   0.61001139    -7.5655444     -6.6505403      5.6442648      50218.233      36.893836      36.893836      36.893836    
    745000   0.6153166     -7.5637341     -6.6407723      5.6672741      50218.233      36.893836      36.893836      36.893836    
    746000   0.61638644    -7.5648894     -6.6403229      5.6597823      50218.233      36.893836      36.893836      36.893836    
    747000   0.61602275    -7.5587827     -6.6347617      5.703547       50218.233      36.893836      36.893836      36.893836    
    748000   0.61229447    -7.5642781     -6.6458495      5.6530097      50218.233      36.893836      36.893836      36.893836    
    749000   0.61526711    -7.5653582     -6.6424706      5.6397183      50218.233      36.893836      36.893836      36.893836    
    750000   0.61466303    -7.5581792     -6.6361977      5.7072307      50218.233      36.893836      36.893836      36.893836    
    751000   0.61842794    -7.5607118     -6.6330831      5.6882395      50218.233      36.893836      36.893836      36.893836    
    752000   0.61545128    -7.5667626     -6.6435988      5.6401809      50218.233      36.893836      36.893836      36.893836    
    753000   0.61143487    -7.5594338     -6.6422946      5.6961457      50218.233      36.893836      36.893836      36.893836    
    754000   0.6174646     -7.5647806     -6.6385968      5.6595473      50218.233      36.893836      36.893836      36.893836    
    755000   0.61304701    -7.5606037     -6.6410462      5.6897857      50218.233      36.893836      36.893836      36.893836    
    756000   0.61425023    -7.5609789     -6.6396167      5.684794       50218.233      36.893836      36.893836      36.893836    
    757000   0.61518926    -7.5619592     -6.6391884      5.6761615      50218.233      36.893836      36.893836      36.893836    
    758000   0.6155361     -7.5652541     -6.6419631      5.6491907      50218.233      36.893836      36.893836      36.893836    
    759000   0.61282943    -7.5588443     -6.6396132      5.6939477      50218.233      36.893836      36.893836      36.893836    
    760000   0.61346334    -7.5631184     -6.6429365      5.6552765      50218.233      36.893836      36.893836      36.893836    
    761000   0.61712514    -7.5601466     -6.634472       5.6819363      50218.233      36.893836      36.893836      36.893836    
    762000   0.61486888    -7.5630426     -6.6407524      5.6619605      50218.233      36.893836      36.893836      36.893836    
    763000   0.61317848    -7.5635252     -6.6437705      5.6593957      50218.233      36.893836      36.893836      36.893836    
    764000   0.61584852    -7.5615302     -6.6377706      5.6643139      50218.233      36.893836      36.893836      36.893836    
    765000   0.61657827    -7.5616697     -6.6368155      5.6783196      50218.233      36.893836      36.893836      36.893836    
    766000   0.61439769    -7.5665428     -6.6449594      5.6419528      50218.233      36.893836      36.893836      36.893836    
    767000   0.61557407    -7.5656958     -6.6423478      5.6427173      50218.233      36.893836      36.893836      36.893836    
    768000   0.61675517    -7.5655912     -6.6404716      5.6580141      50218.233      36.893836      36.893836      36.893836    
    769000   0.61344722    -7.5611223     -6.6409646      5.6675823      50218.233      36.893836      36.893836      36.893836    
    770000   0.61751832    -7.5631191     -6.6368548      5.678893       50218.233      36.893836      36.893836      36.893836    
    771000   0.61502025    -7.5702687     -6.6477514      5.610704       50218.233      36.893836      36.893836      36.893836    
    772000   0.61603068    -7.5646421     -6.6406092      5.657636       50218.233      36.893836      36.893836      36.893836    
    773000   0.61658916    -7.5661108     -6.6412402      5.6585129      50218.233      36.893836      36.893836      36.893836    
    774000   0.61452276    -7.5735384     -6.6517674      5.5889234      50218.233      36.893836      36.893836      36.893836    
    775000   0.61790302    -7.5610845     -6.6342432      5.6941399      50218.233      36.893836      36.893836      36.893836    
    776000   0.61381718    -7.5609169     -6.6402042      5.6872823      50218.233      36.893836      36.893836      36.893836    
    777000   0.61298532    -7.5678504     -6.6483855      5.6300404      50218.233      36.893836      36.893836      36.893836    
    778000   0.6142169     -7.5621095     -6.6407972      5.6756202      50218.233      36.893836      36.893836      36.893836    
    779000   0.61265969    -7.5607587     -6.6417822      5.6933197      50218.233      36.893836      36.893836      36.893836    
    780000   0.61372989    -7.5635895     -6.6430078      5.6542203      50218.233      36.893836      36.893836      36.893836    
    781000   0.61623797    -7.5626889     -6.6383451      5.6743939      50218.233      36.893836      36.893836      36.893836    
    782000   0.61109352    -7.5639939     -6.6473667      5.6523767      50218.233      36.893836      36.893836      36.893836    
    783000   0.61488043    -7.5638136     -6.641506       5.6706381      50218.233      36.893836      36.893836      36.893836    
    784000   0.61761701    -7.5619381     -6.6355258      5.700308       50218.233      36.893836      36.893836      36.893836    
    785000   0.61343084    -7.56058       -6.6404468      5.6870561      50218.233      36.893836      36.893836      36.893836    
    786000   0.61576656    -7.5628371     -6.6392004      5.6878185      50218.233      36.893836      36.893836      36.893836    
    787000   0.61383318    -7.5641631     -6.6434264      5.6578357      50218.233      36.893836      36.893836      36.893836    
    788000   0.61555885    -7.5626713     -6.6393461      5.6655398      50218.233      36.893836      36.893836      36.893836    
    789000   0.61453629    -7.5638211     -6.6420298      5.6607612      50218.233      36.893836      36.893836      36.893836    
    790000   0.61786583    -7.5570948     -6.6303092      5.730168       50218.233      36.893836      36.893836      36.893836    
    791000   0.6150982     -7.557843      -6.6352088      5.7001576      50218.233      36.893836      36.893836      36.893836    
    792000   0.61272407    -7.5611023     -6.6420293      5.6776181      50218.233      36.893836      36.893836      36.893836    
    793000   0.6160415     -7.5612636     -6.6372145      5.704987       50218.233      36.893836      36.893836      36.893836    
    794000   0.6146215     -7.5631928     -6.6412737      5.6692012      50218.233      36.893836      36.893836      36.893836    
    795000   0.61741931    -7.5550267     -6.6289109      5.7328237      50218.233      36.893836      36.893836      36.893836    
    796000   0.61492528    -7.5598613     -6.6374865      5.7000741      50218.233      36.893836      36.893836      36.893836    
    797000   0.61528422    -7.5557156     -6.6328024      5.7065131      50218.233      36.893836      36.893836      36.893836    
    798000   0.61679588    -7.5641968     -6.6390161      5.6625762      50218.233      36.893836      36.893836      36.893836    
    799000   0.61191781    -7.5656049     -6.6477412      5.658291       50218.233      36.893836      36.893836      36.893836    
    800000   0.6147061     -7.5646132     -6.6425672      5.6555213      50218.233      36.893836      36.893836      36.893836    
    801000   0.6140863     -7.5584184     -6.6373021      5.7076576      50218.233      36.893836      36.893836      36.893836    
    802000   0.61292128    -7.5654693     -6.6461005      5.6466853      50218.233      36.893836      36.893836      36.893836    
    803000   0.60952236    -7.5645455     -6.650275       5.6494511      50218.233      36.893836      36.893836      36.893836    
    804000   0.61239248    -7.5646034     -6.6460277      5.6449914      50218.233      36.893836      36.893836      36.893836    
    805000   0.61440917    -7.5703147     -6.6487141      5.6174137      50218.233      36.893836      36.893836      36.893836    
    806000   0.61588429    -7.5672076     -6.6433943      5.6424786      50218.233      36.893836      36.893836      36.893836    
    807000   0.61725378    -7.5590839     -6.6332164      5.702702       50218.233      36.893836      36.893836      36.893836    
    808000   0.61496975    -7.5612938     -6.6388523      5.6866599      50218.233      36.893836      36.893836      36.893836    
    809000   0.61690701    -7.5605663     -6.635219       5.6939347      50218.233      36.893836      36.893836      36.893836    
    810000   0.61655425    -7.5695385     -6.6447203      5.6220792      50218.233      36.893836      36.893836      36.893836    
    811000   0.61704285    -7.5617625     -6.6362114      5.6757692      50218.233      36.893836      36.893836      36.893836    
    812000   0.61637196    -7.5609647     -6.6364199      5.6746639      50218.233      36.893836      36.893836      36.893836    
    813000   0.61381105    -7.5577514     -6.6370479      5.7033558      50218.233      36.893836      36.893836      36.893836    
    814000   0.61710578    -7.5657599     -6.6401143      5.6555912      50218.233      36.893836      36.893836      36.893836    
    815000   0.61679224    -7.5572637     -6.6320885      5.7205985      50218.233      36.893836      36.893836      36.893836    
    816000   0.61294441    -7.5627524     -6.6433489      5.6775496      50218.233      36.893836      36.893836      36.893836    
    817000   0.61564628    -7.562513      -6.6390567      5.6803881      50218.233      36.893836      36.893836      36.893836    
    818000   0.61513571    -7.5580734     -6.635383       5.7023834      50218.233      36.893836      36.893836      36.893836    
    819000   0.61322867    -7.5589299     -6.6390999      5.6918928      50218.233      36.893836      36.893836      36.893836    
    820000   0.61296237    -7.5592584     -6.6398279      5.7010154      50218.233      36.893836      36.893836      36.893836    
    821000   0.6138002     -7.5625989     -6.6419117      5.6717693      50218.233      36.893836      36.893836      36.893836    
    822000   0.61809612    -7.5614504     -6.6343194      5.6773961      50218.233      36.893836      36.893836      36.893836    
    823000   0.61413443    -7.5621068     -6.6409182      5.6656914      50218.233      36.893836      36.893836      36.893836    
    824000   0.61216078    -7.5601339     -6.6419058      5.6981143      50218.233      36.893836      36.893836      36.893836    
    825000   0.615338      -7.5602902     -6.6372963      5.6827157      50218.233      36.893836      36.893836      36.893836    
    826000   0.61693238    -7.5585161     -6.6331306      5.7142956      50218.233      36.893836      36.893836      36.893836    
    827000   0.61554948    -7.5598627     -6.6365516      5.6974123      50218.233      36.893836      36.893836      36.893836    
    828000   0.61563752    -7.5626026     -6.6391594      5.6801008      50218.233      36.893836      36.893836      36.893836    
    829000   0.61310928    -7.5616258     -6.641975       5.6786727      50218.233      36.893836      36.893836      36.893836    
    830000   0.61846599    -7.5579853     -6.6302995      5.7287561      50218.233      36.893836      36.893836      36.893836    
    831000   0.61462979    -7.5597784     -6.6378468      5.7081369      50218.233      36.893836      36.893836      36.893836    
    832000   0.61402742    -7.5657291     -6.644701       5.6441664      50218.233      36.893836      36.893836      36.893836    
    833000   0.61399691    -7.5665441     -6.6455619      5.6402044      50218.233      36.893836      36.893836      36.893836    
    834000   0.61662572    -7.5654446     -6.6405192      5.6565019      50218.233      36.893836      36.893836      36.893836    
    835000   0.61513952    -7.5562187     -6.6335226      5.7353991      50218.233      36.893836      36.893836      36.893836    
    836000   0.61396091    -7.5641966     -6.6432684      5.665087       50218.233      36.893836      36.893836      36.893836    
    837000   0.6174495     -7.5660854     -6.6399243      5.6501855      50218.233      36.893836      36.893836      36.893836    
    838000   0.6140817     -7.5601109     -6.6390015      5.6913145      50218.233      36.893836      36.893836      36.893836    
    839000   0.61492738    -7.5627932     -6.6404152      5.6621704      50218.233      36.893836      36.893836      36.893836    
    840000   0.61359191    -7.5652393     -6.6448645      5.6610715      50218.233      36.893836      36.893836      36.893836    
    841000   0.61862718    -7.5651546     -6.6372271      5.668503       50218.233      36.893836      36.893836      36.893836    
    842000   0.6152331     -7.5643847     -6.6415482      5.6580162      50218.233      36.893836      36.893836      36.893836    
    843000   0.61526702    -7.5667508     -6.6438634      5.6356899      50218.233      36.893836      36.893836      36.893836    
    844000   0.61384081    -7.5664727     -6.6457246      5.6506402      50218.233      36.893836      36.893836      36.893836    
    845000   0.61123657    -7.5683954     -6.6515536      5.6154574      50218.233      36.893836      36.893836      36.893836    
    846000   0.61366555    -7.5643319     -6.6438467      5.6540604      50218.233      36.893836      36.893836      36.893836    
    847000   0.61459039    -7.5687464     -6.646874       5.6239364      50218.233      36.893836      36.893836      36.893836    
    848000   0.6159465     -7.564109      -6.6402024      5.6665131      50218.233      36.893836      36.893836      36.893836    
    849000   0.61752976    -7.5600685     -6.6337871      5.7034669      50218.233      36.893836      36.893836      36.893836    
    850000   0.61703376    -7.5711767     -6.6456392      5.6060197      50218.233      36.893836      36.893836      36.893836    
    851000   0.6170365     -7.5652826     -6.639741       5.6580713      50218.233      36.893836      36.893836      36.893836    
    852000   0.61380319    -7.5656741     -6.6449824      5.6472266      50218.233      36.893836      36.893836      36.893836    
    853000   0.61339016    -7.5665796     -6.6465074      5.6442972      50218.233      36.893836      36.893836      36.893836    
    854000   0.61598602    -7.5680266     -6.6440607      5.6339164      50218.233      36.893836      36.893836      36.893836    
    855000   0.61524964    -7.5723488     -6.6494875      5.6061701      50218.233      36.893836      36.893836      36.893836    
    856000   0.61311818    -7.5680932     -6.6484291      5.6270272      50218.233      36.893836      36.893836      36.893836    
    857000   0.61329165    -7.5689762     -6.6490518      5.6264083      50218.233      36.893836      36.893836      36.893836    
    858000   0.6134298     -7.5565889     -6.6364573      5.7055793      50218.233      36.893836      36.893836      36.893836    
    859000   0.61650074    -7.5701414     -6.6454035      5.6177396      50218.233      36.893836      36.893836      36.893836    
    860000   0.61540849    -7.5638266     -6.640727       5.6769608      50218.233      36.893836      36.893836      36.893836    
    861000   0.61192952    -7.5643942     -6.646513       5.6617543      50218.233      36.893836      36.893836      36.893836    
    862000   0.61513462    -7.5683511     -6.6456623      5.6433904      50218.233      36.893836      36.893836      36.893836    
    863000   0.61733711    -7.5613378     -6.6353453      5.6922759      50218.233      36.893836      36.893836      36.893836    
    864000   0.61292945    -7.5581348     -6.6387537      5.7111517      50218.233      36.893836      36.893836      36.893836    
    865000   0.61642271    -7.5692428     -6.6446219      5.6253676      50218.233      36.893836      36.893836      36.893836    
    866000   0.61221929    -7.5632113     -6.6448954      5.6696917      50218.233      36.893836      36.893836      36.893836    
    867000   0.61462879    -7.5568515     -6.6349214      5.7170607      50218.233      36.893836      36.893836      36.893836    
    868000   0.61366529    -7.5625319     -6.642047       5.6715894      50218.233      36.893836      36.893836      36.893836    
    869000   0.61428229    -7.5648205     -6.6434102      5.6674949      50218.233      36.893836      36.893836      36.893836    
    870000   0.61539948    -7.5699749     -6.6468888      5.6166902      50218.233      36.893836      36.893836      36.893836    
    871000   0.61370334    -7.5681984     -6.6476565      5.6198778      50218.233      36.893836      36.893836      36.893836    
    872000   0.61927979    -7.5670784     -6.638172       5.6494608      50218.233      36.893836      36.893836      36.893836    
    873000   0.61519365    -7.5619699     -6.6391925      5.6761228      50218.233      36.893836      36.893836      36.893836    
    874000   0.61388837    -7.5665239     -6.6457044      5.6371939      50218.233      36.893836      36.893836      36.893836    
    875000   0.61522042    -7.5671392     -6.6443217      5.6354741      50218.233      36.893836      36.893836      36.893836    
    876000   0.61685585    -7.5680788     -6.6428082      5.6294193      50218.233      36.893836      36.893836      36.893836    
    877000   0.61552449    -7.56543       -6.6421564      5.6657636      50218.233      36.893836      36.893836      36.893836    
    878000   0.61738705    -7.5622532     -6.6361858      5.6736146      50218.233      36.893836      36.893836      36.893836    
    879000   0.61767174    -7.5674423     -6.6409479      5.6341996      50218.233      36.893836      36.893836      36.893836    
    880000   0.61378585    -7.5707698     -6.6501042      5.6133539      50218.233      36.893836      36.893836      36.893836    
    881000   0.61581184    -7.5706263     -6.6469217      5.6132029      50218.233      36.893836      36.893836      36.893836    
    882000   0.61618543    -7.5675677     -6.6433027      5.6449033      50218.233      36.893836      36.893836      36.893836    
    883000   0.61688493    -7.5622217     -6.6369075      5.6796191      50218.233      36.893836      36.893836      36.893836    
    884000   0.61481688    -7.5622228     -6.6400106      5.6728087      50218.233      36.893836      36.893836      36.893836    
    885000   0.61828507    -7.5653932     -6.6379788      5.6630455      50218.233      36.893836      36.893836      36.893836    
    886000   0.61632569    -7.5680615     -6.6435861      5.6352877      50218.233      36.893836      36.893836      36.893836    
    887000   0.61368504    -7.5671441     -6.6466296      5.6420599      50218.233      36.893836      36.893836      36.893836    
    888000   0.61720242    -7.5634704     -6.63768        5.671512       50218.233      36.893836      36.893836      36.893836    
    889000   0.61208188    -7.5627747     -6.644665       5.6660165      50218.233      36.893836      36.893836      36.893836    
    890000   0.61471402    -7.5581642     -6.6361062      5.710625       50218.233      36.893836      36.893836      36.893836    
    891000   0.61379126    -7.5642385     -6.6435647      5.6422497      50218.233      36.893836      36.893836      36.893836    
    892000   0.61312571    -7.5648755     -6.6452001      5.6473817      50218.233      36.893836      36.893836      36.893836    
    893000   0.61439096    -7.5660714     -6.6444981      5.639468       50218.233      36.893836      36.893836      36.893836    
    894000   0.61724637    -7.5637248     -6.6378684      5.6717545      50218.233      36.893836      36.893836      36.893836    
    895000   0.61485276    -7.5597192     -6.6374532      5.6903334      50218.233      36.893836      36.893836      36.893836    
    896000   0.61160353    -7.5681137     -6.6507214      5.6294419      50218.233      36.893836      36.893836      36.893836    
    897000   0.61642347    -7.5662095     -6.6415875      5.6391498      50218.233      36.893836      36.893836      36.893836    
    898000   0.6140054     -7.5593242     -6.6383292      5.6876453      50218.233      36.893836      36.893836      36.893836    
    899000   0.61430898    -7.5609947     -6.6395444      5.688315       50218.233      36.893836      36.893836      36.893836    
    900000   0.61524594    -7.5609239     -6.6380681      5.6796372      50218.233      36.893836      36.893836      36.893836    
    901000   0.61343077    -7.5675439     -6.6474108      5.6411216      50218.233      36.893836      36.893836      36.893836    
    902000   0.61704747    -7.5657811     -6.6402231      5.63946        50218.233      36.893836      36.893836      36.893836    
    903000   0.61462214    -7.5608526     -6.6389325      5.6964354      50218.233      36.893836      36.893836      36.893836    
    904000   0.61640277    -7.5604366     -6.6358456      5.6876613      50218.233      36.893836      36.893836      36.893836    
    905000   0.61363585    -7.5618474     -6.6414067      5.6683021      50218.233      36.893836      36.893836      36.893836    
    906000   0.61214041    -7.5630602     -6.6448627      5.6677047      50218.233      36.893836      36.893836      36.893836    
    907000   0.61480655    -7.5579076     -6.6357109      5.7029555      50218.233      36.893836      36.893836      36.893836    
    908000   0.61484161    -7.5600775     -6.6378282      5.6957418      50218.233      36.893836      36.893836      36.893836    
    909000   0.61553407    -7.5649102     -6.6416223      5.6541204      50218.233      36.893836      36.893836      36.893836    
    910000   0.61520892    -7.5607481     -6.6379478      5.6759017      50218.233      36.893836      36.893836      36.893836    
    911000   0.61109128    -7.5667978     -6.6501739      5.62852        50218.233      36.893836      36.893836      36.893836    
    912000   0.61748894    -7.5629173     -6.6366971      5.6705107      50218.233      36.893836      36.893836      36.893836    
    913000   0.6124413     -7.561107      -6.6424581      5.685157       50218.233      36.893836      36.893836      36.893836    
    914000   0.61461816    -7.5634006     -6.6414865      5.6751198      50218.233      36.893836      36.893836      36.893836    
    915000   0.61295286    -7.5644525     -6.6450362      5.6617069      50218.233      36.893836      36.893836      36.893836    
    916000   0.61229076    -7.5670648     -6.6486417      5.6398541      50218.233      36.893836      36.893836      36.893836    
    917000   0.61231168    -7.5628324     -6.6443779      5.6641161      50218.233      36.893836      36.893836      36.893836    
    918000   0.61260284    -7.5637685     -6.6448773      5.6687604      50218.233      36.893836      36.893836      36.893836    
    919000   0.61216672    -7.5667257     -6.6484886      5.6318095      50218.233      36.893836      36.893836      36.893836    
    920000   0.61645602    -7.5644486     -6.6397777      5.6556461      50218.233      36.893836      36.893836      36.893836    
    921000   0.61403842    -7.5595225     -6.638478       5.6836562      50218.233      36.893836      36.893836      36.893836    
    922000   0.61228893    -7.5626842     -6.6442639      5.6657054      50218.233      36.893836      36.893836      36.893836    
    923000   0.61314589    -7.5603016     -6.6405958      5.68305        50218.233      36.893836      36.893836      36.893836    
    924000   0.61323878    -7.5596742     -6.6398291      5.6942188      50218.233      36.893836      36.893836      36.893836    
    925000   0.61253229    -7.5618628     -6.6430774      5.6782691      50218.233      36.893836      36.893836      36.893836    
    926000   0.6162915     -7.5615748     -6.6371507      5.6909492      50218.233      36.893836      36.893836      36.893836    
    927000   0.6172226     -7.5636084     -6.6377877      5.6674855      50218.233      36.893836      36.893836      36.893836    
    928000   0.6131275     -7.5564007     -6.6367225      5.7114365      50218.233      36.893836      36.893836      36.893836    
    929000   0.61567       -7.5625742     -6.6390823      5.6831299      50218.233      36.893836      36.893836      36.893836    
    930000   0.61411369    -7.5592536     -6.6380961      5.6838683      50218.233      36.893836      36.893836      36.893836    
    931000   0.61224362    -7.5573309     -6.6389786      5.701169       50218.233      36.893836      36.893836      36.893836    
    932000   0.61206793    -7.5676485     -6.6495596      5.6280124      50218.233      36.893836      36.893836      36.893836    
    933000   0.61643876    -7.5622072     -6.6375622      5.6823796      50218.233      36.893836      36.893836      36.893836    
    934000   0.61589052    -7.5663831     -6.6425604      5.6384817      50218.233      36.893836      36.893836      36.893836    
    935000   0.61461541    -7.5639617     -6.6420517      5.663447       50218.233      36.893836      36.893836      36.893836    
    936000   0.61624317    -7.5622414     -6.6378898      5.6841555      50218.233      36.893836      36.893836      36.893836    
    937000   0.6177175     -7.5573008     -6.6307377      5.7121911      50218.233      36.893836      36.893836      36.893836    
    938000   0.61360001    -7.562987      -6.6426         5.6698361      50218.233      36.893836      36.893836      36.893836    
    939000   0.61636808    -7.5605292     -6.6359903      5.6906655      50218.233      36.893836      36.893836      36.893836    
    940000   0.61764039    -7.5636715     -6.6372241      5.6721572      50218.233      36.893836      36.893836      36.893836    
    941000   0.61452741    -7.5657921     -6.6440141      5.6546081      50218.233      36.893836      36.893836      36.893836    
    942000   0.6204235     -7.5679066     -6.6372846      5.6430144      50218.233      36.893836      36.893836      36.893836    
    943000   0.61569258    -7.562189      -6.6386633      5.6891265      50218.233      36.893836      36.893836      36.893836    
    944000   0.61412399    -7.5558705     -6.6346977      5.7231372      50218.233      36.893836      36.893836      36.893836    
    945000   0.61623764    -7.5662445     -6.6419012      5.6456204      50218.233      36.893836      36.893836      36.893836    
    946000   0.61480553    -7.5644873     -6.6422921      5.6724302      50218.233      36.893836      36.893836      36.893836    
    947000   0.61501654    -7.5664385     -6.6439268      5.644596       50218.233      36.893836      36.893836      36.893836    
    948000   0.6135582     -7.5653726     -6.6450484      5.6510622      50218.233      36.893836      36.893836      36.893836    
    949000   0.61439671    -7.5660066     -6.6444247      5.6568113      50218.233      36.893836      36.893836      36.893836    
    950000   0.61728077    -7.56416       -6.638252       5.6590654      50218.233      36.893836      36.893836      36.893836    
    951000   0.61343213    -7.5645696     -6.6444345      5.6535414      50218.233      36.893836      36.893836      36.893836    
    952000   0.61484692    -7.5561754     -6.6339181      5.7202319      50218.233      36.893836      36.893836      36.893836    
    953000   0.61327537    -7.5626708     -6.6427708      5.6691965      50218.233      36.893836      36.893836      36.893836    
    954000   0.6137985     -7.5603689     -6.6396842      5.6921621      50218.233      36.893836      36.893836      36.893836    
    955000   0.61244742    -7.5624173     -6.6437592      5.6711718      50218.233      36.893836      36.893836      36.893836    
    956000   0.61883279    -7.5579954     -6.6297594      5.7118578      50218.233      36.893836      36.893836      36.893836    
    957000   0.61075724    -7.5641406     -6.6480178      5.6695416      50218.233      36.893836      36.893836      36.893836    
    958000   0.61322062    -7.5651338     -6.6453159      5.6583546      50218.233      36.893836      36.893836      36.893836    
    959000   0.61428546    -7.5607091     -6.639294       5.6794401      50218.233      36.893836      36.893836      36.893836    
    960000   0.61475474    -7.5694911     -6.6473721      5.6286012      50218.233      36.893836      36.893836      36.893836    
    961000   0.61773235    -7.5634618     -6.6368765      5.6726271      50218.233      36.893836      36.893836      36.893836    
    962000   0.61403179    -7.5599687     -6.6389342      5.6926598      50218.233      36.893836      36.893836      36.893836    
    963000   0.61091302    -7.5582584     -6.6419019      5.7011921      50218.233      36.893836      36.893836      36.893836    
    964000   0.61144866    -7.5695341     -6.6523742      5.6210556      50218.233      36.893836      36.893836      36.893836    
    965000   0.61610944    -7.5572399     -6.6330888      5.7208384      50218.233      36.893836      36.893836      36.893836    
    966000   0.61610403    -7.5640022     -6.6398593      5.6483024      50218.233      36.893836      36.893836      36.893836    
    967000   0.61567065    -7.5635796     -6.6400867      5.6672062      50218.233      36.893836      36.893836      36.893836    
    968000   0.61343284    -7.5637073     -6.6435711      5.6701123      50218.233      36.893836      36.893836      36.893836    
    969000   0.61741304    -7.5658403     -6.639734       5.6553166      50218.233      36.893836      36.893836      36.893836    
    970000   0.61231359    -7.5660748     -6.6476175      5.6521888      50218.233      36.893836      36.893836      36.893836    
    971000   0.61399219    -7.5648091     -6.6438339      5.6529816      50218.233      36.893836      36.893836      36.893836    
    972000   0.61477806    -7.5642537     -6.6420997      5.6758862      50218.233      36.893836      36.893836      36.893836    
    973000   0.61182692    -7.5651237     -6.6473964      5.6453417      50218.233      36.893836      36.893836      36.893836    
    974000   0.61412303    -7.567857      -6.6466856      5.628054       50218.233      36.893836      36.893836      36.893836    
    975000   0.61321732    -7.5633335     -6.6435206      5.6650344      50218.233      36.893836      36.893836      36.893836    
    976000   0.61274343    -7.5674155     -6.6483134      5.6394137      50218.233      36.893836      36.893836      36.893836    
    977000   0.61317946    -7.5611497     -6.6413936      5.676895       50218.233      36.893836      36.893836      36.893836    
    978000   0.61359668    -7.5625205     -6.6421386      5.6637748      50218.233      36.893836      36.893836      36.893836    
    979000   0.61443209    -7.5592198     -6.6375847      5.6820774      50218.233      36.893836      36.893836      36.893836    
    980000   0.61217411    -7.5665527     -6.6483046      5.6308305      50218.233      36.893836      36.893836      36.893836    
    981000   0.61579226    -7.5679846     -6.6443093      5.6236519      50218.233      36.893836      36.893836      36.893836    
    982000   0.61530464    -7.5620263     -6.6390825      5.6778122      50218.233      36.893836      36.893836      36.893836    
    983000   0.61794158    -7.5688245     -6.6419253      5.6349774      50218.233      36.893836      36.893836      36.893836    
    984000   0.61455052    -7.5650775     -6.6432648      5.6626939      50218.233      36.893836      36.893836      36.893836    
    985000   0.61537621    -7.5646616     -6.6416105      5.6572118      50218.233      36.893836      36.893836      36.893836    
    986000   0.61622032    -7.5653711     -6.6410537      5.6418384      50218.233      36.893836      36.893836      36.893836    
    987000   0.61343374    -7.5637824     -6.6436449      5.6641405      50218.233      36.893836      36.893836      36.893836    
    988000   0.61674223    -7.5629878     -6.6378876      5.6795204      50218.233      36.893836      36.893836      36.893836    
    989000   0.61505171    -7.5717488     -6.6491844      5.6122354      50218.233      36.893836      36.893836      36.893836    
    990000   0.61332626    -7.5651937     -6.6452174      5.646731       50218.233      36.893836      36.893836      36.893836    
    991000   0.61558354    -7.5684817     -6.6451196      5.6210806      50218.233      36.893836      36.893836      36.893836    
    992000   0.612669      -7.5631394     -6.644149       5.6808393      50218.233      36.893836      36.893836      36.893836    
    993000   0.61558597    -7.5632248     -6.639859       5.6656917      50218.233      36.893836      36.893836      36.893836    
    994000   0.61385173    -7.5675716     -6.6468071      5.6444233      50218.233      36.893836      36.893836      36.893836    
    995000   0.61357139    -7.5607672     -6.6404232      5.6888607      50218.233      36.893836      36.893836      36.893836    
    996000   0.6162778     -7.5663932     -6.6419897      5.6506155      50218.233      36.893836      36.893836      36.893836    
    997000   0.61849692    -7.5618761     -6.6341439      5.6920251      50218.233      36.893836      36.893836      36.893836    
    998000   0.616849      -7.5592447     -6.6339844      5.7085791      50218.233      36.893836      36.893836      36.893836    
    999000   0.61214217    -7.568716      -6.6505158      5.6275757      50218.233      36.893836      36.893836      36.893836    
   1000000   0.61568546    -7.5644781     -6.640963       5.663667       50218.233      36.893836      36.893836      36.893836    
Loop time of 4372.78 on 1 procs for 1000000 steps with 70304 atoms

Performance: 197586.131 tau/day, 228.688 timesteps/s, 16.078 Matom-step/s
100.0% CPU use with 1 MPI tasks x 1 OpenMP threads

MPI task timing breakdown:
Section |  min time  |  avg time  |  max time  |%varavg| %total
---------------------------------------------------------------
Pair    | 1066.7     | 1066.7     | 1066.7     |   0.0 | 24.39
Neigh   | 42.317     | 42.317     | 42.317     |   0.0 |  0.97
Comm    | 547.32     | 547.32     | 547.32     |   0.0 | 12.52
Output  | 0.7468     | 0.7468     | 0.7468     |   0.0 |  0.02
Modify  | 2280.1     | 2280.1     | 2280.1     |   0.0 | 52.14
Other   |            | 435.6      |            |       |  9.96

Nlocal:          70304 ave       70304 max       70304 min
Histogram: 1 0 0 0 0 0 0 0 0 0
Nghost:          37115 ave       37115 max       37115 min
Histogram: 1 0 0 0 0 0 0 0 0 0
Neighs:              0 ave           0 max           0 min
Histogram: 1 0 0 0 0 0 0 0 0 0

Total # of neighbors = 0
Ave neighs/atom = 0
Neighbor list builds = 238548
Dangerous builds = 0
clear
OMP_NUM_THREADS environment is not set. Defaulting to 1 thread. (src/comm.cpp:98)
  using 1 OpenMP thread(s) per MPI task
package gpu 0
jump dms610.lmp

variable T equal 610
# T = 1000* (temp in LJ unit)
variable f equal 1000
log log.${T}
log log.610
