variable TLJ equal (${T}/1000)
variable TLJ equal (260/1000)
variable NCyle equal 10
variable iStep equal (${f})
variable iStep equal (1000)
variable dumpStep equal (${f}*100)
variable dumpStep equal (1000*100)
variable runStep equal (${f}*100*${NCyle})
variable runStep equal (1000*100*${NCyle})
variable runStep equal (1000*100*10)

units       lj
atom_style  atomic
dimension 3
boundary     p p p
pair_style  lj/cut 2.5
read_data  ../data/T${T}.dat
read_data  ../data/T260.dat
Reading data file ...
  orthogonal box = (0.97250269 0.97250269 0.97250269) to (37.866338 37.866338 37.866338)
  1 by 2 by 2 MPI processor grid
  reading atoms ...
  70304 atoms
  reading velocities ...
  70304 velocities
  read_data CPU = 0.189 seconds
change_box all triclinic
Changing box ...
  triclinic box = (0.97250269 0.97250269 0.97250269) to (37.866338 37.866338 37.866338) with tilt (0 0 0)
mass 1 1
mass 2 1
pair_modify shift yes
pair_coeff  1 1 1 1
pair_coeff  1 2 1.5 0.8
pair_coeff  2 2 0.5 0.88


timestep 0.01
thermo ${iStep}
thermo 1000
reset_timestep 0
thermo_style custom step temp pe etotal press vol lx ly lz
fix             1 all nvt temp ${TLJ}  ${TLJ}  0.1
fix             1 all nvt temp 0.26  ${TLJ}  0.1
fix             1 all nvt temp 0.26  0.26  0.1
thermo_modify flush yes

fix dsf all deform 1 xy  wiggle 0.5  ${f}   units box
fix dsf all deform 1 xy  wiggle 0.5  1000   units box
fix ps1 all ave/time 1 1 ${iStep} c_thermo_press[1] c_thermo_press[2]  c_thermo_press[3] c_thermo_press[4]  c_thermo_press[5] c_thermo_press[6]  file  stress.${T}
fix ps1 all ave/time 1 1 1000 c_thermo_press[1] c_thermo_press[2]  c_thermo_press[3] c_thermo_press[4]  c_thermo_press[5] c_thermo_press[6]  file  stress.${T}
fix ps1 all ave/time 1 1 1000 c_thermo_press[1] c_thermo_press[2]  c_thermo_press[3] c_thermo_press[4]  c_thermo_press[5] c_thermo_press[6]  file  stress.260
dump            1 all custom ${dumpStep} dump.${T} id type x y z
dump            1 all custom 100000 dump.${T} id type x y z
dump            1 all custom 100000 dump.260 id type x y z
dump_modify 1 sort id
fix nodrift all momentum 1  linear 1 1 1
fix com_seed all recenter INIT INIT INIT shift all
run ${runStep}
run 1000000
Generated 0 of 1 mixed pair_coeff terms from geometric mixing rule
Per MPI rank memory allocation (min/avg/max) = 8.612 | 8.614 | 8.618 Mbytes
   Step          Temp          PotEng         TotEng         Press          Volume           Lx             Ly             Lz      
         0   0.25969774    -8.2005087     -7.8109676      0.46562638     50218.233      36.893836      36.893836      36.893836    
      1000   0.25879273    -8.1960218     -7.8078382      0.49740684     50218.233      36.893836      36.893836      36.893836    
      2000   0.26032428    -8.1953907     -7.8049099      0.50441269     50218.233      36.893836      36.893836      36.893836    
      3000   0.25900442    -8.193773      -7.8052719      0.52023537     50218.233      36.893836      36.893836      36.893836    
      4000   0.26036008    -8.1927366     -7.802202       0.52944972     50218.233      36.893836      36.893836      36.893836    
      5000   0.26028111    -8.1950051     -7.804589       0.50455074     50218.233      36.893836      36.893836      36.893836    
      6000   0.26142547    -8.1929817     -7.800849       0.52347595     50218.233      36.893836      36.893836      36.893836    
      7000   0.25982113    -8.1949406     -7.8052145      0.50556238     50218.233      36.893836      36.893836      36.893836    
      8000   0.26054688    -8.1966735     -7.8058587      0.50132148     50218.233      36.893836      36.893836      36.893836    
      9000   0.25967134    -8.1938882     -7.8043868      0.52185037     50218.233      36.893836      36.893836      36.893836    
     10000   0.26064694    -8.1941397     -7.8031748      0.51183482     50218.233      36.893836      36.893836      36.893836    
     11000   0.25969947    -8.1954143     -7.8058706      0.50537665     50218.233      36.893836      36.893836      36.893836    
     12000   0.26037232    -8.1927429     -7.80219        0.51991759     50218.233      36.893836      36.893836      36.893836    
     13000   0.25916251    -8.1928035     -7.8040653      0.52077526     50218.233      36.893836      36.893836      36.893836    
     14000   0.26148975    -8.1940818     -7.8018527      0.51601076     50218.233      36.893836      36.893836      36.893836    
     15000   0.2599029     -8.1942629     -7.8044141      0.51213215     50218.233      36.893836      36.893836      36.893836    
     16000   0.25939749    -8.1943633     -7.8052726      0.50829635     50218.233      36.893836      36.893836      36.893836    
     17000   0.26134663    -8.1954191     -7.8034048      0.51328313     50218.233      36.893836      36.893836      36.893836    
     18000   0.26020335    -8.190311      -7.8000115      0.54075204     50218.233      36.893836      36.893836      36.893836    
     19000   0.2583581     -8.1923107     -7.8047791      0.52230602     50218.233      36.893836      36.893836      36.893836    
     20000   0.25918421    -8.1948021     -7.8060313      0.51022128     50218.233      36.893836      36.893836      36.893836    
     21000   0.26147229    -8.1935995     -7.8013967      0.52104826     50218.233      36.893836      36.893836      36.893836    
     22000   0.26107149    -8.1943752     -7.8027736      0.51443141     50218.233      36.893836      36.893836      36.893836    
     23000   0.26126281    -8.193052      -7.8011634      0.51844032     50218.233      36.893836      36.893836      36.893836    
     24000   0.26113728    -8.1922572     -7.8005569      0.52590544     50218.233      36.893836      36.893836      36.893836    
     25000   0.25860258    -8.1939107     -7.8060124      0.50870996     50218.233      36.893836      36.893836      36.893836    
     26000   0.25976559    -8.1931652     -7.8035224      0.5269292      50218.233      36.893836      36.893836      36.893836    
     27000   0.25901739    -8.1952615     -7.8067409      0.50382483     50218.233      36.893836      36.893836      36.893836    
     28000   0.25998873    -8.194431      -7.8044534      0.50981719     50218.233      36.893836      36.893836      36.893836    
     29000   0.2595868     -8.191313      -7.8019384      0.53059718     50218.233      36.893836      36.893836      36.893836    
     30000   0.25960838    -8.1929583     -7.8035513      0.53022617     50218.233      36.893836      36.893836      36.893836    
     31000   0.26026096    -8.194764      -7.8043781      0.50880915     50218.233      36.893836      36.893836      36.893836    
     32000   0.25979798    -8.1917159     -7.8020244      0.51790934     50218.233      36.893836      36.893836      36.893836    
     33000   0.25994725    -8.1935462     -7.8036309      0.51208902     50218.233      36.893836      36.893836      36.893836    
     34000   0.25774704    -8.1923936     -7.8057786      0.52816486     50218.233      36.893836      36.893836      36.893836    
     35000   0.26071827    -8.1938077     -7.8027358      0.5146002      50218.233      36.893836      36.893836      36.893836    
     36000   0.26103029    -8.1919605     -7.8004207      0.53139524     50218.233      36.893836      36.893836      36.893836    
     37000   0.26196892    -8.1954388     -7.802491       0.50767342     50218.233      36.893836      36.893836      36.893836    
     38000   0.2605035     -8.1942632     -7.8035135      0.51958009     50218.233      36.893836      36.893836      36.893836    
     39000   0.26023154    -8.1965929     -7.8062511      0.49493609     50218.233      36.893836      36.893836      36.893836    
     40000   0.26016596    -8.1952799     -7.8050365      0.50122922     50218.233      36.893836      36.893836      36.893836    
     41000   0.25967878    -8.1938978     -7.8043851      0.51988805     50218.233      36.893836      36.893836      36.893836    
     42000   0.26080501    -8.1951697     -7.8039678      0.50570005     50218.233      36.893836      36.893836      36.893836    
     43000   0.2602728     -8.1903052     -7.7999016      0.54607728     50218.233      36.893836      36.893836      36.893836    
     44000   0.25869719    -8.1936054     -7.8055652      0.50792174     50218.233      36.893836      36.893836      36.893836    
     45000   0.25975082    -8.1944058     -7.8047851      0.50962615     50218.233      36.893836      36.893836      36.893836    
     46000   0.25931143    -8.195237      -7.8062754      0.50762427     50218.233      36.893836      36.893836      36.893836    
     47000   0.25916658    -8.1955238     -7.8067794      0.49951093     50218.233      36.893836      36.893836      36.893836    
     48000   0.25996335    -8.1951084     -7.8051689      0.50370668     50218.233      36.893836      36.893836      36.893836    
     49000   0.25962876    -8.1951089     -7.8056713      0.50438383     50218.233      36.893836      36.893836      36.893836    
     50000   0.25854364    -8.1955341     -7.8077242      0.50124164     50218.233      36.893836      36.893836      36.893836    
     51000   0.26148003    -8.1950781     -7.8028637      0.50695989     50218.233      36.893836      36.893836      36.893836    
     52000   0.26070495    -8.1928164     -7.8017645      0.51645767     50218.233      36.893836      36.893836      36.893836    
     53000   0.26031621    -8.1944449     -7.8039762      0.51626267     50218.233      36.893836      36.893836      36.893836    
     54000   0.25970657    -8.1944509     -7.8048966      0.51009885     50218.233      36.893836      36.893836      36.893836    
     55000   0.25965322    -8.1965415     -7.8070672      0.49411175     50218.233      36.893836      36.893836      36.893836    
     56000   0.26041949    -8.1956691     -7.8050454      0.497053       50218.233      36.893836      36.893836      36.893836    
     57000   0.2595632     -8.1943492     -7.8050099      0.506091       50218.233      36.893836      36.893836      36.893836    
     58000   0.26040951    -8.1966374     -7.8060287      0.49656424     50218.233      36.893836      36.893836      36.893836    
     59000   0.26183889    -8.1950587     -7.802306       0.49694841     50218.233      36.893836      36.893836      36.893836    
     60000   0.25961981    -8.1949414     -7.8055172      0.51053143     50218.233      36.893836      36.893836      36.893836    
     61000   0.25991533    -8.1940959     -7.8042284      0.52015124     50218.233      36.893836      36.893836      36.893836    
     62000   0.259632      -8.195786      -7.8063435      0.4955035      50218.233      36.893836      36.893836      36.893836    
     63000   0.25943032    -8.1931261     -7.8039862      0.51646896     50218.233      36.893836      36.893836      36.893836    
     64000   0.26056839    -8.1940574     -7.8032104      0.51892269     50218.233      36.893836      36.893836      36.893836    
     65000   0.26082068    -8.1948383     -7.8036128      0.50738322     50218.233      36.893836      36.893836      36.893836    
     66000   0.25986929    -8.1921069     -7.8023085      0.52160702     50218.233      36.893836      36.893836      36.893836    
     67000   0.26078338    -8.1944532     -7.8032837      0.51047791     50218.233      36.893836      36.893836      36.893836    
     68000   0.2595555     -8.1948765     -7.8055487      0.50377604     50218.233      36.893836      36.893836      36.893836    
     69000   0.2587781     -8.1936251     -7.8054635      0.5233063      50218.233      36.893836      36.893836      36.893836    
     70000   0.26056409    -8.1956495     -7.8048089      0.50546126     50218.233      36.893836      36.893836      36.893836    
     71000   0.25995124    -8.1936386     -7.8037173      0.52321773     50218.233      36.893836      36.893836      36.893836    
     72000   0.260474      -8.1942541     -7.8035487      0.50955644     50218.233      36.893836      36.893836      36.893836    
     73000   0.25957353    -8.194624      -7.8052692      0.51057529     50218.233      36.893836      36.893836      36.893836    
     74000   0.25945104    -8.1937935     -7.8046224      0.5136223      50218.233      36.893836      36.893836      36.893836    
     75000   0.26072352    -8.1939615     -7.8028818      0.51868115     50218.233      36.893836      36.893836      36.893836    
     76000   0.26022654    -8.1940636     -7.8037293      0.51383063     50218.233      36.893836      36.893836      36.893836    
     77000   0.26057613    -8.1962617     -7.8054031      0.49592753     50218.233      36.893836      36.893836      36.893836    
     78000   0.26026604    -8.1957234     -7.8053299      0.49532091     50218.233      36.893836      36.893836      36.893836    
     79000   0.26026717    -8.1920015     -7.8016063      0.53372723     50218.233      36.893836      36.893836      36.893836    
     80000   0.25963742    -8.1945552     -7.8051046      0.50033606     50218.233      36.893836      36.893836      36.893836    
     81000   0.26096742    -8.1950531     -7.8036075      0.51111351     50218.233      36.893836      36.893836      36.893836    
     82000   0.2618078     -8.1939986     -7.8012925      0.5149159      50218.233      36.893836      36.893836      36.893836    
     83000   0.25902788    -8.1950076     -7.8064713      0.5025036      50218.233      36.893836      36.893836      36.893836    
     84000   0.26026042    -8.1937258     -7.8033407      0.51857965     50218.233      36.893836      36.893836      36.893836    
     85000   0.26022968    -8.1944365     -7.8040976      0.51772982     50218.233      36.893836      36.893836      36.893836    
     86000   0.26133249    -8.1952116     -7.8032184      0.51323524     50218.233      36.893836      36.893836      36.893836    
     87000   0.25926658    -8.19388       -7.8049856      0.52311804     50218.233      36.893836      36.893836      36.893836    
     88000   0.26088473    -8.1932071     -7.8018855      0.52462664     50218.233      36.893836      36.893836      36.893836    
     89000   0.25861411    -8.1965274     -7.8086118      0.48830415     50218.233      36.893836      36.893836      36.893836    
     90000   0.25994426    -8.1955022     -7.8055914      0.50168461     50218.233      36.893836      36.893836      36.893836    
     91000   0.26000844    -8.1928267     -7.8028196      0.52304675     50218.233      36.893836      36.893836      36.893836    
     92000   0.25985224    -8.1956979     -7.805925       0.50574693     50218.233      36.893836      36.893836      36.893836    
     93000   0.25887625    -8.1959602     -7.8076513      0.48980843     50218.233      36.893836      36.893836      36.893836    
     94000   0.2594452     -8.197227      -7.8080647      0.49389066     50218.233      36.893836      36.893836      36.893836    
     95000   0.2591098     -8.1963568     -7.8076976      0.49745906     50218.233      36.893836      36.893836      36.893836    
     96000   0.26080845    -8.1953991     -7.804192       0.50351801     50218.233      36.893836      36.893836      36.893836    
     97000   0.26061796    -8.1962897     -7.8053683      0.50113182     50218.233      36.893836      36.893836      36.893836    
     98000   0.26099032    -8.1941448     -7.8026649      0.5238151      50218.233      36.893836      36.893836      36.893836    
     99000   0.26105083    -8.1948703     -7.8032996      0.50884011     50218.233      36.893836      36.893836      36.893836    
    100000   0.2603664     -8.1943904     -7.8038464      0.50919607     50218.233      36.893836      36.893836      36.893836    
    101000   0.2589099     -8.1960496     -7.8076903      0.49064947     50218.233      36.893836      36.893836      36.893836    
    102000   0.26031318    -8.1951031     -7.8046389      0.51666855     50218.233      36.893836      36.893836      36.893836    
    103000   0.25901255    -8.193734      -7.8052207      0.51028528     50218.233      36.893836      36.893836      36.893836    
    104000   0.26055179    -8.195804      -7.8049819      0.49727212     50218.233      36.893836      36.893836      36.893836    
    105000   0.25995647    -8.196174      -7.8062448      0.49685966     50218.233      36.893836      36.893836      36.893836    
    106000   0.25977199    -8.1946998     -7.8050473      0.50577834     50218.233      36.893836      36.893836      36.893836    
    107000   0.25984233    -8.1942358     -7.8044778      0.51920096     50218.233      36.893836      36.893836      36.893836    
    108000   0.26005042    -8.1918424     -7.8017723      0.52616987     50218.233      36.893836      36.893836      36.893836    
    109000   0.2589831     -8.1954611     -7.806992       0.50383896     50218.233      36.893836      36.893836      36.893836    
    110000   0.26093324    -8.1937622     -7.8023679      0.50939886     50218.233      36.893836      36.893836      36.893836    
    111000   0.25857953    -8.1936429     -7.8057792      0.50915171     50218.233      36.893836      36.893836      36.893836    
    112000   0.25935327    -8.1958277     -7.8068033      0.49708761     50218.233      36.893836      36.893836      36.893836    
    113000   0.26053099    -8.1952843     -7.8044934      0.50431785     50218.233      36.893836      36.893836      36.893836    
    114000   0.26057716    -8.1957599     -7.8048997      0.50128623     50218.233      36.893836      36.893836      36.893836    
    115000   0.26094083    -8.1934595     -7.8020539      0.52235986     50218.233      36.893836      36.893836      36.893836    
    116000   0.25966957    -8.1954732     -7.8059744      0.50960465     50218.233      36.893836      36.893836      36.893836    
    117000   0.26024619    -8.1938153     -7.8034516      0.51700164     50218.233      36.893836      36.893836      36.893836    
    118000   0.26155776    -8.1927375     -7.8004065      0.53351174     50218.233      36.893836      36.893836      36.893836    
    119000   0.26085309    -8.1923806     -7.8011065      0.52769078     50218.233      36.893836      36.893836      36.893836    
    120000   0.25959776    -8.1937743     -7.8043832      0.52357113     50218.233      36.893836      36.893836      36.893836    
    121000   0.2599158     -8.1926429     -7.8027748      0.52051824     50218.233      36.893836      36.893836      36.893836    
    122000   0.26053728    -8.1937378     -7.8029375      0.51589403     50218.233      36.893836      36.893836      36.893836    
    123000   0.26015461    -8.1929655     -7.8027392      0.51938537     50218.233      36.893836      36.893836      36.893836    
    124000   0.25937445    -8.1913996     -7.8023434      0.53886243     50218.233      36.893836      36.893836      36.893836    
    125000   0.26034102    -8.192851      -7.802345       0.51914416     50218.233      36.893836      36.893836      36.893836    
    126000   0.26217239    -8.1944281     -7.8011751      0.51358075     50218.233      36.893836      36.893836      36.893836    
    127000   0.2595244     -8.1940277     -7.8047466      0.51436926     50218.233      36.893836      36.893836      36.893836    
    128000   0.26049928    -8.1948115     -7.8040682      0.50730627     50218.233      36.893836      36.893836      36.893836    
    129000   0.25923787    -8.1945567     -7.8057054      0.5167493      50218.233      36.893836      36.893836      36.893836    
    130000   0.25977322    -8.1943721     -7.8047178      0.5201907      50218.233      36.893836      36.893836      36.893836    
    131000   0.25895764    -8.194258      -7.805827       0.51071709     50218.233      36.893836      36.893836      36.893836    
    132000   0.2580423     -8.192934      -7.805876       0.5294553      50218.233      36.893836      36.893836      36.893836    
    133000   0.26044999    -8.1933194     -7.80265        0.52198642     50218.233      36.893836      36.893836      36.893836    
    134000   0.26052479    -8.1942054     -7.8034237      0.50919134     50218.233      36.893836      36.893836      36.893836    
    135000   0.25988145    -8.1916219     -7.8018052      0.53843588     50218.233      36.893836      36.893836      36.893836    
    136000   0.25968413    -8.1925045     -7.8029839      0.52401595     50218.233      36.893836      36.893836      36.893836    
    137000   0.25984196    -8.1944774     -7.80472        0.51315999     50218.233      36.893836      36.893836      36.893836    
    138000   0.25898623    -8.1945872     -7.8061134      0.50528711     50218.233      36.893836      36.893836      36.893836    
    139000   0.25900228    -8.194617      -7.8061191      0.50898612     50218.233      36.893836      36.893836      36.893836    
    140000   0.25950168    -8.1951637     -7.8059167      0.50614247     50218.233      36.893836      36.893836      36.893836    
    141000   0.25995838    -8.1946234     -7.8046914      0.51983616     50218.233      36.893836      36.893836      36.893836    
    142000   0.26053311    -8.1939976     -7.8032035      0.51685046     50218.233      36.893836      36.893836      36.893836    
    143000   0.25999711    -8.1949312     -7.8049411      0.50973548     50218.233      36.893836      36.893836      36.893836    
    144000   0.25974713    -8.1938395     -7.8042243      0.51427378     50218.233      36.893836      36.893836      36.893836    
    145000   0.2594839     -8.1949491     -7.8057288      0.50580346     50218.233      36.893836      36.893836      36.893836    
    146000   0.2604797     -8.1947094     -7.8039954      0.50865753     50218.233      36.893836      36.893836      36.893836    
    147000   0.25840847    -8.1947499     -7.8071427      0.50069176     50218.233      36.893836      36.893836      36.893836    
    148000   0.25942456    -8.1930432     -7.8039119      0.51258396     50218.233      36.893836      36.893836      36.893836    
    149000   0.25890847    -8.1951262     -7.8067691      0.50779661     50218.233      36.893836      36.893836      36.893836    
    150000   0.25953749    -8.1957726     -7.8064719      0.504313       50218.233      36.893836      36.893836      36.893836    
    151000   0.26075254    -8.1952927     -7.8041695      0.50392334     50218.233      36.893836      36.893836      36.893836    
    152000   0.25918366    -8.194941      -7.8061711      0.50759611     50218.233      36.893836      36.893836      36.893836    
    153000   0.2605026     -8.1945137     -7.8037653      0.51989069     50218.233      36.893836      36.893836      36.893836    
    154000   0.26011572    -8.1950559     -7.8048879      0.51316861     50218.233      36.893836      36.893836      36.893836    
    155000   0.25920364    -8.1953143     -7.8065144      0.50917969     50218.233      36.893836      36.893836      36.893836    
    156000   0.25981247    -8.1953274     -7.8056143      0.50821781     50218.233      36.893836      36.893836      36.893836    
    157000   0.25954749    -8.1946539     -7.8053382      0.51279095     50218.233      36.893836      36.893836      36.893836    
    158000   0.25974475    -8.1944058     -7.8047942      0.50574007     50218.233      36.893836      36.893836      36.893836    
    159000   0.25983367    -8.1963678     -7.8066228      0.49319287     50218.233      36.893836      36.893836      36.893836    
    160000   0.25917129    -8.1937355     -7.8049841      0.51089757     50218.233      36.893836      36.893836      36.893836    
    161000   0.25967521    -8.1921474     -7.8026401      0.5287441      50218.233      36.893836      36.893836      36.893836    
    162000   0.26037531    -8.1938381     -7.8032807      0.51714591     50218.233      36.893836      36.893836      36.893836    
    163000   0.26038612    -8.1956991     -7.8051254      0.4956821      50218.233      36.893836      36.893836      36.893836    
    164000   0.2591932     -8.1952168     -7.8064325      0.50823292     50218.233      36.893836      36.893836      36.893836    
    165000   0.26058743    -8.1962298     -7.8053542      0.49858514     50218.233      36.893836      36.893836      36.893836    
    166000   0.26031496    -8.1953812     -7.8049143      0.50411478     50218.233      36.893836      36.893836      36.893836    
    167000   0.261165      -8.1923252     -7.8005833      0.52195972     50218.233      36.893836      36.893836      36.893836    
    168000   0.25918485    -8.1961097     -7.8073379      0.49510846     50218.233      36.893836      36.893836      36.893836    
    169000   0.2609062     -8.1966784     -7.8053247      0.49312756     50218.233      36.893836      36.893836      36.893836    
    170000   0.26106706    -8.1935309     -7.8019359      0.51453185     50218.233      36.893836      36.893836      36.893836    
    171000   0.25962442    -8.193163      -7.8037319      0.51687193     50218.233      36.893836      36.893836      36.893836    
    172000   0.25928361    -8.1934457     -7.8045258      0.5182638      50218.233      36.893836      36.893836      36.893836    
    173000   0.2587278     -8.1943866     -7.8063004      0.50772252     50218.233      36.893836      36.893836      36.893836    
    174000   0.26015028    -8.1931629     -7.8029431      0.52800592     50218.233      36.893836      36.893836      36.893836    
    175000   0.25915777    -8.1943791     -7.8056479      0.51440316     50218.233      36.893836      36.893836      36.893836    
    176000   0.26093507    -8.1926479     -7.8012509      0.51925003     50218.233      36.893836      36.893836      36.893836    
    177000   0.25908719    -8.1916751     -7.8030498      0.5313868      50218.233      36.893836      36.893836      36.893836    
    178000   0.26007154    -8.1923875     -7.8022858      0.52985701     50218.233      36.893836      36.893836      36.893836    
    179000   0.25946793    -8.1939108     -7.8047145      0.52151785     50218.233      36.893836      36.893836      36.893836    
    180000   0.26092401    -8.1918454     -7.8004649      0.53689491     50218.233      36.893836      36.893836      36.893836    
    181000   0.26012234    -8.1939261     -7.8037481      0.51962921     50218.233      36.893836      36.893836      36.893836    
    182000   0.25932475    -8.194241      -7.8052594      0.51186467     50218.233      36.893836      36.893836      36.893836    
    183000   0.26049578    -8.1930056     -7.8022675      0.52060565     50218.233      36.893836      36.893836      36.893836    
    184000   0.25973601    -8.1935722     -7.8039737      0.51170065     50218.233      36.893836      36.893836      36.893836    
    185000   0.26017086    -8.1935424     -7.8032917      0.51328431     50218.233      36.893836      36.893836      36.893836    
    186000   0.25934267    -8.1966251     -7.8076167      0.49336987     50218.233      36.893836      36.893836      36.893836    
    187000   0.26059635    -8.1953116     -7.8044227      0.49949518     50218.233      36.893836      36.893836      36.893836    
    188000   0.26029796    -8.1934215     -7.8029801      0.51820251     50218.233      36.893836      36.893836      36.893836    
    189000   0.26154855    -8.1936557     -7.8013384      0.51939516     50218.233      36.893836      36.893836      36.893836    
    190000   0.26107525    -8.195735      -7.8041277      0.50413895     50218.233      36.893836      36.893836      36.893836    
    191000   0.26132239    -8.1946465     -7.8026685      0.5126602      50218.233      36.893836      36.893836      36.893836    
    192000   0.25897795    -8.1933747     -7.8049133      0.51528302     50218.233      36.893836      36.893836      36.893836    
    193000   0.26001282    -8.1967896     -7.8067759      0.49582685     50218.233      36.893836      36.893836      36.893836    
    194000   0.26024527    -8.1963968     -7.8060345      0.50338799     50218.233      36.893836      36.893836      36.893836    
    195000   0.26103424    -8.195439      -7.8038932      0.49872241     50218.233      36.893836      36.893836      36.893836    
    196000   0.26007938    -8.1947782     -7.8046647      0.50634196     50218.233      36.893836      36.893836      36.893836    
    197000   0.26044025    -8.1953057     -7.8046509      0.50622734     50218.233      36.893836      36.893836      36.893836    
    198000   0.26000989    -8.1945544     -7.8045451      0.50816616     50218.233      36.893836      36.893836      36.893836    
    199000   0.26089832    -8.1969735     -7.8056316      0.49672865     50218.233      36.893836      36.893836      36.893836    
    200000   0.25859181    -8.1944109     -7.8065287      0.51272791     50218.233      36.893836      36.893836      36.893836    
    201000   0.25993484    -8.1964245     -7.8065278      0.49550277     50218.233      36.893836      36.893836      36.893836    
    202000   0.26055848    -8.196563      -7.8057308      0.49446036     50218.233      36.893836      36.893836      36.893836    
    203000   0.26036198    -8.1946651     -7.8041277      0.51473118     50218.233      36.893836      36.893836      36.893836    
    204000   0.26025596    -8.1937931     -7.8034148      0.50971791     50218.233      36.893836      36.893836      36.893836    
    205000   0.26070269    -8.1966111     -7.8055626      0.49390138     50218.233      36.893836      36.893836      36.893836    
    206000   0.25993907    -8.1940849     -7.8041819      0.5188002      50218.233      36.893836      36.893836      36.893836    
    207000   0.25965117    -8.1943559     -7.8048847      0.50929459     50218.233      36.893836      36.893836      36.893836    
    208000   0.25921607    -8.1949939     -7.8061753      0.49549655     50218.233      36.893836      36.893836      36.893836    
    209000   0.25978502    -8.1942539     -7.8045819      0.50997547     50218.233      36.893836      36.893836      36.893836    
    210000   0.25961162    -8.1942719     -7.80486        0.51071687     50218.233      36.893836      36.893836      36.893836    
    211000   0.25998954    -8.1954172     -7.8054385      0.5058053      50218.233      36.893836      36.893836      36.893836    
    212000   0.25898688    -8.1920632     -7.8035884      0.52469315     50218.233      36.893836      36.893836      36.893836    
    213000   0.25961671    -8.1940231     -7.8046036      0.50540197     50218.233      36.893836      36.893836      36.893836    
    214000   0.26083652    -8.1946896     -7.8034404      0.50620051     50218.233      36.893836      36.893836      36.893836    
    215000   0.26011678    -8.1941004     -7.8039307      0.51545726     50218.233      36.893836      36.893836      36.893836    
    216000   0.25954247    -8.1933162     -7.804008       0.52183422     50218.233      36.893836      36.893836      36.893836    
    217000   0.2602923     -8.193899      -7.8034661      0.51535113     50218.233      36.893836      36.893836      36.893836    
    218000   0.26059611    -8.193946      -7.8030574      0.50831644     50218.233      36.893836      36.893836      36.893836    
    219000   0.26019355    -8.1948502     -7.8045655      0.50282546     50218.233      36.893836      36.893836      36.893836    
    220000   0.25951776    -8.1942437     -7.8049726      0.50750811     50218.233      36.893836      36.893836      36.893836    
    221000   0.26067837    -8.1912947     -7.8002827      0.54193986     50218.233      36.893836      36.893836      36.893836    
    222000   0.25952145    -8.1918745     -7.8025979      0.5272123      50218.233      36.893836      36.893836      36.893836    
    223000   0.2597478     -8.1917355     -7.8021194      0.53486567     50218.233      36.893836      36.893836      36.893836    
    224000   0.26088956    -8.1926847     -7.8013559      0.52130905     50218.233      36.893836      36.893836      36.893836    
    225000   0.26094564    -8.189839      -7.7984261      0.55186557     50218.233      36.893836      36.893836      36.893836    
    226000   0.26190783    -8.1922162     -7.7993601      0.52949085     50218.233      36.893836      36.893836      36.893836    
    227000   0.26088738    -8.1944586     -7.8031332      0.5088941      50218.233      36.893836      36.893836      36.893836    
    228000   0.2587198     -8.1941977     -7.8061235      0.50977698     50218.233      36.893836      36.893836      36.893836    
    229000   0.25985734    -8.193493      -7.8037125      0.52505515     50218.233      36.893836      36.893836      36.893836    
    230000   0.26090425    -8.1933794     -7.8020286      0.5185953      50218.233      36.893836      36.893836      36.893836    
    231000   0.25913392    -8.1920114     -7.8033161      0.52115127     50218.233      36.893836      36.893836      36.893836    
    232000   0.25979188    -8.1922857     -7.8026034      0.52600071     50218.233      36.893836      36.893836      36.893836    
    233000   0.25970378    -8.1944849     -7.8049347      0.51299276     50218.233      36.893836      36.893836      36.893836    
    234000   0.25947603    -8.19317       -7.8039615      0.52178804     50218.233      36.893836      36.893836      36.893836    
    235000   0.26070543    -8.1940716     -7.803019       0.51174452     50218.233      36.893836      36.893836      36.893836    
    236000   0.25967354    -8.1944425     -7.8049377      0.50968962     50218.233      36.893836      36.893836      36.893836    
    237000   0.26086008    -8.1946715     -7.8033869      0.51169388     50218.233      36.893836      36.893836      36.893836    
    238000   0.25970922    -8.1936354     -7.8040771      0.51451739     50218.233      36.893836      36.893836      36.893836    
    239000   0.25953939    -8.1938876     -7.804584       0.5106295      50218.233      36.893836      36.893836      36.893836    
    240000   0.2603737     -8.1949575     -7.8044025      0.50528678     50218.233      36.893836      36.893836      36.893836    
    241000   0.26038426    -8.1947313     -7.8041605      0.51034148     50218.233      36.893836      36.893836      36.893836    
    242000   0.25948342    -8.1939029     -7.8046833      0.51488908     50218.233      36.893836      36.893836      36.893836    
    243000   0.26108978    -8.192613      -7.8009839      0.52370417     50218.233      36.893836      36.893836      36.893836    
    244000   0.25984536    -8.1974021     -7.8076396      0.48250561     50218.233      36.893836      36.893836      36.893836    
    245000   0.25845433    -8.1941881     -7.8065121      0.50451792     50218.233      36.893836      36.893836      36.893836    
    246000   0.25929292    -8.1966423     -7.8077085      0.49369411     50218.233      36.893836      36.893836      36.893836    
    247000   0.25855656    -8.1940985     -7.8062691      0.5137821      50218.233      36.893836      36.893836      36.893836    
    248000   0.25982697    -8.1943369     -7.804602       0.51128888     50218.233      36.893836      36.893836      36.893836    
    249000   0.26041432    -8.1975812     -7.8069653      0.49553778     50218.233      36.893836      36.893836      36.893836    
    250000   0.25892194    -8.195025      -7.8066476      0.50716006     50218.233      36.893836      36.893836      36.893836    
    251000   0.26080173    -8.1949364     -7.8037394      0.51403187     50218.233      36.893836      36.893836      36.893836    
    252000   0.26133356    -8.196866      -7.8048712      0.50103019     50218.233      36.893836      36.893836      36.893836    
    253000   0.25998695    -8.1964656     -7.8064907      0.50209763     50218.233      36.893836      36.893836      36.893836    
    254000   0.25948524    -8.194669      -7.8054466      0.51176071     50218.233      36.893836      36.893836      36.893836    
    255000   0.26057832    -8.195707      -7.8048451      0.50486293     50218.233      36.893836      36.893836      36.893836    
    256000   0.26010154    -8.1945039     -7.8043571      0.51673948     50218.233      36.893836      36.893836      36.893836    
    257000   0.26041758    -8.1954684     -7.8048476      0.49756456     50218.233      36.893836      36.893836      36.893836    
    258000   0.25938022    -8.1957176     -7.8066528      0.50168884     50218.233      36.893836      36.893836      36.893836    
    259000   0.26002112    -8.193991      -7.8039648      0.51080913     50218.233      36.893836      36.893836      36.893836    
    260000   0.26024449    -8.1946076     -7.8042465      0.50679941     50218.233      36.893836      36.893836      36.893836    
    261000   0.26015553    -8.1957306     -7.8055028      0.50388417     50218.233      36.893836      36.893836      36.893836    
    262000   0.26059696    -8.1938711     -7.8029812      0.51222014     50218.233      36.893836      36.893836      36.893836    
    263000   0.2599601     -8.1945128     -7.8045782      0.5141395      50218.233      36.893836      36.893836      36.893836    
    264000   0.25997814    -8.1955586     -7.8055969      0.50064901     50218.233      36.893836      36.893836      36.893836    
    265000   0.25986341    -8.1954424     -7.8056528      0.5063333      50218.233      36.893836      36.893836      36.893836    
    266000   0.26013859    -8.1953833     -7.805181       0.49680276     50218.233      36.893836      36.893836      36.893836    
    267000   0.26083169    -8.1943463     -7.8031043      0.51221019     50218.233      36.893836      36.893836      36.893836    
    268000   0.25887725    -8.1912556     -7.8029453      0.53061495     50218.233      36.893836      36.893836      36.893836    
    269000   0.25983167    -8.1932029     -7.803461       0.52151052     50218.233      36.893836      36.893836      36.893836    
    270000   0.25932535    -8.1927743     -7.8037918      0.5247312      50218.233      36.893836      36.893836      36.893836    
    271000   0.25962048    -8.1929921     -7.8035669      0.52160635     50218.233      36.893836      36.893836      36.893836    
    272000   0.26022672    -8.1956049     -7.8052704      0.50331314     50218.233      36.893836      36.893836      36.893836    
    273000   0.25899975    -8.1906237     -7.8021296      0.53863653     50218.233      36.893836      36.893836      36.893836    
    274000   0.26121592    -8.1930638     -7.8012455      0.5225841      50218.233      36.893836      36.893836      36.893836    
    275000   0.26050369    -8.1916599     -7.80091        0.53848339     50218.233      36.893836      36.893836      36.893836    
    276000   0.26085084    -8.1937257     -7.8024551      0.51662081     50218.233      36.893836      36.893836      36.893836    
    277000   0.26022869    -8.1940874     -7.8037499      0.51938773     50218.233      36.893836      36.893836      36.893836    
    278000   0.25974763    -8.1943638     -7.8047479      0.50862449     50218.233      36.893836      36.893836      36.893836    
    279000   0.25914646    -8.1943607     -7.8056465      0.50912242     50218.233      36.893836      36.893836      36.893836    
    280000   0.25976719    -8.1940533     -7.8044081      0.51450075     50218.233      36.893836      36.893836      36.893836    
    281000   0.25975036    -8.1922765     -7.8026565      0.53242588     50218.233      36.893836      36.893836      36.893836    
    282000   0.25856622    -8.1943542     -7.8065104      0.50908596     50218.233      36.893836      36.893836      36.893836    
    283000   0.25990722    -8.1950874     -7.8052321      0.50315422     50218.233      36.893836      36.893836      36.893836    
    284000   0.26033503    -8.1933721     -7.8028751      0.51479894     50218.233      36.893836      36.893836      36.893836    
    285000   0.25891407    -8.195095      -7.8067294      0.50293968     50218.233      36.893836      36.893836      36.893836    
    286000   0.25828567    -8.1937896     -7.8063666      0.5033676      50218.233      36.893836      36.893836      36.893836    
    287000   0.2603872     -8.1938356     -7.8032604      0.5227345      50218.233      36.893836      36.893836      36.893836    
    288000   0.26174146    -8.1956925     -7.8030859      0.50126076     50218.233      36.893836      36.893836      36.893836    
    289000   0.25983411    -8.1961498     -7.8064042      0.49833394     50218.233      36.893836      36.893836      36.893836    
    290000   0.25985791    -8.1937295     -7.8039482      0.51231508     50218.233      36.893836      36.893836      36.893836    
    291000   0.2593485     -8.1941243     -7.8051071      0.51325827     50218.233      36.893836      36.893836      36.893836    
    292000   0.25898622    -8.1944665     -7.8059927      0.51234052     50218.233      36.893836      36.893836      36.893836    
    293000   0.2591726     -8.1954768     -7.8067234      0.50147112     50218.233      36.893836      36.893836      36.893836    
    294000   0.25878116    -8.195246      -7.8070798      0.50871683     50218.233      36.893836      36.893836      36.893836    
    295000   0.26031094    -8.1958305     -7.8053697      0.5006332      50218.233      36.893836      36.893836      36.893836    
    296000   0.25935828    -8.1943603     -7.8053284      0.50294923     50218.233      36.893836      36.893836      36.893836    
    297000   0.26000787    -8.1954239     -7.8054176      0.50579753     50218.233      36.893836      36.893836      36.893836    
    298000   0.25862083    -8.1974049     -7.8094792      0.49240911     50218.233      36.893836      36.893836      36.893836    
    299000   0.26108528    -8.1962637     -7.8046414      0.49380596     50218.233      36.893836      36.893836      36.893836    
    300000   0.26178473    -8.1966725     -7.804001       0.49319116     50218.233      36.893836      36.893836      36.893836    
    301000   0.26016153    -8.1937884     -7.8035517      0.51114416     50218.233      36.893836      36.893836      36.893836    
    302000   0.2600147     -8.1953229     -7.8053064      0.48632356     50218.233      36.893836      36.893836      36.893836    
    303000   0.25996228    -8.1943171     -7.8043792      0.50527834     50218.233      36.893836      36.893836      36.893836    
    304000   0.26077234    -8.1956409     -7.8044879      0.49850292     50218.233      36.893836      36.893836      36.893836    
    305000   0.2597282     -8.1958606     -7.8062738      0.49848558     50218.233      36.893836      36.893836      36.893836    
    306000   0.25966356    -8.1942076     -7.8047178      0.5153664      50218.233      36.893836      36.893836      36.893836    
    307000   0.26135843    -8.1930111     -7.800979       0.51496504     50218.233      36.893836      36.893836      36.893836    
    308000   0.25935888    -8.1925463     -7.8035135      0.52028633     50218.233      36.893836      36.893836      36.893836    
    309000   0.25880951    -8.1969269     -7.8087182      0.49328827     50218.233      36.893836      36.893836      36.893836    
    310000   0.26182091    -8.1943273     -7.8016016      0.50849447     50218.233      36.893836      36.893836      36.893836    
    311000   0.2597786     -8.1931332     -7.8034709      0.51547144     50218.233      36.893836      36.893836      36.893836    
    312000   0.25862366    -8.1934967     -7.8055667      0.51807994     50218.233      36.893836      36.893836      36.893836    
    313000   0.25900847    -8.1937776     -7.8052705      0.51366147     50218.233      36.893836      36.893836      36.893836    
    314000   0.25980879    -8.1938918     -7.8041841      0.51939555     50218.233      36.893836      36.893836      36.893836    
    315000   0.26082051    -8.1942326     -7.8030074      0.51984952     50218.233      36.893836      36.893836      36.893836    
    316000   0.26035671    -8.1952128     -7.8046833      0.5045113      50218.233      36.893836      36.893836      36.893836    
    317000   0.26007203    -8.1958571     -7.8057546      0.50171539     50218.233      36.893836      36.893836      36.893836    
    318000   0.25951328    -8.1953727     -7.8061083      0.50867267     50218.233      36.893836      36.893836      36.893836    
    319000   0.26166009    -8.1917454     -7.7992608      0.53449124     50218.233      36.893836      36.893836      36.893836    
    320000   0.26100379    -8.1953014     -7.8038013      0.50966481     50218.233      36.893836      36.893836      36.893836    
    321000   0.25908923    -8.1952359     -7.8066076      0.51311006     50218.233      36.893836      36.893836      36.893836    
    322000   0.26034177    -8.194253      -7.8037459      0.52125142     50218.233      36.893836      36.893836      36.893836    
    323000   0.26148242    -8.1941371     -7.801919       0.51820965     50218.233      36.893836      36.893836      36.893836    
    324000   0.26068319    -8.194814      -7.8037947      0.50580946     50218.233      36.893836      36.893836      36.893836    
    325000   0.26063007    -8.1947775     -7.803838       0.51415397     50218.233      36.893836      36.893836      36.893836    
    326000   0.25944706    -8.1945041     -7.805339       0.50994051     50218.233      36.893836      36.893836      36.893836    
    327000   0.26097132    -8.1944358     -7.8029844      0.51213335     50218.233      36.893836      36.893836      36.893836    
    328000   0.2593584     -8.1932098     -7.8041777      0.52063909     50218.233      36.893836      36.893836      36.893836    
    329000   0.25795126    -8.1914974     -7.804576       0.52881488     50218.233      36.893836      36.893836      36.893836    
    330000   0.26051224    -8.1943585     -7.8035957      0.51543793     50218.233      36.893836      36.893836      36.893836    
    331000   0.2587078     -8.194208      -7.8061518      0.50958321     50218.233      36.893836      36.893836      36.893836    
    332000   0.26047452    -8.1952701     -7.8045639      0.49995461     50218.233      36.893836      36.893836      36.893836    
    333000   0.26131716    -8.1938371     -7.8018669      0.51931004     50218.233      36.893836      36.893836      36.893836    
    334000   0.26020082    -8.1939244     -7.8036287      0.50867459     50218.233      36.893836      36.893836      36.893836    
    335000   0.25965431    -8.1938934     -7.8044175      0.52312451     50218.233      36.893836      36.893836      36.893836    
    336000   0.25962368    -8.1953958     -7.8059658      0.50346391     50218.233      36.893836      36.893836      36.893836    
    337000   0.26064883    -8.193961      -7.8029933      0.51925357     50218.233      36.893836      36.893836      36.893836    
    338000   0.26045711    -8.1964859     -7.8058058      0.50348327     50218.233      36.893836      36.893836      36.893836    
    339000   0.25882269    -8.1947991     -7.8065706      0.50705968     50218.233      36.893836      36.893836      36.893836    
    340000   0.26013349    -8.1945368     -7.8043421      0.51103177     50218.233      36.893836      36.893836      36.893836    
    341000   0.26005214    -8.193528      -7.8034553      0.52223179     50218.233      36.893836      36.893836      36.893836    
    342000   0.25987883    -8.1949753     -7.8051626      0.50753779     50218.233      36.893836      36.893836      36.893836    
    343000   0.260016      -8.1946984     -7.80468        0.51120288     50218.233      36.893836      36.893836      36.893836    
    344000   0.25843383    -8.1959542     -7.808309       0.50412637     50218.233      36.893836      36.893836      36.893836    
    345000   0.2614978     -8.1953407     -7.8030996      0.50396502     50218.233      36.893836      36.893836      36.893836    
    346000   0.25930327    -8.1961431     -7.8071937      0.50585243     50218.233      36.893836      36.893836      36.893836    
    347000   0.26149916    -8.1938023     -7.8015591      0.51369957     50218.233      36.893836      36.893836      36.893836    
    348000   0.25876589    -8.1942199     -7.8060766      0.51258144     50218.233      36.893836      36.893836      36.893836    
    349000   0.26070401    -8.1963003     -7.8052499      0.49279937     50218.233      36.893836      36.893836      36.893836    
    350000   0.26001158    -8.1962038     -7.806192       0.50841639     50218.233      36.893836      36.893836      36.893836    
    351000   0.26035654    -8.1952082     -7.804679       0.49904386     50218.233      36.893836      36.893836      36.893836    
    352000   0.25971934    -8.1978011     -7.8082276      0.49253839     50218.233      36.893836      36.893836      36.893836    
    353000   0.2595492     -8.1958687     -7.8065505      0.50125902     50218.233      36.893836      36.893836      36.893836    
    354000   0.25939942    -8.1931096     -7.804016       0.52110342     50218.233      36.893836      36.893836      36.893836    
    355000   0.26048283    -8.19562       -7.8049013      0.51005791     50218.233      36.893836      36.893836      36.893836    
    356000   0.25957504    -8.1960268     -7.8066698      0.49038652     50218.233      36.893836      36.893836      36.893836    
    357000   0.25998638    -8.1932611     -7.8032871      0.52044872     50218.233      36.893836      36.893836      36.893836    
    358000   0.26009812    -8.1945863     -7.8044447      0.50695684     50218.233      36.893836      36.893836      36.893836    
    359000   0.25857846    -8.1960123     -7.8081501      0.49945174     50218.233      36.893836      36.893836      36.893836    
    360000   0.26025276    -8.1965213     -7.8061477      0.50104606     50218.233      36.893836      36.893836      36.893836    
    361000   0.25818322    -8.1972645     -7.8099952      0.4935022      50218.233      36.893836      36.893836      36.893836    
    362000   0.25943659    -8.1944907     -7.8053413      0.50664813     50218.233      36.893836      36.893836      36.893836    
    363000   0.26020791    -8.1945205     -7.8042141      0.50926248     50218.233      36.893836      36.893836      36.893836    
    364000   0.25960223    -8.1956949     -7.8062971      0.50334822     50218.233      36.893836      36.893836      36.893836    
    365000   0.26009322    -8.194977      -7.8048427      0.51501863     50218.233      36.893836      36.893836      36.893836    
    366000   0.25915176    -8.1948611     -7.806139       0.5027353      50218.233      36.893836      36.893836      36.893836    
    367000   0.26009732    -8.1946414     -7.804501       0.51338845     50218.233      36.893836      36.893836      36.893836    
    368000   0.26023257    -8.1931115     -7.8027681      0.51866498     50218.233      36.893836      36.893836      36.893836    
    369000   0.26058914    -8.1940884     -7.8032103      0.51288916     50218.233      36.893836      36.893836      36.893836    
    370000   0.26047873    -8.1958958     -7.8051832      0.50205707     50218.233      36.893836      36.893836      36.893836    
    371000   0.26042798    -8.1938264     -7.80319        0.51584095     50218.233      36.893836      36.893836      36.893836    
    372000   0.26022721    -8.1927404     -7.8024051      0.52728259     50218.233      36.893836      36.893836      36.893836    
    373000   0.25879304    -8.1928383     -7.8046543      0.52204397     50218.233      36.893836      36.893836      36.893836    
    374000   0.26073065    -8.1934622     -7.8023718      0.52073337     50218.233      36.893836      36.893836      36.893836    
    375000   0.25995274    -8.1929233     -7.8029997      0.51508495     50218.233      36.893836      36.893836      36.893836    
    376000   0.26007499    -8.1943557     -7.8042488      0.509556       50218.233      36.893836      36.893836      36.893836    
    377000   0.26000477    -8.1930232     -7.8030216      0.52440433     50218.233      36.893836      36.893836      36.893836    
    378000   0.26026038    -8.1938279     -7.8034429      0.51875345     50218.233      36.893836      36.893836      36.893836    
    379000   0.25972505    -8.1941476     -7.8045655      0.50835212     50218.233      36.893836      36.893836      36.893836    
    380000   0.26083513    -8.1943522     -7.803105       0.51429789     50218.233      36.893836      36.893836      36.893836    
    381000   0.26001139    -8.1940912     -7.8040796      0.51548275     50218.233      36.893836      36.893836      36.893836    
    382000   0.26088809    -8.1916611     -7.8003345      0.53412258     50218.233      36.893836      36.893836      36.893836    
    383000   0.26054034    -8.1924484     -7.8016435      0.5214158      50218.233      36.893836      36.893836      36.893836    
    384000   0.26062253    -8.193275      -7.8023468      0.52011316     50218.233      36.893836      36.893836      36.893836    
    385000   0.26040277    -8.193509      -7.8029104      0.51633435     50218.233      36.893836      36.893836      36.893836    
    386000   0.26006681    -8.1930345     -7.8029398      0.51999237     50218.233      36.893836      36.893836      36.893836    
    387000   0.25856652    -8.1935881     -7.8057439      0.52167011     50218.233      36.893836      36.893836      36.893836    
    388000   0.26011099    -8.1951626     -7.8050017      0.50233683     50218.233      36.893836      36.893836      36.893836    
    389000   0.25895784    -8.1941807     -7.8057495      0.50745481     50218.233      36.893836      36.893836      36.893836    
    390000   0.25961656    -8.1936652     -7.8042459      0.51581419     50218.233      36.893836      36.893836      36.893836    
    391000   0.25963649    -8.1943719     -7.8049227      0.5119958      50218.233      36.893836      36.893836      36.893836    
    392000   0.25909632    -8.1933914     -7.8047525      0.51039854     50218.233      36.893836      36.893836      36.893836    
    393000   0.25897332    -8.1965882     -7.8081338      0.49139028     50218.233      36.893836      36.893836      36.893836    
    394000   0.26012624    -8.1941011     -7.8039172      0.51906305     50218.233      36.893836      36.893836      36.893836    
    395000   0.25925307    -8.1934688     -7.8045947      0.51428553     50218.233      36.893836      36.893836      36.893836    
    396000   0.2593079     -8.1947104     -7.8057541      0.5128287      50218.233      36.893836      36.893836      36.893836    
    397000   0.25961589    -8.1962535     -7.8068352      0.49419975     50218.233      36.893836      36.893836      36.893836    
    398000   0.26080926    -8.1950049     -7.8037966      0.50907111     50218.233      36.893836      36.893836      36.893836    
    399000   0.26062354    -8.1944176     -7.8034879      0.5167991      50218.233      36.893836      36.893836      36.893836    
    400000   0.25955987    -8.1957771     -7.8064429      0.50066606     50218.233      36.893836      36.893836      36.893836    
    401000   0.25911098    -8.1940786     -7.8054176      0.51562667     50218.233      36.893836      36.893836      36.893836    
    402000   0.25941298    -8.195754      -7.8066401      0.49467516     50218.233      36.893836      36.893836      36.893836    
    403000   0.26022842    -8.1941322     -7.8037951      0.51550022     50218.233      36.893836      36.893836      36.893836    
    404000   0.26043007    -8.1954778     -7.8048383      0.50838448     50218.233      36.893836      36.893836      36.893836    
    405000   0.25910228    -8.1938515     -7.8052036      0.51462935     50218.233      36.893836      36.893836      36.893836    
    406000   0.26072031    -8.1948742     -7.8037993      0.51123158     50218.233      36.893836      36.893836      36.893836    
    407000   0.26024681    -8.1937047     -7.80334        0.51493001     50218.233      36.893836      36.893836      36.893836    
    408000   0.260706      -8.1954385     -7.804385       0.50874315     50218.233      36.893836      36.893836      36.893836    
    409000   0.26056557    -8.1946531     -7.8038103      0.51128928     50218.233      36.893836      36.893836      36.893836    
    410000   0.26000191    -8.1945084     -7.8045111      0.50864651     50218.233      36.893836      36.893836      36.893836    
    411000   0.26136889    -8.1945089     -7.8024612      0.5182841      50218.233      36.893836      36.893836      36.893836    
    412000   0.25968786    -8.1941122     -7.804586       0.51906586     50218.233      36.893836      36.893836      36.893836    
    413000   0.26008009    -8.1938017     -7.8036872      0.52174123     50218.233      36.893836      36.893836      36.893836    
    414000   0.25955976    -8.1946683     -7.8053342      0.50159528     50218.233      36.893836      36.893836      36.893836    
    415000   0.26105722    -8.1935948     -7.8020145      0.51873059     50218.233      36.893836      36.893836      36.893836    
    416000   0.25850642    -8.1939389     -7.8061847      0.50715782     50218.233      36.893836      36.893836      36.893836    
    417000   0.25896729    -8.1909442     -7.8024988      0.5336776      50218.233      36.893836      36.893836      36.893836    
    418000   0.25944497    -8.1929854     -7.8038235      0.52726247     50218.233      36.893836      36.893836      36.893836    
    419000   0.25991558    -8.1949292     -7.8050614      0.50921971     50218.233      36.893836      36.893836      36.893836    
    420000   0.26019724    -8.193992      -7.8037017      0.51237434     50218.233      36.893836      36.893836      36.893836    
    421000   0.25863527    -8.1918288     -7.8038814      0.53010852     50218.233      36.893836      36.893836      36.893836    
    422000   0.25902373    -8.1957475     -7.8072174      0.50022349     50218.233      36.893836      36.893836      36.893836    
    423000   0.25961652    -8.191124      -7.8017047      0.53444793     50218.233      36.893836      36.893836      36.893836    
    424000   0.26070473    -8.1933353     -7.8022838      0.52049541     50218.233      36.893836      36.893836      36.893836    
    425000   0.26061154    -8.1935964     -7.8026847      0.52076723     50218.233      36.893836      36.893836      36.893836    
    426000   0.25979994    -8.1944831     -7.8047887      0.51459189     50218.233      36.893836      36.893836      36.893836    
    427000   0.2600597     -8.1929724     -7.8028884      0.52736906     50218.233      36.893836      36.893836      36.893836    
    428000   0.25948145    -8.1927719     -7.8035552      0.525481       50218.233      36.893836      36.893836      36.893836    
    429000   0.26143647    -8.1914266     -7.7992775      0.54016397     50218.233      36.893836      36.893836      36.893836    
    430000   0.26029068    -8.1919111     -7.8014806      0.52923032     50218.233      36.893836      36.893836      36.893836    
    431000   0.26044407    -8.1944563     -7.8037957      0.51089496     50218.233      36.893836      36.893836      36.893836    
    432000   0.26078803    -8.1948965     -7.80372        0.50728978     50218.233      36.893836      36.893836      36.893836    
    433000   0.26056102    -8.1937302     -7.8028942      0.51185689     50218.233      36.893836      36.893836      36.893836    
    434000   0.26193593    -8.1951422     -7.8022439      0.50678604     50218.233      36.893836      36.893836      36.893836    
    435000   0.26077774    -8.1934316     -7.8022706      0.51821979     50218.233      36.893836      36.893836      36.893836    
    436000   0.25993496    -8.1929279     -7.803031       0.52706528     50218.233      36.893836      36.893836      36.893836    
    437000   0.2598458     -8.1957015     -7.8059383      0.50550606     50218.233      36.893836      36.893836      36.893836    
    438000   0.25911263    -8.1946073     -7.8059439      0.51147174     50218.233      36.893836      36.893836      36.893836    
    439000   0.26050281    -8.1923136     -7.8015649      0.53173617     50218.233      36.893836      36.893836      36.893836    
    440000   0.259613      -8.1950008     -7.8055868      0.50569372     50218.233      36.893836      36.893836      36.893836    
    441000   0.2603587     -8.1951658     -7.8046333      0.50362383     50218.233      36.893836      36.893836      36.893836    
    442000   0.260711      -8.1929556     -7.8018946      0.53033486     50218.233      36.893836      36.893836      36.893836    
    443000   0.25924535    -8.1954273     -7.8065648      0.50448651     50218.233      36.893836      36.893836      36.893836    
    444000   0.26030501    -8.1958939     -7.8054419      0.49960526     50218.233      36.893836      36.893836      36.893836    
    445000   0.25940037    -8.1948        -7.8057049      0.50468217     50218.233      36.893836      36.893836      36.893836    
    446000   0.25942433    -8.192864      -7.803733       0.52698788     50218.233      36.893836      36.893836      36.893836    
    447000   0.26107504    -8.1952482     -7.8036412      0.50477588     50218.233      36.893836      36.893836      36.893836    
    448000   0.2596596     -8.1944018     -7.804918       0.51629412     50218.233      36.893836      36.893836      36.893836    
    449000   0.26025108    -8.1956933     -7.8053223      0.49579074     50218.233      36.893836      36.893836      36.893836    
    450000   0.25934741    -8.1947076     -7.805692       0.50910801     50218.233      36.893836      36.893836      36.893836    
    451000   0.25999013    -8.194797      -7.8048173      0.50881592     50218.233      36.893836      36.893836      36.893836    
    452000   0.25851408    -8.1969983     -7.8092327      0.48899075     50218.233      36.893836      36.893836      36.893836    
    453000   0.25884258    -8.1932727     -7.8050144      0.51417132     50218.233      36.893836      36.893836      36.893836    
    454000   0.25982094    -8.1931709     -7.803445       0.52207746     50218.233      36.893836      36.893836      36.893836    
    455000   0.26083223    -8.1925008     -7.801258       0.52581049     50218.233      36.893836      36.893836      36.893836    
    456000   0.26119493    -8.1939155     -7.8021287      0.51254895     50218.233      36.893836      36.893836      36.893836    
    457000   0.26172588    -8.1961394     -7.8035561      0.51180546     50218.233      36.893836      36.893836      36.893836    
    458000   0.26015738    -8.1948304     -7.8045999      0.51142553     50218.233      36.893836      36.893836      36.893836    
    459000   0.25991159    -8.1970677     -7.8072059      0.49892078     50218.233      36.893836      36.893836      36.893836    
    460000   0.25997029    -8.1948981     -7.8049482      0.50641289     50218.233      36.893836      36.893836      36.893836    
    461000   0.25991954    -8.1941136     -7.8042399      0.51409838     50218.233      36.893836      36.893836      36.893836    
    462000   0.26055252    -8.1937519     -7.8029287      0.52245526     50218.233      36.893836      36.893836      36.893836    
    463000   0.25887676    -8.1955384     -7.8072287      0.49782716     50218.233      36.893836      36.893836      36.893836    
    464000   0.25959282    -8.1948212     -7.8054375      0.5158845      50218.233      36.893836      36.893836      36.893836    
    465000   0.25891772    -8.1933423     -7.8049712      0.52017044     50218.233      36.893836      36.893836      36.893836    
    466000   0.2608569     -8.1948581     -7.8035784      0.50739713     50218.233      36.893836      36.893836      36.893836    
    467000   0.25854349    -8.1940231     -7.8062134      0.50797041     50218.233      36.893836      36.893836      36.893836    
    468000   0.26020174    -8.1928965     -7.8025994      0.52769559     50218.233      36.893836      36.893836      36.893836    
    469000   0.26005968    -8.1925723     -7.8024883      0.52758857     50218.233      36.893836      36.893836      36.893836    
    470000   0.26018263    -8.1948437     -7.8045753      0.51043584     50218.233      36.893836      36.893836      36.893836    
    471000   0.25957588    -8.1938673     -7.804509       0.51444734     50218.233      36.893836      36.893836      36.893836    
    472000   0.25936114    -8.1930533     -7.8040171      0.51659931     50218.233      36.893836      36.893836      36.893836    
    473000   0.25886646    -8.1940192     -7.805725       0.50667704     50218.233      36.893836      36.893836      36.893836    
    474000   0.25861195    -8.1918438     -7.8039314      0.53419694     50218.233      36.893836      36.893836      36.893836    
    475000   0.25901256    -8.1949993     -7.806486       0.51138188     50218.233      36.893836      36.893836      36.893836    
    476000   0.26029559    -8.1923827     -7.8019449      0.52336814     50218.233      36.893836      36.893836      36.893836    
    477000   0.26019338    -8.1939821     -7.8036976      0.51220679     50218.233      36.893836      36.893836      36.893836    
    478000   0.25983555    -8.1907811     -7.8010334      0.54175029     50218.233      36.893836      36.893836      36.893836    
    479000   0.25981505    -8.1932404     -7.8035233      0.51493625     50218.233      36.893836      36.893836      36.893836    
    480000   0.26047917    -8.1937688     -7.8030556      0.51418205     50218.233      36.893836      36.893836      36.893836    
    481000   0.25945293    -8.1931604     -7.8039865      0.52224865     50218.233      36.893836      36.893836      36.893836    
    482000   0.26077152    -8.1943808     -7.8032291      0.51592849     50218.233      36.893836      36.893836      36.893836    
    483000   0.25948055    -8.1947868     -7.8055715      0.51195513     50218.233      36.893836      36.893836      36.893836    
    484000   0.25902671    -8.1933295     -7.804795       0.52098862     50218.233      36.893836      36.893836      36.893836    
    485000   0.26124929    -8.1948732     -7.8030048      0.50972601     50218.233      36.893836      36.893836      36.893836    
    486000   0.26012784    -8.1941151     -7.8039289      0.51853023     50218.233      36.893836      36.893836      36.893836    
    487000   0.25878476    -8.1950964     -7.8069248      0.5110097      50218.233      36.893836      36.893836      36.893836    
    488000   0.26074304    -8.1954831     -7.8043741      0.50557107     50218.233      36.893836      36.893836      36.893836    
    489000   0.25905824    -8.1944753     -7.8058935      0.51645327     50218.233      36.893836      36.893836      36.893836    
    490000   0.25946058    -8.1939553     -7.8047699      0.52181005     50218.233      36.893836      36.893836      36.893836    
    491000   0.25985933    -8.1925826     -7.8027991      0.52549794     50218.233      36.893836      36.893836      36.893836    
    492000   0.2616891     -8.1970275     -7.8044995      0.49462225     50218.233      36.893836      36.893836      36.893836    
    493000   0.26007387    -8.1932995     -7.8031943      0.52205289     50218.233      36.893836      36.893836      36.893836    
    494000   0.25863582    -8.1947305     -7.8067823      0.50873084     50218.233      36.893836      36.893836      36.893836    
    495000   0.25909588    -8.1963758     -7.8077375      0.48606947     50218.233      36.893836      36.893836      36.893836    
    496000   0.25914847    -8.1964321     -7.8077149      0.48738948     50218.233      36.893836      36.893836      36.893836    
    497000   0.26042258    -8.1946415     -7.8040132      0.50702984     50218.233      36.893836      36.893836      36.893836    
    498000   0.25869411    -8.1935957     -7.80556        0.51625521     50218.233      36.893836      36.893836      36.893836    
    499000   0.26084152    -8.1951621     -7.8039054      0.50454194     50218.233      36.893836      36.893836      36.893836    
    500000   0.25961852    -8.1948538     -7.8054315      0.51515871     50218.233      36.893836      36.893836      36.893836    
    501000   0.25967488    -8.1955575     -7.8060507      0.50659878     50218.233      36.893836      36.893836      36.893836    
    502000   0.26073817    -8.1959604     -7.8048587      0.4957609      50218.233      36.893836      36.893836      36.893836    
    503000   0.25891394    -8.1964579     -7.8080925      0.49013488     50218.233      36.893836      36.893836      36.893836    
    504000   0.26086308    -8.1936987     -7.8024096      0.51869007     50218.233      36.893836      36.893836      36.893836    
    505000   0.26007646    -8.1944879     -7.8043788      0.51275        50218.233      36.893836      36.893836      36.893836    
    506000   0.25994541    -8.1963727     -7.8064601      0.49371264     50218.233      36.893836      36.893836      36.893836    
    507000   0.25954738    -8.1943102     -7.8049947      0.51784441     50218.233      36.893836      36.893836      36.893836    
    508000   0.25936188    -8.1946213     -7.805584       0.50656713     50218.233      36.893836      36.893836      36.893836    
    509000   0.26021451    -8.1936461     -7.8033299      0.51385252     50218.233      36.893836      36.893836      36.893836    
    510000   0.25976117    -8.1949955     -7.8053593      0.50269433     50218.233      36.893836      36.893836      36.893836    
    511000   0.26083043    -8.1938383     -7.8025982      0.5209656      50218.233      36.893836      36.893836      36.893836    
    512000   0.25996263    -8.1945454     -7.804607       0.51016414     50218.233      36.893836      36.893836      36.893836    
    513000   0.26029218    -8.1937543     -7.8033216      0.51497538     50218.233      36.893836      36.893836      36.893836    
    514000   0.25787476    -8.1919703     -7.8051637      0.5277585      50218.233      36.893836      36.893836      36.893836    
    515000   0.25942256    -8.1918374     -7.8027091      0.53654954     50218.233      36.893836      36.893836      36.893836    
    516000   0.25965557    -8.1970195     -7.8075417      0.48714667     50218.233      36.893836      36.893836      36.893836    
    517000   0.2607894     -8.194159      -7.8029804      0.50951923     50218.233      36.893836      36.893836      36.893836    
    518000   0.26144118    -8.1919425     -7.7997863      0.53727015     50218.233      36.893836      36.893836      36.893836    
    519000   0.25902496    -8.1949862     -7.8064543      0.51283213     50218.233      36.893836      36.893836      36.893836    
    520000   0.26020347    -8.193994      -7.8036943      0.51197313     50218.233      36.893836      36.893836      36.893836    
    521000   0.2594014     -8.1957174     -7.8066208      0.49848633     50218.233      36.893836      36.893836      36.893836    
    522000   0.25996489    -8.19178       -7.8018382      0.53292978     50218.233      36.893836      36.893836      36.893836    
    523000   0.2592981     -8.1936847     -7.8047431      0.52198776     50218.233      36.893836      36.893836      36.893836    
    524000   0.25926321    -8.1940521     -7.8051628      0.51633552     50218.233      36.893836      36.893836      36.893836    
    525000   0.25979005    -8.1938447     -7.8041651      0.51031874     50218.233      36.893836      36.893836      36.893836    
    526000   0.259299      -8.1918994     -7.8029565      0.52346178     50218.233      36.893836      36.893836      36.893836    
    527000   0.25985275    -8.1939795     -7.8042059      0.51444024     50218.233      36.893836      36.893836      36.893836    
    528000   0.25870208    -8.1936094     -7.8055618      0.5189932      50218.233      36.893836      36.893836      36.893836    
    529000   0.25986517    -8.1950155     -7.8052233      0.50075391     50218.233      36.893836      36.893836      36.893836    
    530000   0.26018533    -8.1930603     -7.8027879      0.52141947     50218.233      36.893836      36.893836      36.893836    
    531000   0.25809314    -8.1913296     -7.8041954      0.53042355     50218.233      36.893836      36.893836      36.893836    
    532000   0.25928336    -8.1932617     -7.8043421      0.51870008     50218.233      36.893836      36.893836      36.893836    
    533000   0.26005487    -8.193067      -7.8029902      0.51610379     50218.233      36.893836      36.893836      36.893836    
    534000   0.25935061    -8.1948161     -7.8057957      0.51392321     50218.233      36.893836      36.893836      36.893836    
    535000   0.26153854    -8.193636      -7.8013338      0.52240066     50218.233      36.893836      36.893836      36.893836    
    536000   0.25935726    -8.1931165     -7.8040862      0.52012772     50218.233      36.893836      36.893836      36.893836    
    537000   0.26029376    -8.1959424     -7.8055074      0.50539477     50218.233      36.893836      36.893836      36.893836    
    538000   0.25951238    -8.1953817     -7.8061186      0.50142733     50218.233      36.893836      36.893836      36.893836    
    539000   0.25907613    -8.1949859     -7.8063772      0.49949318     50218.233      36.893836      36.893836      36.893836    
    540000   0.25974885    -8.1944866     -7.8048689      0.51198997     50218.233      36.893836      36.893836      36.893836    
    541000   0.26118335    -8.1948395     -7.8030701      0.50773525     50218.233      36.893836      36.893836      36.893836    
    542000   0.26011292    -8.1948434     -7.8046796      0.51452397     50218.233      36.893836      36.893836      36.893836    
    543000   0.25908573    -8.193146      -7.8045229      0.52212006     50218.233      36.893836      36.893836      36.893836    
    544000   0.26138165    -8.1951468     -7.8030799      0.5098786      50218.233      36.893836      36.893836      36.893836    
    545000   0.26147653    -8.1953101     -7.8031009      0.50486049     50218.233      36.893836      36.893836      36.893836    
    546000   0.26058232    -8.1951465     -7.8042785      0.50727147     50218.233      36.893836      36.893836      36.893836    
    547000   0.26044031    -8.1935603     -7.8029054      0.51786766     50218.233      36.893836      36.893836      36.893836    
    548000   0.25940528    -8.1955665     -7.8064641      0.50635233     50218.233      36.893836      36.893836      36.893836    
    549000   0.26071311    -8.1958678     -7.8048037      0.5065577      50218.233      36.893836      36.893836      36.893836    
    550000   0.25811149    -8.192835      -7.8056732      0.52101597     50218.233      36.893836      36.893836      36.893836    
    551000   0.25976977    -8.194835      -7.8051859      0.505544       50218.233      36.893836      36.893836      36.893836    
    552000   0.26006514    -8.1936406     -7.8035484      0.51815075     50218.233      36.893836      36.893836      36.893836    
    553000   0.26215754    -8.1956979     -7.8024671      0.50131682     50218.233      36.893836      36.893836      36.893836    
    554000   0.26107047    -8.1942663     -7.8026662      0.5035448      50218.233      36.893836      36.893836      36.893836    
    555000   0.25953653    -8.196325      -7.8070257      0.50442388     50218.233      36.893836      36.893836      36.893836    
    556000   0.26095133    -8.19586       -7.8044386      0.50656528     50218.233      36.893836      36.893836      36.893836    
    557000   0.25881358    -8.194261      -7.8060462      0.50835915     50218.233      36.893836      36.893836      36.893836    
    558000   0.26025393    -8.1952549     -7.8048796      0.49767449     50218.233      36.893836      36.893836      36.893836    
    559000   0.25903463    -8.1964231     -7.8078767      0.49303269     50218.233      36.893836      36.893836      36.893836    
    560000   0.26109814    -8.1920796     -7.800438       0.53077375     50218.233      36.893836      36.893836      36.893836    
    561000   0.25810627    -8.1955488     -7.8083949      0.49691152     50218.233      36.893836      36.893836      36.893836    
    562000   0.25906652    -8.1951338     -7.8065395      0.50486448     50218.233      36.893836      36.893836      36.893836    
    563000   0.25982307    -8.1921606     -7.8024315      0.5257021      50218.233      36.893836      36.893836      36.893836    
    564000   0.25999606    -8.1966238     -7.8066353      0.51205215     50218.233      36.893836      36.893836      36.893836    
    565000   0.25974908    -8.1918369     -7.8022188      0.52000579     50218.233      36.893836      36.893836      36.893836    
    566000   0.25861401    -8.191235      -7.8033195      0.52511673     50218.233      36.893836      36.893836      36.893836    
    567000   0.26071747    -8.1935088     -7.8024382      0.51166998     50218.233      36.893836      36.893836      36.893836    
    568000   0.26145248    -8.1956372     -7.8034641      0.5043043      50218.233      36.893836      36.893836      36.893836    
    569000   0.26028883    -8.1942086     -7.8037809      0.50734008     50218.233      36.893836      36.893836      36.893836    
    570000   0.25955519    -8.1934157     -7.8040885      0.52242793     50218.233      36.893836      36.893836      36.893836    
    571000   0.26044233    -8.1922688     -7.8016109      0.53132847     50218.233      36.893836      36.893836      36.893836    
    572000   0.2591316     -8.1944504     -7.8057586      0.51034293     50218.233      36.893836      36.893836      36.893836    
    573000   0.25956882    -8.1942496     -7.8049019      0.50964006     50218.233      36.893836      36.893836      36.893836    
    574000   0.25970938    -8.1929243     -7.8033658      0.52701703     50218.233      36.893836      36.893836      36.893836    
    575000   0.26062438    -8.1931198     -7.8021888      0.51763222     50218.233      36.893836      36.893836      36.893836    
    576000   0.26138141    -8.1939444     -7.8018779      0.51148384     50218.233      36.893836      36.893836      36.893836    
    577000   0.25927064    -8.194182      -7.8052816      0.51819218     50218.233      36.893836      36.893836      36.893836    
    578000   0.25982611    -8.193563      -7.8038294      0.51447407     50218.233      36.893836      36.893836      36.893836    
    579000   0.26016607    -8.1936722     -7.8034286      0.51308036     50218.233      36.893836      36.893836      36.893836    
    580000   0.2588094     -8.1912147     -7.8030061      0.52880215     50218.233      36.893836      36.893836      36.893836    
    581000   0.25878246    -8.1904288     -7.8022606      0.53783082     50218.233      36.893836      36.893836      36.893836    
    582000   0.26099669    -8.1936769     -7.8021874      0.51648127     50218.233      36.893836      36.893836      36.893836    
    583000   0.25985663    -8.1935765     -7.8037971      0.51468763     50218.233      36.893836      36.893836      36.893836    
    584000   0.25938022    -8.1917496     -7.8026848      0.53012129     50218.233      36.893836      36.893836      36.893836    
    585000   0.26095795    -8.195292      -7.8038606      0.50242155     50218.233      36.893836      36.893836      36.893836    
    586000   0.25919793    -8.1956628     -7.8068715      0.50703694     50218.233      36.893836      36.893836      36.893836    
    587000   0.26007694    -8.1937924     -7.8036825      0.51933427     50218.233      36.893836      36.893836      36.893836    
    588000   0.25891797    -8.1939922     -7.8056208      0.51071251     50218.233      36.893836      36.893836      36.893836    
    589000   0.25865397    -8.1954308     -7.8074554      0.50309328     50218.233      36.893836      36.893836      36.893836    
    590000   0.25954493    -8.1926195     -7.8033076      0.5203273      50218.233      36.893836      36.893836      36.893836    
    591000   0.25840611    -8.1954005     -7.8077969      0.50189131     50218.233      36.893836      36.893836      36.893836    
    592000   0.25913329    -8.1941689     -7.8054745      0.51203712     50218.233      36.893836      36.893836      36.893836    
    593000   0.26070534    -8.195572      -7.8045195      0.50270879     50218.233      36.893836      36.893836      36.893836    
    594000   0.25921193    -8.1960043     -7.8071919      0.49998009     50218.233      36.893836      36.893836      36.893836    
    595000   0.26114171    -8.196417      -7.80471        0.49539537     50218.233      36.893836      36.893836      36.893836    
    596000   0.25923354    -8.1955992     -7.8067544      0.49998061     50218.233      36.893836      36.893836      36.893836    
    597000   0.26047392    -8.1968274     -7.8061221      0.49256535     50218.233      36.893836      36.893836      36.893836    
    598000   0.26037989    -8.1968881     -7.8063238      0.49407492     50218.233      36.893836      36.893836      36.893836    
    599000   0.26074461    -8.1937124     -7.8026011      0.51551774     50218.233      36.893836      36.893836      36.893836    
    600000   0.26029465    -8.194294      -7.8038576      0.51059993     50218.233      36.893836      36.893836      36.893836    
    601000   0.25929931    -8.1948337     -7.8058902      0.50036444     50218.233      36.893836      36.893836      36.893836    
    602000   0.26056943    -8.1943946     -7.803546       0.50909237     50218.233      36.893836      36.893836      36.893836    
    603000   0.2604721     -8.1947086     -7.804006       0.5094426      50218.233      36.893836      36.893836      36.893836    
    604000   0.26003716    -8.1963611     -7.806311       0.49891649     50218.233      36.893836      36.893836      36.893836    
    605000   0.25898147    -8.1965614     -7.8080948      0.49635176     50218.233      36.893836      36.893836      36.893836    
    606000   0.25957803    -8.1932839     -7.8039224      0.51369536     50218.233      36.893836      36.893836      36.893836    
    607000   0.2607124     -8.1962359     -7.8051728      0.49347353     50218.233      36.893836      36.893836      36.893836    
    608000   0.26012782    -8.1943607     -7.8041745      0.51061848     50218.233      36.893836      36.893836      36.893836    
    609000   0.25894325    -8.1934878     -7.8050785      0.51976466     50218.233      36.893836      36.893836      36.893836    
    610000   0.25827325    -8.1937381     -7.8063337      0.51515226     50218.233      36.893836      36.893836      36.893836    
    611000   0.25940352    -8.1925906     -7.8034909      0.52705497     50218.233      36.893836      36.893836      36.893836    
    612000   0.26082704    -8.1932015     -7.8019665      0.52312977     50218.233      36.893836      36.893836      36.893836    
    613000   0.25896728    -8.1959156     -7.8074702      0.49731092     50218.233      36.893836      36.893836      36.893836    
    614000   0.26068395    -8.1923271     -7.8013068      0.5283791      50218.233      36.893836      36.893836      36.893836    
    615000   0.25890954    -8.1932916     -7.8049328      0.51672099     50218.233      36.893836      36.893836      36.893836    
    616000   0.2596919     -8.1932288     -7.8036965      0.52098736     50218.233      36.893836      36.893836      36.893836    
    617000   0.25932596    -8.1940314     -7.8050479      0.51500921     50218.233      36.893836      36.893836      36.893836    
    618000   0.26079122    -8.195482      -7.8043007      0.50417162     50218.233      36.893836      36.893836      36.893836    
    619000   0.25945117    -8.1949813     -7.8058101      0.50956364     50218.233      36.893836      36.893836      36.893836    
    620000   0.26022532    -8.1937327     -7.8034003      0.51409463     50218.233      36.893836      36.893836      36.893836    
    621000   0.2600207     -8.1946819     -7.8046564      0.50869052     50218.233      36.893836      36.893836      36.893836    
    622000   0.26104936    -8.1916024     -7.8000339      0.53298663     50218.233      36.893836      36.893836      36.893836    
    623000   0.26004918    -8.1930704     -7.8030021      0.52339954     50218.233      36.893836      36.893836      36.893836    
    624000   0.25906744    -8.1942965     -7.8057009      0.51311244     50218.233      36.893836      36.893836      36.893836    
    625000   0.25954978    -8.1927425     -7.8034233      0.52295446     50218.233      36.893836      36.893836      36.893836    
    626000   0.25935193    -8.1938579     -7.8048355      0.50996081     50218.233      36.893836      36.893836      36.893836    
    627000   0.26008752    -8.1932243     -7.8030986      0.52263352     50218.233      36.893836      36.893836      36.893836    
    628000   0.259216      -8.1948173     -7.8059988      0.50965232     50218.233      36.893836      36.893836      36.893836    
    629000   0.2601302     -8.1930351     -7.8028454      0.51727761     50218.233      36.893836      36.893836      36.893836    
    630000   0.25973298    -8.1944807     -7.8048868      0.50981487     50218.233      36.893836      36.893836      36.893836    
    631000   0.25908855    -8.1927999     -7.8041726      0.52009268     50218.233      36.893836      36.893836      36.893836    
    632000   0.25944985    -8.1931633     -7.8039941      0.52013502     50218.233      36.893836      36.893836      36.893836    
    633000   0.26035643    -8.194319      -7.8037899      0.506024       50218.233      36.893836      36.893836      36.893836    
    634000   0.25887583    -8.1933191     -7.8050109      0.52545375     50218.233      36.893836      36.893836      36.893836    
    635000   0.26174785    -8.1927034     -7.8000872      0.52707292     50218.233      36.893836      36.893836      36.893836    
    636000   0.25916325    -8.1914703     -7.8027309      0.52550851     50218.233      36.893836      36.893836      36.893836    
    637000   0.26019717    -8.1934356     -7.8031454      0.512605       50218.233      36.893836      36.893836      36.893836    
    638000   0.26148183    -8.1932356     -7.8010184      0.51912651     50218.233      36.893836      36.893836      36.893836    
    639000   0.25991584    -8.1931862     -7.803318       0.5219536      50218.233      36.893836      36.893836      36.893836    
    640000   0.2604141     -8.1955871     -7.8049715      0.50498119     50218.233      36.893836      36.893836      36.893836    
    641000   0.26111969    -8.1928459     -7.8011719      0.52538956     50218.233      36.893836      36.893836      36.893836    
    642000   0.25996011    -8.1943342     -7.8043995      0.51148579     50218.233      36.893836      36.893836      36.893836    
    643000   0.26003       -8.1941132     -7.8040737      0.51544202     50218.233      36.893836      36.893836      36.893836    
    644000   0.25843324    -8.1964861     -7.8088418      0.49576763     50218.233      36.893836      36.893836      36.893836    
    645000   0.26028485    -8.1930616     -7.8026399      0.51486442     50218.233      36.893836      36.893836      36.893836    
    646000   0.25950811    -8.1959893     -7.8067327      0.48950155     50218.233      36.893836      36.893836      36.893836    
    647000   0.26035343    -8.19286       -7.8023354      0.51821071     50218.233      36.893836      36.893836      36.893836    
    648000   0.26001474    -8.1935653     -7.8035487      0.51771135     50218.233      36.893836      36.893836      36.893836    
    649000   0.26000484    -8.195061      -7.8050593      0.50495616     50218.233      36.893836      36.893836      36.893836    
    650000   0.25962217    -8.1965817     -7.8071539      0.48798132     50218.233      36.893836      36.893836      36.893836    
    651000   0.26108686    -8.1936063     -7.8019816      0.52044925     50218.233      36.893836      36.893836      36.893836    
    652000   0.26065546    -8.1931991     -7.8022215      0.52357994     50218.233      36.893836      36.893836      36.893836    
    653000   0.26013618    -8.1957622     -7.8055635      0.50164442     50218.233      36.893836      36.893836      36.893836    
    654000   0.26040601    -8.1923406     -7.8017371      0.52779126     50218.233      36.893836      36.893836      36.893836    
    655000   0.26024012    -8.1959272     -7.8055725      0.50082256     50218.233      36.893836      36.893836      36.893836    
    656000   0.26058368    -8.1958762     -7.8050062      0.49251266     50218.233      36.893836      36.893836      36.893836    
    657000   0.26006643    -8.1972568     -7.8071627      0.48701143     50218.233      36.893836      36.893836      36.893836    
    658000   0.26074123    -8.1944398     -7.8033335      0.50717376     50218.233      36.893836      36.893836      36.893836    
    659000   0.26022901    -8.194429      -7.804091       0.51706665     50218.233      36.893836      36.893836      36.893836    
    660000   0.26040182    -8.1963296     -7.8057324      0.50087502     50218.233      36.893836      36.893836      36.893836    
    661000   0.25898294    -8.1939382     -7.8054693      0.51120728     50218.233      36.893836      36.893836      36.893836    
    662000   0.25944136    -8.1927069     -7.8035504      0.52683214     50218.233      36.893836      36.893836      36.893836    
    663000   0.26026415    -8.1939539     -7.8035632      0.5081224      50218.233      36.893836      36.893836      36.893836    
    664000   0.26043439    -8.1938824     -7.8032364      0.51835231     50218.233      36.893836      36.893836      36.893836    
    665000   0.25978188    -8.194042      -7.8043747      0.51668456     50218.233      36.893836      36.893836      36.893836    
    666000   0.2597226     -8.1946573     -7.8050789      0.50718653     50218.233      36.893836      36.893836      36.893836    
    667000   0.25839449    -8.1937954     -7.8062092      0.51048302     50218.233      36.893836      36.893836      36.893836    
    668000   0.2599001     -8.1949306     -7.805086       0.50396018     50218.233      36.893836      36.893836      36.893836    
    669000   0.2604546     -8.1916038     -7.8009275      0.53393599     50218.233      36.893836      36.893836      36.893836    
    670000   0.25995581    -8.1936559     -7.8037277      0.51603458     50218.233      36.893836      36.893836      36.893836    
    671000   0.25919173    -8.1933437     -7.8045616      0.51561976     50218.233      36.893836      36.893836      36.893836    
    672000   0.25905193    -8.1924975     -7.8039251      0.52018198     50218.233      36.893836      36.893836      36.893836    
    673000   0.26037829    -8.1951395     -7.8045776      0.5031075      50218.233      36.893836      36.893836      36.893836    
    674000   0.25837675    -8.1927411     -7.8051815      0.52537934     50218.233      36.893836      36.893836      36.893836    
    675000   0.25999847    -8.1912418     -7.8012497      0.53698103     50218.233      36.893836      36.893836      36.893836    
    676000   0.26048057    -8.193107      -7.8023917      0.52174174     50218.233      36.893836      36.893836      36.893836    
    677000   0.26009811    -8.1932287     -7.8030871      0.5195814      50218.233      36.893836      36.893836      36.893836    
    678000   0.25888363    -8.1952799     -7.80696        0.50948553     50218.233      36.893836      36.893836      36.893836    
    679000   0.25926221    -8.1947046     -7.8058168      0.50472285     50218.233      36.893836      36.893836      36.893836    
    680000   0.26021013    -8.1939333     -7.8036236      0.51556344     50218.233      36.893836      36.893836      36.893836    
    681000   0.25973815    -8.1927916     -7.8031899      0.52834001     50218.233      36.893836      36.893836      36.893836    
    682000   0.2602262     -8.1932478     -7.8029141      0.51731627     50218.233      36.893836      36.893836      36.893836    
    683000   0.25935052    -8.1931184     -7.8040982      0.52554966     50218.233      36.893836      36.893836      36.893836    
    684000   0.26022974    -8.1943326     -7.8039936      0.52056732     50218.233      36.893836      36.893836      36.893836    
    685000   0.26023101    -8.1934624     -7.8031215      0.52136701     50218.233      36.893836      36.893836      36.893836    
    686000   0.25955127    -8.1925768     -7.8032554      0.53055529     50218.233      36.893836      36.893836      36.893836    
    687000   0.25931831    -8.1947747     -7.8058028      0.50741737     50218.233      36.893836      36.893836      36.893836    
    688000   0.2596521     -8.1933123     -7.8038397      0.52215938     50218.233      36.893836      36.893836      36.893836    
    689000   0.26005322    -8.193419      -7.8033447      0.51422354     50218.233      36.893836      36.893836      36.893836    
    690000   0.25967953    -8.1949859     -7.8054721      0.50355287     50218.233      36.893836      36.893836      36.893836    
    691000   0.25978809    -8.1935049     -7.8038283      0.5088099      50218.233      36.893836      36.893836      36.893836    
    692000   0.25952441    -8.1937927     -7.8045116      0.51752325     50218.233      36.893836      36.893836      36.893836    
    693000   0.25979748    -8.1933249     -7.8036342      0.51757558     50218.233      36.893836      36.893836      36.893836    
    694000   0.26133581    -8.1928898     -7.8008917      0.5312325      50218.233      36.893836      36.893836      36.893836    
    695000   0.25955541    -8.1947441     -7.8054165      0.508158       50218.233      36.893836      36.893836      36.893836    
    696000   0.26016055    -8.1960595     -7.8058243      0.49984158     50218.233      36.893836      36.893836      36.893836    
    697000   0.2595109     -8.1946136     -7.8053528      0.51009762     50218.233      36.893836      36.893836      36.893836    
    698000   0.26010522    -8.1947618     -7.8046095      0.50929845     50218.233      36.893836      36.893836      36.893836    
    699000   0.25997956    -8.1959184     -7.8059546      0.49231762     50218.233      36.893836      36.893836      36.893836    
    700000   0.25894637    -8.1936157     -7.8052017      0.51796063     50218.233      36.893836      36.893836      36.893836    
    701000   0.26061897    -8.1946948     -7.8037719      0.51689871     50218.233      36.893836      36.893836      36.893836    
    702000   0.26005841    -8.1953303     -7.8052482      0.50713852     50218.233      36.893836      36.893836      36.893836    
    703000   0.26002855    -8.1943961     -7.8043588      0.51916368     50218.233      36.893836      36.893836      36.893836    
    704000   0.26094323    -8.1932142     -7.8018049      0.51894027     50218.233      36.893836      36.893836      36.893836    
    705000   0.26074506    -8.1948377     -7.8037257      0.51191711     50218.233      36.893836      36.893836      36.893836    
    706000   0.25851616    -8.1963181     -7.8085494      0.50047451     50218.233      36.893836      36.893836      36.893836    
    707000   0.25999881    -8.1949492     -7.8049565      0.50414709     50218.233      36.893836      36.893836      36.893836    
    708000   0.26043034    -8.193184      -7.8025441      0.51366741     50218.233      36.893836      36.893836      36.893836    
    709000   0.26101186    -8.192544      -7.8010318      0.51797868     50218.233      36.893836      36.893836      36.893836    
    710000   0.26066976    -8.1948636     -7.8038645      0.51272308     50218.233      36.893836      36.893836      36.893836    
    711000   0.25956067    -8.1919429     -7.8026074      0.53484747     50218.233      36.893836      36.893836      36.893836    
    712000   0.25947168    -8.1945801     -7.8053781      0.50703169     50218.233      36.893836      36.893836      36.893836    
    713000   0.2610224     -8.1937222     -7.8021942      0.5130725      50218.233      36.893836      36.893836      36.893836    
    714000   0.25889601    -8.1943074     -7.8059689      0.51325252     50218.233      36.893836      36.893836      36.893836    
    715000   0.26018419    -8.1948371     -7.8045664      0.50882379     50218.233      36.893836      36.893836      36.893836    
    716000   0.2592368     -8.193418      -7.8045683      0.51714528     50218.233      36.893836      36.893836      36.893836    
    717000   0.26008681    -8.1932471     -7.8031224      0.51896352     50218.233      36.893836      36.893836      36.893836    
    718000   0.25953745    -8.194666      -7.8053654      0.51352539     50218.233      36.893836      36.893836      36.893836    
    719000   0.26024164    -8.1940795     -7.8037226      0.51037559     50218.233      36.893836      36.893836      36.893836    
    720000   0.26060939    -8.1925793     -7.8016708      0.52454482     50218.233      36.893836      36.893836      36.893836    
    721000   0.26081532    -8.1928809     -7.8016635      0.52206587     50218.233      36.893836      36.893836      36.893836    
    722000   0.2613541     -8.1919654     -7.7999398      0.533562       50218.233      36.893836      36.893836      36.893836    
    723000   0.25947979    -8.1915413     -7.8023271      0.53894226     50218.233      36.893836      36.893836      36.893836    
    724000   0.25959628    -8.193924      -7.8045352      0.51712372     50218.233      36.893836      36.893836      36.893836    
    725000   0.2590028     -8.1938774     -7.8053787      0.51331956     50218.233      36.893836      36.893836      36.893836    
    726000   0.26082843    -8.1929728     -7.8017357      0.52641954     50218.233      36.893836      36.893836      36.893836    
    727000   0.2602496     -8.192828      -7.8024591      0.53642936     50218.233      36.893836      36.893836      36.893836    
    728000   0.26082081    -8.1945729     -7.8033472      0.51145055     50218.233      36.893836      36.893836      36.893836    
    729000   0.25958582    -8.1923552     -7.802982       0.52749675     50218.233      36.893836      36.893836      36.893836    
    730000   0.25927357    -8.1933508     -7.804446       0.52202808     50218.233      36.893836      36.893836      36.893836    
    731000   0.259321      -8.1931753     -7.8041994      0.52084135     50218.233      36.893836      36.893836      36.893836    
    732000   0.26009613    -8.1939571     -7.8038185      0.51821558     50218.233      36.893836      36.893836      36.893836    
    733000   0.25881411    -8.1949667     -7.8067511      0.50428747     50218.233      36.893836      36.893836      36.893836    
    734000   0.25944647    -8.1961205     -7.8069564      0.49923117     50218.233      36.893836      36.893836      36.893836    
    735000   0.25875813    -8.1938967     -7.805765       0.51017617     50218.233      36.893836      36.893836      36.893836    
    736000   0.25977883    -8.1943495     -7.8046868      0.51039683     50218.233      36.893836      36.893836      36.893836    
    737000   0.25910784    -8.1944314     -7.8057752      0.50528286     50218.233      36.893836      36.893836      36.893836    
    738000   0.26030808    -8.1957178     -7.8052613      0.49869219     50218.233      36.893836      36.893836      36.893836    
    739000   0.26009483    -8.1933603     -7.8032236      0.52241903     50218.233      36.893836      36.893836      36.893836    
    740000   0.26006318    -8.1956136     -7.8055244      0.50620104     50218.233      36.893836      36.893836      36.893836    
    741000   0.26018578    -8.1941252     -7.8038521      0.50827032     50218.233      36.893836      36.893836      36.893836    
    742000   0.26013809    -8.1946277     -7.8044261      0.51445039     50218.233      36.893836      36.893836      36.893836    
    743000   0.25902222    -8.1948231     -7.8062953      0.50357198     50218.233      36.893836      36.893836      36.893836    
    744000   0.25985244    -8.1926255     -7.8028524      0.52984635     50218.233      36.893836      36.893836      36.893836    
    745000   0.25977066    -8.1934496     -7.8037992      0.51753866     50218.233      36.893836      36.893836      36.893836    
    746000   0.26086059    -8.1945402     -7.8032549      0.51286316     50218.233      36.893836      36.893836      36.893836    
    747000   0.25906083    -8.1950541     -7.8064684      0.50751523     50218.233      36.893836      36.893836      36.893836    
    748000   0.25934077    -8.1948397     -7.8058341      0.51169921     50218.233      36.893836      36.893836      36.893836    
    749000   0.25976345    -8.1940543     -7.8044147      0.50830604     50218.233      36.893836      36.893836      36.893836    
    750000   0.25883885    -8.1949851     -7.8067323      0.50468018     50218.233      36.893836      36.893836      36.893836    
    751000   0.26082588    -8.1944567     -7.8032234      0.51398441     50218.233      36.893836      36.893836      36.893836    
    752000   0.25996443    -8.1952499     -7.8053088      0.50068107     50218.233      36.893836      36.893836      36.893836    
    753000   0.25902398    -8.193606      -7.8050755      0.50616679     50218.233      36.893836      36.893836      36.893836    
    754000   0.26183857    -8.1920955     -7.7993432      0.53284606     50218.233      36.893836      36.893836      36.893836    
    755000   0.25975311    -8.1941052     -7.8044811      0.51563534     50218.233      36.893836      36.893836      36.893836    
    756000   0.2595482     -8.1942892     -7.8049725      0.51476901     50218.233      36.893836      36.893836      36.893836    
    757000   0.2594071     -8.1948912     -7.8057861      0.50849651     50218.233      36.893836      36.893836      36.893836    
    758000   0.25953113    -8.1954574     -7.8061662      0.49442174     50218.233      36.893836      36.893836      36.893836    
    759000   0.25999564    -8.1927064     -7.8027185      0.51809036     50218.233      36.893836      36.893836      36.893836    
    760000   0.2600624     -8.1950331     -7.804945       0.50625038     50218.233      36.893836      36.893836      36.893836    
    761000   0.2599052     -8.1930621     -7.8032099      0.52830071     50218.233      36.893836      36.893836      36.893836    
    762000   0.25963645    -8.1919097     -7.8024606      0.52804377     50218.233      36.893836      36.893836      36.893836    
    763000   0.26018059    -8.1943189     -7.8040536      0.51530385     50218.233      36.893836      36.893836      36.893836    
    764000   0.26089106    -8.1927758     -7.8014448      0.52246121     50218.233      36.893836      36.893836      36.893836    
    765000   0.25882206    -8.1943866     -7.806159       0.508605       50218.233      36.893836      36.893836      36.893836    
    766000   0.25950398    -8.1966884     -7.807438       0.49821109     50218.233      36.893836      36.893836      36.893836    
    767000   0.2599951     -8.1951198     -7.8051327      0.51229381     50218.233      36.893836      36.893836      36.893836    
    768000   0.2597422     -8.1922211     -7.8026133      0.53250379     50218.233      36.893836      36.893836      36.893836    
    769000   0.26043322    -8.195267      -7.8046227      0.50264289     50218.233      36.893836      36.893836      36.893836    
    770000   0.25952561    -8.1907217     -7.8014389      0.53508246     50218.233      36.893836      36.893836      36.893836    
    771000   0.26145856    -8.1926965     -7.8005142      0.52267197     50218.233      36.893836      36.893836      36.893836    
    772000   0.26132674    -8.1940812     -7.8020966      0.5082932      50218.233      36.893836      36.893836      36.893836    
    773000   0.259413      -8.1919728     -7.8028589      0.53164821     50218.233      36.893836      36.893836      36.893836    
    774000   0.26032728    -8.191301      -7.8008156      0.53752026     50218.233      36.893836      36.893836      36.893836    
    775000   0.26075129    -8.1930972     -7.8019758      0.52527845     50218.233      36.893836      36.893836      36.893836    
    776000   0.25955894    -8.1924758     -7.8031429      0.52351557     50218.233      36.893836      36.893836      36.893836    
    777000   0.26138977    -8.1940739     -7.8019949      0.50791219     50218.233      36.893836      36.893836      36.893836    
    778000   0.26102479    -8.1939576     -7.802426       0.517611       50218.233      36.893836      36.893836      36.893836    
    779000   0.26125408    -8.1932553     -7.8013798      0.52484241     50218.233      36.893836      36.893836      36.893836    
    780000   0.25958598    -8.1939274     -7.804554       0.51082344     50218.233      36.893836      36.893836      36.893836    
    781000   0.26027712    -8.1935158     -7.8031057      0.51277103     50218.233      36.893836      36.893836      36.893836    
    782000   0.25952489    -8.1913711     -7.8020893      0.52958719     50218.233      36.893836      36.893836      36.893836    
    783000   0.2605916     -8.1938318     -7.80295        0.51619141     50218.233      36.893836      36.893836      36.893836    
    784000   0.26098696    -8.1937683     -7.8022934      0.5167515      50218.233      36.893836      36.893836      36.893836    
    785000   0.26004616    -8.1948929     -7.8048292      0.50504681     50218.233      36.893836      36.893836      36.893836    
    786000   0.26131122    -8.1948946     -7.8029333      0.51538581     50218.233      36.893836      36.893836      36.893836    
    787000   0.25880169    -8.1930645     -7.8048675      0.51561495     50218.233      36.893836      36.893836      36.893836    
    788000   0.25860588    -8.1944622     -7.8065589      0.5141128      50218.233      36.893836      36.893836      36.893836    
    789000   0.2611205     -8.1935847     -7.8019095      0.50865723     50218.233      36.893836      36.893836      36.893836    
    790000   0.26035077    -8.1944153     -7.8038947      0.51466916     50218.233      36.893836      36.893836      36.893836    
    791000   0.25981472    -8.1940428     -7.8043263      0.51056754     50218.233      36.893836      36.893836      36.893836    
    792000   0.25983627    -8.1947855     -7.8050367      0.5157988      50218.233      36.893836      36.893836      36.893836    
    793000   0.26044596    -8.1946565     -7.8039931      0.51127099     50218.233      36.893836      36.893836      36.893836    
    794000   0.26038524    -8.1966637     -7.8060914      0.48982151     50218.233      36.893836      36.893836      36.893836    
    795000   0.2592888     -8.1960434     -7.8071157      0.49765807     50218.233      36.893836      36.893836      36.893836    
    796000   0.2598651     -8.1958491     -7.806057       0.50172649     50218.233      36.893836      36.893836      36.893836    
    797000   0.25990076    -8.1953862     -7.8055406      0.50076715     50218.233      36.893836      36.893836      36.893836    
    798000   0.26038677    -8.1957897     -7.8052151      0.49594208     50218.233      36.893836      36.893836      36.893836    
    799000   0.25932326    -8.1926814     -7.803702       0.52055919     50218.233      36.893836      36.893836      36.893836    
    800000   0.25907196    -8.1941951     -7.8055927      0.51287033     50218.233      36.893836      36.893836      36.893836    
    801000   0.25965685    -8.1947047     -7.8052249      0.5130793      50218.233      36.893836      36.893836      36.893836    
    802000   0.25958379    -8.1954704     -7.8061002      0.51073506     50218.233      36.893836      36.893836      36.893836    
    803000   0.25975047    -8.1947894     -7.8051692      0.51586026     50218.233      36.893836      36.893836      36.893836    
    804000   0.2605195     -8.194821      -7.8040473      0.50923845     50218.233      36.893836      36.893836      36.893836    
    805000   0.26075285    -8.1952188     -7.804095       0.50185791     50218.233      36.893836      36.893836      36.893836    
    806000   0.26079052    -8.1949314     -7.8037512      0.51095259     50218.233      36.893836      36.893836      36.893836    
    807000   0.25899348    -8.194229      -7.8057443      0.513014       50218.233      36.893836      36.893836      36.893836    
    808000   0.26067899    -8.1939722     -7.8029593      0.5182097      50218.233      36.893836      36.893836      36.893836    
    809000   0.25975807    -8.1947314     -7.8050998      0.51225723     50218.233      36.893836      36.893836      36.893836    
    810000   0.25969395    -8.1955427     -7.8060073      0.49801468     50218.233      36.893836      36.893836      36.893836    
    811000   0.26051937    -8.1954874     -7.8047139      0.50147196     50218.233      36.893836      36.893836      36.893836    
    812000   0.25965124    -8.1941187     -7.8046474      0.51142513     50218.233      36.893836      36.893836      36.893836    
    813000   0.26001988    -8.1928346     -7.8028103      0.52137526     50218.233      36.893836      36.893836      36.893836    
    814000   0.25986611    -8.1958473     -7.8060537      0.49239112     50218.233      36.893836      36.893836      36.893836    
    815000   0.2608248     -8.1938724     -7.8026408      0.51671128     50218.233      36.893836      36.893836      36.893836    
    816000   0.25896119    -8.1938968     -7.8054606      0.52140194     50218.233      36.893836      36.893836      36.893836    
    817000   0.26013412    -8.195285      -7.8050893      0.50854982     50218.233      36.893836      36.893836      36.893836    
    818000   0.2604127     -8.1933194     -7.8027059      0.52135638     50218.233      36.893836      36.893836      36.893836    
    819000   0.26199854    -8.192215      -7.7992228      0.53292612     50218.233      36.893836      36.893836      36.893836    
    820000   0.25941156    -8.1924185     -7.8033067      0.51875667     50218.233      36.893836      36.893836      36.893836    
    821000   0.25988165    -8.1929514     -7.8031345      0.51864572     50218.233      36.893836      36.893836      36.893836    
    822000   0.25988354    -8.1939426     -7.8041228      0.51712999     50218.233      36.893836      36.893836      36.893836    
    823000   0.26097226    -8.19603       -7.8045771      0.494336       50218.233      36.893836      36.893836      36.893836    
    824000   0.25867697    -8.1920038     -7.8039939      0.52888742     50218.233      36.893836      36.893836      36.893836    
    825000   0.25924259    -8.192546      -7.8036876      0.52199536     50218.233      36.893836      36.893836      36.893836    
    826000   0.26032301    -8.1918346     -7.8013556      0.5226216      50218.233      36.893836      36.893836      36.893836    
    827000   0.25977628    -8.1923103     -7.8026514      0.53069246     50218.233      36.893836      36.893836      36.893836    
    828000   0.25869771    -8.1930417     -7.8050006      0.51760293     50218.233      36.893836      36.893836      36.893836    
    829000   0.26053735    -8.1948237     -7.8040232      0.50778261     50218.233      36.893836      36.893836      36.893836    
    830000   0.25976243    -8.1936815     -7.8040434      0.5136631      50218.233      36.893836      36.893836      36.893836    
    831000   0.25991074    -8.1941832     -7.8043226      0.50700003     50218.233      36.893836      36.893836      36.893836    
    832000   0.2606542     -8.1933877     -7.802412       0.52086764     50218.233      36.893836      36.893836      36.893836    
    833000   0.2593899     -8.1936291     -7.8045498      0.51829639     50218.233      36.893836      36.893836      36.893836    
    834000   0.26042764    -8.1925811     -7.8019452      0.52696641     50218.233      36.893836      36.893836      36.893836    
    835000   0.26004665    -8.194188      -7.8041235      0.50253869     50218.233      36.893836      36.893836      36.893836    
    836000   0.25986133    -8.194812      -7.8050256      0.51350584     50218.233      36.893836      36.893836      36.893836    
    837000   0.26120193    -8.1948515     -7.8030542      0.51334521     50218.233      36.893836      36.893836      36.893836    
    838000   0.26107952    -8.1945633     -7.8029495      0.51245332     50218.233      36.893836      36.893836      36.893836    
    839000   0.26006347    -8.1934802     -7.8033906      0.52021568     50218.233      36.893836      36.893836      36.893836    
    840000   0.25998143    -8.1948774     -7.8049109      0.50956774     50218.233      36.893836      36.893836      36.893836    
    841000   0.25891101    -8.1943188     -7.8059579      0.50779607     50218.233      36.893836      36.893836      36.893836    
    842000   0.26027919    -8.1953138     -7.8049006      0.50189572     50218.233      36.893836      36.893836      36.893836    
    843000   0.25824915    -8.1964842     -7.809116       0.49420443     50218.233      36.893836      36.893836      36.893836    
    844000   0.25869206    -8.1943732     -7.8063406      0.50422958     50218.233      36.893836      36.893836      36.893836    
    845000   0.26042066    -8.1934332     -7.8028078      0.52608433     50218.233      36.893836      36.893836      36.893836    
    846000   0.26078354    -8.1956528     -7.8044831      0.5039058      50218.233      36.893836      36.893836      36.893836    
    847000   0.26060288    -8.1935786     -7.8026798      0.51704733     50218.233      36.893836      36.893836      36.893836    
    848000   0.26066117    -8.1963708     -7.8053846      0.4852742      50218.233      36.893836      36.893836      36.893836    
    849000   0.25844208    -8.1942292     -7.8065716      0.5110456      50218.233      36.893836      36.893836      36.893836    
    850000   0.25968265    -8.1942268     -7.8047084      0.51162399     50218.233      36.893836      36.893836      36.893836    
    851000   0.26027707    -8.1947921     -7.804382       0.49917301     50218.233      36.893836      36.893836      36.893836    
    852000   0.25999783    -8.19421       -7.8042188      0.50827635     50218.233      36.893836      36.893836      36.893836    
    853000   0.25819875    -8.1947263     -7.8074336      0.50775157     50218.233      36.893836      36.893836      36.893836    
    854000   0.26038115    -8.1960996     -7.8055334      0.49812197     50218.233      36.893836      36.893836      36.893836    
    855000   0.25906048    -8.1937189     -7.8051337      0.5196462      50218.233      36.893836      36.893836      36.893836    
    856000   0.26041456    -8.1951131     -7.8044969      0.50698127     50218.233      36.893836      36.893836      36.893836    
    857000   0.2596297     -8.1946843     -7.8052453      0.51058837     50218.233      36.893836      36.893836      36.893836    
    858000   0.25947257    -8.1952391     -7.8060358      0.51160839     50218.233      36.893836      36.893836      36.893836    
    859000   0.25949219    -8.1945035     -7.8052708      0.51399271     50218.233      36.893836      36.893836      36.893836    
    860000   0.26077798    -8.1932596     -7.8020982      0.5176047      50218.233      36.893836      36.893836      36.893836    
    861000   0.26027986    -8.1933047     -7.8028905      0.52308285     50218.233      36.893836      36.893836      36.893836    
    862000   0.25923398    -8.1950315     -7.8061861      0.50185711     50218.233      36.893836      36.893836      36.893836    
    863000   0.26039065    -8.1939559     -7.8033755      0.51657554     50218.233      36.893836      36.893836      36.893836    
    864000   0.26064372    -8.1922466     -7.8012866      0.53216857     50218.233      36.893836      36.893836      36.893836    
    865000   0.25985767    -8.1917113     -7.8019303      0.53250949     50218.233      36.893836      36.893836      36.893836    
    866000   0.25855241    -8.1944377     -7.8066146      0.51552133     50218.233      36.893836      36.893836      36.893836    
    867000   0.25931102    -8.1949785     -7.8060175      0.50182597     50218.233      36.893836      36.893836      36.893836    
    868000   0.25897465    -8.1920216     -7.8035652      0.52523124     50218.233      36.893836      36.893836      36.893836    
    869000   0.2594481     -8.1940204     -7.8048538      0.51150821     50218.233      36.893836      36.893836      36.893836    
    870000   0.26073829    -8.1948837     -7.8037818      0.50297127     50218.233      36.893836      36.893836      36.893836    
    871000   0.26109617    -8.1916228     -7.7999841      0.53557011     50218.233      36.893836      36.893836      36.893836    
    872000   0.25998191    -8.1936366     -7.8036693      0.51879288     50218.233      36.893836      36.893836      36.893836    
    873000   0.2589918     -8.1942298     -7.8057476      0.50970441     50218.233      36.893836      36.893836      36.893836    
    874000   0.2597104     -8.1935518     -7.8039917      0.51990373     50218.233      36.893836      36.893836      36.893836    
    875000   0.25944961    -8.1921787     -7.8030098      0.52720038     50218.233      36.893836      36.893836      36.893836    
    876000   0.26139377    -8.1918904     -7.7998053      0.5290453      50218.233      36.893836      36.893836      36.893836    
    877000   0.26036452    -8.1929303     -7.8023891      0.51876009     50218.233      36.893836      36.893836      36.893836    
    878000   0.25908638    -8.1909357     -7.8023116      0.53763192     50218.233      36.893836      36.893836      36.893836    
    879000   0.25913179    -8.1947181     -7.8060259      0.50920732     50218.233      36.893836      36.893836      36.893836    
    880000   0.2604498     -8.193213      -7.8025438      0.52727495     50218.233      36.893836      36.893836      36.893836    
    881000   0.25952485    -8.1937134     -7.8044317      0.51490632     50218.233      36.893836      36.893836      36.893836    
    882000   0.25970531    -8.1951718     -7.8056194      0.5083886      50218.233      36.893836      36.893836      36.893836    
    883000   0.25921122    -8.194722      -7.8059107      0.50007298     50218.233      36.893836      36.893836      36.893836    
    884000   0.2592617     -8.1934365     -7.8045495      0.51097947     50218.233      36.893836      36.893836      36.893836    
    885000   0.26086773    -8.1944512     -7.8031551      0.51777613     50218.233      36.893836      36.893836      36.893836    
    886000   0.26214604    -8.1920527     -7.7988392      0.52978527     50218.233      36.893836      36.893836      36.893836    
    887000   0.25998146    -8.194995      -7.8050284      0.50359014     50218.233      36.893836      36.893836      36.893836    
    888000   0.26013331    -8.1956106     -7.8054162      0.50564431     50218.233      36.893836      36.893836      36.893836    
    889000   0.26155084    -8.1940196     -7.8016989      0.51396595     50218.233      36.893836      36.893836      36.893836    
    890000   0.25901476    -8.1936207     -7.8051041      0.51692826     50218.233      36.893836      36.893836      36.893836    
    891000   0.25940962    -8.1941448     -7.805036       0.51163896     50218.233      36.893836      36.893836      36.893836    
    892000   0.26041613    -8.1943225     -7.8037039      0.51052564     50218.233      36.893836      36.893836      36.893836    
    893000   0.26035211    -8.192585      -7.8020624      0.52224557     50218.233      36.893836      36.893836      36.893836    
    894000   0.25958514    -8.1940573     -7.8046852      0.50801643     50218.233      36.893836      36.893836      36.893836    
    895000   0.25863153    -8.1960082     -7.8080664      0.4843471      50218.233      36.893836      36.893836      36.893836    
    896000   0.26015149    -8.1941542     -7.8039325      0.51338193     50218.233      36.893836      36.893836      36.893836    
    897000   0.26024936    -8.1924596     -7.8020911      0.52393844     50218.233      36.893836      36.893836      36.893836    
    898000   0.26043219    -8.1952556     -7.8046129      0.50161039     50218.233      36.893836      36.893836      36.893836    
    899000   0.26034273    -8.1934407     -7.8029322      0.51918919     50218.233      36.893836      36.893836      36.893836    
    900000   0.25966558    -8.1933035     -7.8038106      0.52045079     50218.233      36.893836      36.893836      36.893836    
    901000   0.26064217    -8.1972528     -7.8062952      0.49781        50218.233      36.893836      36.893836      36.893836    
    902000   0.2591235     -8.1957174     -7.8070376      0.49806961     50218.233      36.893836      36.893836      36.893836    
    903000   0.26001559    -8.1944238     -7.8044059      0.50059989     50218.233      36.893836      36.893836      36.893836    
    904000   0.25992343    -8.1958003     -7.8059207      0.50192672     50218.233      36.893836      36.893836      36.893836    
    905000   0.25986548    -8.1936111     -7.8038185      0.51427329     50218.233      36.893836      36.893836      36.893836    
    906000   0.26104072    -8.1944103     -7.8028548      0.51868476     50218.233      36.893836      36.893836      36.893836    
    907000   0.26018608    -8.1968396     -7.8065661      0.48700488     50218.233      36.893836      36.893836      36.893836    
    908000   0.25995062    -8.1931244     -7.803204       0.51831766     50218.233      36.893836      36.893836      36.893836    
    909000   0.25876057    -8.1933304     -7.8051951      0.51259037     50218.233      36.893836      36.893836      36.893836    
    910000   0.260578      -8.1946903     -7.8038289      0.50112555     50218.233      36.893836      36.893836      36.893836    
    911000   0.26201181    -8.1929482     -7.7999361      0.52810518     50218.233      36.893836      36.893836      36.893836    
    912000   0.26135051    -8.1910467     -7.7990265      0.54099639     50218.233      36.893836      36.893836      36.893836    
    913000   0.26043988    -8.1929379     -7.8022836      0.51950966     50218.233      36.893836      36.893836      36.893836    
    914000   0.25951997    -8.1931735     -7.8038991      0.52216747     50218.233      36.893836      36.893836      36.893836    
    915000   0.26005603    -8.1934391     -7.8033606      0.51962972     50218.233      36.893836      36.893836      36.893836    
    916000   0.26033245    -8.1961618     -7.8056687      0.49918384     50218.233      36.893836      36.893836      36.893836    
    917000   0.26015241    -8.1934181     -7.803195       0.5222856      50218.233      36.893836      36.893836      36.893836    
    918000   0.26019944    -8.1936599     -7.8033663      0.5145031      50218.233      36.893836      36.893836      36.893836    
    919000   0.26037608    -8.194929      -7.8043705      0.50615608     50218.233      36.893836      36.893836      36.893836    
    920000   0.26013648    -8.192133      -7.8019338      0.52778886     50218.233      36.893836      36.893836      36.893836    
    921000   0.25845666    -8.1919542     -7.8042747      0.52600602     50218.233      36.893836      36.893836      36.893836    
    922000   0.25898459    -8.1951661     -7.8066948      0.50055969     50218.233      36.893836      36.893836      36.893836    
    923000   0.2608569     -8.1921129     -7.8008331      0.5318901      50218.233      36.893836      36.893836      36.893836    
    924000   0.25896318    -8.1944142     -7.805975       0.50410032     50218.233      36.893836      36.893836      36.893836    
    925000   0.2608058     -8.1922591     -7.801056       0.52267558     50218.233      36.893836      36.893836      36.893836    
    926000   0.25900423    -8.1932127     -7.8047119      0.51926728     50218.233      36.893836      36.893836      36.893836    
    927000   0.26038445    -8.1957418     -7.8051706      0.50105288     50218.233      36.893836      36.893836      36.893836    
    928000   0.2596055     -8.1938549     -7.8044522      0.51029484     50218.233      36.893836      36.893836      36.893836    
    929000   0.26105655    -8.1952348     -7.8036556      0.50988328     50218.233      36.893836      36.893836      36.893836    
    930000   0.25949446    -8.1941697     -7.8049336      0.51430015     50218.233      36.893836      36.893836      36.893836    
    931000   0.26032133    -8.1930421     -7.8025657      0.52228229     50218.233      36.893836      36.893836      36.893836    
    932000   0.26013401    -8.1938411     -7.8036456      0.51971689     50218.233      36.893836      36.893836      36.893836    
    933000   0.25906852    -8.1940962     -7.805499       0.51059999     50218.233      36.893836      36.893836      36.893836    
    934000   0.25931727    -8.1920999     -7.8031295      0.53465322     50218.233      36.893836      36.893836      36.893836    
    935000   0.25976381    -8.1948841     -7.8052439      0.51001692     50218.233      36.893836      36.893836      36.893836    
    936000   0.25953567    -8.1940651     -7.8047671      0.51404355     50218.233      36.893836      36.893836      36.893836    
    937000   0.26125111    -8.1929912     -7.8011201      0.52635053     50218.233      36.893836      36.893836      36.893836    
    938000   0.26070896    -8.193257      -7.8021991      0.51333823     50218.233      36.893836      36.893836      36.893836    
    939000   0.25896436    -8.1939718     -7.8055307      0.5146851      50218.233      36.893836      36.893836      36.893836    
    940000   0.26006066    -8.1935332     -7.8034478      0.51926971     50218.233      36.893836      36.893836      36.893836    
    941000   0.26045252    -8.1930324     -7.8023592      0.51815609     50218.233      36.893836      36.893836      36.893836    
    942000   0.26008545    -8.1935491     -7.8034265      0.51925332     50218.233      36.893836      36.893836      36.893836    
    943000   0.2590698     -8.1939005     -7.8053014      0.51914018     50218.233      36.893836      36.893836      36.893836    
    944000   0.25830541    -8.1947232     -7.8072707      0.50851848     50218.233      36.893836      36.893836      36.893836    
    945000   0.25880876    -8.1945616     -7.806354       0.51299916     50218.233      36.893836      36.893836      36.893836    
    946000   0.26015777    -8.19382       -7.8035889      0.51716545     50218.233      36.893836      36.893836      36.893836    
    947000   0.26013881    -8.1966761     -7.8064734      0.48409015     50218.233      36.893836      36.893836      36.893836    
    948000   0.25867943    -8.1958083     -7.8077947      0.48925648     50218.233      36.893836      36.893836      36.893836    
    949000   0.26005462    -8.1952534     -7.805177       0.50916347     50218.233      36.893836      36.893836      36.893836    
    950000   0.26089993    -8.1945641     -7.8032198      0.50557188     50218.233      36.893836      36.893836      36.893836    
    951000   0.26036313    -8.1938897     -7.8033506      0.50894014     50218.233      36.893836      36.893836      36.893836    
    952000   0.2586327     -8.1938659     -7.8059224      0.5207824      50218.233      36.893836      36.893836      36.893836    
    953000   0.26092129    -8.1926472     -7.8012708      0.53138683     50218.233      36.893836      36.893836      36.893836    
    954000   0.25999985    -8.1968472     -7.806853       0.49439166     50218.233      36.893836      36.893836      36.893836    
    955000   0.26156082    -8.1940751     -7.8017395      0.51879305     50218.233      36.893836      36.893836      36.893836    
    956000   0.25988223    -8.1943655     -7.8045477      0.51318907     50218.233      36.893836      36.893836      36.893836    
    957000   0.2603115     -8.1925646     -7.8021029      0.52866242     50218.233      36.893836      36.893836      36.893836    
    958000   0.26036679    -8.1941901     -7.8036455      0.50734326     50218.233      36.893836      36.893836      36.893836    
    959000   0.26146577    -8.1951683     -7.8029752      0.50650032     50218.233      36.893836      36.893836      36.893836    
    960000   0.26124004    -8.1941931     -7.8023386      0.51903787     50218.233      36.893836      36.893836      36.893836    
    961000   0.25964443    -8.1939791     -7.804518       0.52014649     50218.233      36.893836      36.893836      36.893836    
    962000   0.26161278    -8.194248      -7.8018345      0.51340441     50218.233      36.893836      36.893836      36.893836    
    963000   0.26015227    -8.1961218     -7.805899       0.49455829     50218.233      36.893836      36.893836      36.893836    
    964000   0.26013071    -8.1935489     -7.8033584      0.52801126     50218.233      36.893836      36.893836      36.893836    
    965000   0.26191095    -8.1945748     -7.8017139      0.50932534     50218.233      36.893836      36.893836      36.893836    
    966000   0.26087293    -8.1925522     -7.8012484      0.52353282     50218.233      36.893836      36.893836      36.893836    
    967000   0.26192895    -8.1946134     -7.8017255      0.50346055     50218.233      36.893836      36.893836      36.893836    
    968000   0.25926937    -8.1932013     -7.8043027      0.51922274     50218.233      36.893836      36.893836      36.893836    
    969000   0.25944087    -8.1940344     -7.8048786      0.51606959     50218.233      36.893836      36.893836      36.893836    
    970000   0.26029551    -8.1931544     -7.8027167      0.51731786     50218.233      36.893836      36.893836      36.893836    
    971000   0.25995581    -8.1937772     -7.803849       0.5170399      50218.233      36.893836      36.893836      36.893836    
    972000   0.25962266    -8.1935257     -7.8040972      0.51767126     50218.233      36.893836      36.893836      36.893836    
    973000   0.26088521    -8.1931773     -7.801855       0.52435584     50218.233      36.893836      36.893836      36.893836    
    974000   0.26091965    -8.1929413     -7.8015674      0.52853303     50218.233      36.893836      36.893836      36.893836    
    975000   0.2597566     -8.1908873     -7.801258       0.54279477     50218.233      36.893836      36.893836      36.893836    
    976000   0.26081063    -8.1942521     -7.8030417      0.51444066     50218.233      36.893836      36.893836      36.893836    
    977000   0.25992697    -8.1943475     -7.8044626      0.50897394     50218.233      36.893836      36.893836      36.893836    
    978000   0.25956918    -8.1936188     -7.8042705      0.51894014     50218.233      36.893836      36.893836      36.893836    
    979000   0.26120497    -8.1929093     -7.8011074      0.52020969     50218.233      36.893836      36.893836      36.893836    
    980000   0.2600868     -8.1927558     -7.8026311      0.51717136     50218.233      36.893836      36.893836      36.893836    
    981000   0.26120839    -8.191829      -7.800022       0.53006013     50218.233      36.893836      36.893836      36.893836    
    982000   0.26016689    -8.1934161     -7.8031713      0.51925614     50218.233      36.893836      36.893836      36.893836    
    983000   0.26012158    -8.1941051     -7.8039283      0.51452448     50218.233      36.893836      36.893836      36.893836    
    984000   0.26147835    -8.1921034     -7.7998914      0.5246401      50218.233      36.893836      36.893836      36.893836    
    985000   0.26096822    -8.192727      -7.8012802      0.52654839     50218.233      36.893836      36.893836      36.893836    
    986000   0.26022529    -8.193835      -7.8035026      0.50999593     50218.233      36.893836      36.893836      36.893836    
    987000   0.26070345    -8.1954346     -7.804385       0.49829747     50218.233      36.893836      36.893836      36.893836    
    988000   0.25979841    -8.1954211     -7.805729       0.50371573     50218.233      36.893836      36.893836      36.893836    
    989000   0.25920253    -8.194567      -7.8057687      0.50605881     50218.233      36.893836      36.893836      36.893836    
    990000   0.25894325    -8.193904      -7.8054947      0.50724556     50218.233      36.893836      36.893836      36.893836    
    991000   0.25816501    -8.1915837     -7.8043417      0.52555642     50218.233      36.893836      36.893836      36.893836    
    992000   0.2600838     -8.1946602     -7.80454        0.5189736      50218.233      36.893836      36.893836      36.893836    
    993000   0.25973147    -8.1948054     -7.8052138      0.50809932     50218.233      36.893836      36.893836      36.893836    
    994000   0.25860928    -8.1939316     -7.8060232      0.52050844     50218.233      36.893836      36.893836      36.893836    
    995000   0.26084148    -8.1961801     -7.8049235      0.50551318     50218.233      36.893836      36.893836      36.893836    
    996000   0.25992142    -8.1955248     -7.8056482      0.50654        50218.233      36.893836      36.893836      36.893836    
    997000   0.25830051    -8.1960887     -7.8086435      0.49204738     50218.233      36.893836      36.893836      36.893836    
    998000   0.26131583    -8.19428       -7.8023118      0.52227094     50218.233      36.893836      36.893836      36.893836    
    999000   0.25938992    -8.1947579     -7.8056786      0.50811297     50218.233      36.893836      36.893836      36.893836    
   1000000   0.2589681     -8.1947263     -7.8062796      0.50603303     50218.233      36.893836      36.893836      36.893836    
Loop time of 1535.88 on 4 procs for 1000000 steps with 70304 atoms

Performance: 562544.019 tau/day, 651.093 timesteps/s, 45.774 Matom-step/s
95.3% CPU use with 4 MPI tasks x 1 OpenMP threads

MPI task timing breakdown:
Section |  min time  |  avg time  |  max time  |%varavg| %total
---------------------------------------------------------------
Pair    | 452.49     | 537.47     | 593.47     | 229.1 | 34.99
Neigh   | 4.8676     | 4.9948     | 5.2986     |   7.9 |  0.33
Comm    | 211.67     | 214.05     | 215.98     |  10.9 | 13.94
Output  | 0.19969    | 0.20641    | 0.21838    |   1.6 |  0.01
Modify  | 641.93     | 696.93     | 782.12     | 201.5 | 45.38
Other   |            | 82.23      |            |       |  5.35

Nlocal:          17576 ave       17633 max       17525 min
Histogram: 1 0 0 1 0 1 0 0 0 1
Nghost:        16800.5 ave       16809 max       16780 min
Histogram: 1 0 0 0 0 0 0 0 1 2
Neighs:              0 ave           0 max           0 min
Histogram: 4 0 0 0 0 0 0 0 0 0

Total # of neighbors = 0
Ave neighs/atom = 0
Neighbor list builds = 150465
Dangerous builds = 0
clear
OMP_NUM_THREADS environment is not set. Defaulting to 1 thread. (src/comm.cpp:98)
  using 1 OpenMP thread(s) per MPI task
package gpu 0
jump dms240.lmp

variable T equal 240
# T = 1000* (temp in LJ unit)
variable f equal 1000
log log.${T}
log log.240
