variable TLJ equal (${T}/1000)
variable TLJ equal (560/1000)
variable NCyle equal 10
variable iStep equal (${f})
variable iStep equal (1000)
variable dumpStep equal (${f}*100)
variable dumpStep equal (1000*100)
variable runStep equal (${f}*100*${NCyle})
variable runStep equal (1000*100*${NCyle})
variable runStep equal (1000*100*10)

units       lj
atom_style  atomic
dimension 3
boundary     p p p
pair_style  lj/cut 2.5
read_data  ../data/T${T}.dat
read_data  ../data/T560.dat
Reading data file ...
  orthogonal box = (0.97250269 0.97250269 0.97250269) to (37.866338 37.866338 37.866338)
  1 by 2 by 2 MPI processor grid
  reading atoms ...
  70304 atoms
  reading velocities ...
  70304 velocities
  read_data CPU = 0.191 seconds
change_box all triclinic
Changing box ...
  triclinic box = (0.97250269 0.97250269 0.97250269) to (37.866338 37.866338 37.866338) with tilt (0 0 0)
mass 1 1
mass 2 1
pair_modify shift yes
pair_coeff  1 1 1 1
pair_coeff  1 2 1.5 0.8
pair_coeff  2 2 0.5 0.88


timestep 0.01
thermo ${iStep}
thermo 1000
reset_timestep 0
thermo_style custom step temp pe etotal press vol lx ly lz
fix             1 all nvt temp ${TLJ}  ${TLJ}  0.1
fix             1 all nvt temp 0.56  ${TLJ}  0.1
fix             1 all nvt temp 0.56  0.56  0.1
thermo_modify flush yes

fix dsf all deform 1 xy  wiggle 0.5  ${f}   units box
fix dsf all deform 1 xy  wiggle 0.5  1000   units box
fix ps1 all ave/time 1 1 ${iStep} c_thermo_press[1] c_thermo_press[2]  c_thermo_press[3] c_thermo_press[4]  c_thermo_press[5] c_thermo_press[6]  file  stress.${T}
fix ps1 all ave/time 1 1 1000 c_thermo_press[1] c_thermo_press[2]  c_thermo_press[3] c_thermo_press[4]  c_thermo_press[5] c_thermo_press[6]  file  stress.${T}
fix ps1 all ave/time 1 1 1000 c_thermo_press[1] c_thermo_press[2]  c_thermo_press[3] c_thermo_press[4]  c_thermo_press[5] c_thermo_press[6]  file  stress.560
dump            1 all custom ${dumpStep} dump.${T} id type x y z
dump            1 all custom 100000 dump.${T} id type x y z
dump            1 all custom 100000 dump.560 id type x y z
dump_modify 1 sort id
fix nodrift all momentum 1  linear 1 1 1
fix com_seed all recenter INIT INIT INIT shift all
run ${runStep}
run 1000000
Generated 0 of 1 mixed pair_coeff terms from geometric mixing rule
Per MPI rank memory allocation (min/avg/max) = 8.612 | 8.613 | 8.614 Mbytes
   Step          Temp          PotEng         TotEng         Press          Volume           Lx             Ly             Lz      
         0   0.55997773    -7.7000466     -6.8600919      4.5856909      50218.233      36.893836      36.893836      36.893836    
      1000   0.56090157    -7.6877208     -6.8463804      4.6770163      50218.233      36.893836      36.893836      36.893836    
      2000   0.56076738    -7.6863272     -6.8451881      4.6865912      50218.233      36.893836      36.893836      36.893836    
      3000   0.56350467    -7.682161      -6.836916       4.71814        50218.233      36.893836      36.893836      36.893836    
      4000   0.55952964    -7.6905225     -6.85124        4.6521801      50218.233      36.893836      36.893836      36.893836    
      5000   0.56133746    -7.6891647     -6.8471705      4.6584637      50218.233      36.893836      36.893836      36.893836    
      6000   0.56089338    -7.6855138     -6.8441857      4.6967277      50218.233      36.893836      36.893836      36.893836    
      7000   0.55946463    -7.6796674     -6.8404824      4.7335846      50218.233      36.893836      36.893836      36.893836    
      8000   0.56005823    -7.686493      -6.8464176      4.6898354      50218.233      36.893836      36.893836      36.893836    
      9000   0.56284003    -7.6896271     -6.8453791      4.6697793      50218.233      36.893836      36.893836      36.893836    
     10000   0.55805647    -7.6865726     -6.8494998      4.6883064      50218.233      36.893836      36.893836      36.893836    
     11000   0.5600358     -7.6887439     -6.8487022      4.6636037      50218.233      36.893836      36.893836      36.893836    
     12000   0.5577126     -7.6872047     -6.8506477      4.6840405      50218.233      36.893836      36.893836      36.893836    
     13000   0.56036198    -7.6839209     -6.8433899      4.6904875      50218.233      36.893836      36.893836      36.893836    
     14000   0.56112126    -7.6848263     -6.8431564      4.7064524      50218.233      36.893836      36.893836      36.893836    
     15000   0.56248659    -7.6879794     -6.8442615      4.6746587      50218.233      36.893836      36.893836      36.893836    
     16000   0.56290144    -7.6891505     -6.8448104      4.6587371      50218.233      36.893836      36.893836      36.893836    
     17000   0.55984602    -7.6844562     -6.8446992      4.6957402      50218.233      36.893836      36.893836      36.893836    
     18000   0.55754659    -7.6810045     -6.8446965      4.7223845      50218.233      36.893836      36.893836      36.893836    
     19000   0.56018943    -7.6907477     -6.8504755      4.6517812      50218.233      36.893836      36.893836      36.893836    
     20000   0.5596777     -7.6849421     -6.8454375      4.697009       50218.233      36.893836      36.893836      36.893836    
     21000   0.56105693    -7.6867441     -6.8451707      4.6850539      50218.233      36.893836      36.893836      36.893836    
     22000   0.56037845    -7.6851725     -6.8446168      4.694646       50218.233      36.893836      36.893836      36.893836    
     23000   0.56036986    -7.6790132     -6.8384703      4.7347111      50218.233      36.893836      36.893836      36.893836    
     24000   0.5580668     -7.6849296     -6.8478413      4.6948042      50218.233      36.893836      36.893836      36.893836    
     25000   0.55894009    -7.6830533     -6.8446551      4.7132668      50218.233      36.893836      36.893836      36.893836    
     26000   0.56218459    -7.684991      -6.8417261      4.6969425      50218.233      36.893836      36.893836      36.893836    
     27000   0.561183      -7.6858931     -6.8441305      4.6990368      50218.233      36.893836      36.893836      36.893836    
     28000   0.55665501    -7.6906965     -6.8557259      4.6455545      50218.233      36.893836      36.893836      36.893836    
     29000   0.55892969    -7.6840618     -6.8456792      4.7048327      50218.233      36.893836      36.893836      36.893836    
     30000   0.56160081    -7.6930746     -6.8506854      4.6327355      50218.233      36.893836      36.893836      36.893836    
     31000   0.5605946     -7.6862889     -6.8454089      4.6952882      50218.233      36.893836      36.893836      36.893836    
     32000   0.55901728    -7.6882297     -6.8497157      4.6701682      50218.233      36.893836      36.893836      36.893836    
     33000   0.56246208    -7.6875265     -6.8438454      4.6841457      50218.233      36.893836      36.893836      36.893836    
     34000   0.56143697    -7.6816326     -6.8394891      4.7252452      50218.233      36.893836      36.893836      36.893836    
     35000   0.55794956    -7.6852282     -6.8483158      4.6760965      50218.233      36.893836      36.893836      36.893836    
     36000   0.56056547    -7.6844166     -6.8435803      4.7043398      50218.233      36.893836      36.893836      36.893836    
     37000   0.55893798    -7.6870915     -6.8486965      4.6740076      50218.233      36.893836      36.893836      36.893836    
     38000   0.55997079    -7.6884823     -6.8485381      4.6764113      50218.233      36.893836      36.893836      36.893836    
     39000   0.56059002    -7.6879947     -6.8471216      4.6725685      50218.233      36.893836      36.893836      36.893836    
     40000   0.56134512    -7.6884663     -6.8464606      4.6635113      50218.233      36.893836      36.893836      36.893836    
     41000   0.55873249    -7.6906968     -6.85261        4.6413259      50218.233      36.893836      36.893836      36.893836    
     42000   0.55811375    -7.6863898     -6.8492311      4.6748485      50218.233      36.893836      36.893836      36.893836    
     43000   0.55965153    -7.6835927     -6.8441274      4.7034365      50218.233      36.893836      36.893836      36.893836    
     44000   0.55867749    -7.6874839     -6.8494796      4.6735685      50218.233      36.893836      36.893836      36.893836    
     45000   0.56251981    -7.6823125     -6.8385448      4.7141831      50218.233      36.893836      36.893836      36.893836    
     46000   0.56003162    -7.688717      -6.8486816      4.662886       50218.233      36.893836      36.893836      36.893836    
     47000   0.55891629    -7.6835645     -6.845202       4.7128687      50218.233      36.893836      36.893836      36.893836    
     48000   0.55973772    -7.6850727     -6.845478       4.695219       50218.233      36.893836      36.893836      36.893836    
     49000   0.5579208     -7.6878073     -6.850938       4.6805505      50218.233      36.893836      36.893836      36.893836    
     50000   0.56029455    -7.6876499     -6.8472201      4.6816818      50218.233      36.893836      36.893836      36.893836    
     51000   0.56243524    -7.6858341     -6.8421932      4.6886218      50218.233      36.893836      36.893836      36.893836    
     52000   0.55871325    -7.6837634     -6.8457054      4.6821771      50218.233      36.893836      36.893836      36.893836    
     53000   0.56292548    -7.6870276     -6.8426514      4.6893308      50218.233      36.893836      36.893836      36.893836    
     54000   0.55921731    -7.6812558     -6.8424418      4.7230545      50218.233      36.893836      36.893836      36.893836    
     55000   0.56076174    -7.6886745     -6.8475439      4.6684598      50218.233      36.893836      36.893836      36.893836    
     56000   0.56138238    -7.6880396     -6.8459781      4.6699357      50218.233      36.893836      36.893836      36.893836    
     57000   0.55739329    -7.6837415     -6.8476635      4.7066106      50218.233      36.893836      36.893836      36.893836    
     58000   0.56100797    -7.6838745     -6.8423745      4.7153953      50218.233      36.893836      36.893836      36.893836    
     59000   0.56030687    -7.6827865     -6.8423382      4.7107255      50218.233      36.893836      36.893836      36.893836    
     60000   0.55853431    -7.6873195     -6.84953        4.6836031      50218.233      36.893836      36.893836      36.893836    
     61000   0.55938044    -7.6855758     -6.8465171      4.6881979      50218.233      36.893836      36.893836      36.893836    
     62000   0.56059342    -7.6884085     -6.8475304      4.670109       50218.233      36.893836      36.893836      36.893836    
     63000   0.56436721    -7.6874709     -6.8409321      4.676836       50218.233      36.893836      36.893836      36.893836    
     64000   0.55915286    -7.6833366     -6.8446193      4.7084336      50218.233      36.893836      36.893836      36.893836    
     65000   0.55736595    -7.6855737     -6.8495367      4.6889548      50218.233      36.893836      36.893836      36.893836    
     66000   0.56183195    -7.6849972     -6.8422612      4.7035456      50218.233      36.893836      36.893836      36.893836    
     67000   0.56155596    -7.6873284     -6.8450065      4.67581        50218.233      36.893836      36.893836      36.893836    
     68000   0.56087501    -7.6833997     -6.8420991      4.720387       50218.233      36.893836      36.893836      36.893836    
     69000   0.5601755     -7.6831554     -6.8429041      4.717558       50218.233      36.893836      36.893836      36.893836    
     70000   0.55855624    -7.6865367     -6.8487143      4.6817958      50218.233      36.893836      36.893836      36.893836    
     71000   0.55959295    -7.6883496     -6.8489721      4.679136       50218.233      36.893836      36.893836      36.893836    
     72000   0.56284548    -7.6845781     -6.8403219      4.7061516      50218.233      36.893836      36.893836      36.893836    
     73000   0.56139731    -7.6849625     -6.8428785      4.6946527      50218.233      36.893836      36.893836      36.893836    
     74000   0.5594021     -7.6839746     -6.8448833      4.6968239      50218.233      36.893836      36.893836      36.893836    
     75000   0.56107225    -7.6852167     -6.8436203      4.7001693      50218.233      36.893836      36.893836      36.893836    
     76000   0.55899262    -7.6813668     -6.8428898      4.7178909      50218.233      36.893836      36.893836      36.893836    
     77000   0.56181178    -7.6889945     -6.8462888      4.6735148      50218.233      36.893836      36.893836      36.893836    
     78000   0.56059228    -7.6833953     -6.8425188      4.7196036      50218.233      36.893836      36.893836      36.893836    
     79000   0.56289265    -7.6842276     -6.8399006      4.7179041      50218.233      36.893836      36.893836      36.893836    
     80000   0.55718985    -7.682283      -6.8465102      4.7107446      50218.233      36.893836      36.893836      36.893836    
     81000   0.55934879    -7.6838609     -6.8448497      4.7055872      50218.233      36.893836      36.893836      36.893836    
     82000   0.56085547    -7.6881795     -6.8469083      4.6759023      50218.233      36.893836      36.893836      36.893836    
     83000   0.56075233    -7.6838769     -6.8427603      4.7060421      50218.233      36.893836      36.893836      36.893836    
     84000   0.5635404     -7.6823215     -6.837023       4.7298731      50218.233      36.893836      36.893836      36.893836    
     85000   0.55985872    -7.6842794     -6.8445033      4.713205       50218.233      36.893836      36.893836      36.893836    
     86000   0.55943668    -7.685369      -6.8462259      4.7050329      50218.233      36.893836      36.893836      36.893836    
     87000   0.5605533     -7.6836181     -6.8428001      4.7116863      50218.233      36.893836      36.893836      36.893836    
     88000   0.5586528     -7.6875197     -6.8495524      4.6868843      50218.233      36.893836      36.893836      36.893836    
     89000   0.5602268     -7.6826759     -6.8423476      4.720459       50218.233      36.893836      36.893836      36.893836    
     90000   0.55752134    -7.6849281     -6.848658       4.6945903      50218.233      36.893836      36.893836      36.893836    
     91000   0.55995172    -7.6805954     -6.8406797      4.7430734      50218.233      36.893836      36.893836      36.893836    
     92000   0.56049251    -7.6856777     -6.8449509      4.6885597      50218.233      36.893836      36.893836      36.893836    
     93000   0.56014009    -7.6837862     -6.843588       4.7023407      50218.233      36.893836      36.893836      36.893836    
     94000   0.55658453    -7.688339      -6.8534741      4.6714486      50218.233      36.893836      36.893836      36.893836    
     95000   0.55953777    -7.6868353     -6.8475406      4.6906437      50218.233      36.893836      36.893836      36.893836    
     96000   0.56035916    -7.6836406     -6.8431138      4.702276       50218.233      36.893836      36.893836      36.893836    
     97000   0.55759169    -7.6867655     -6.8503898      4.6856722      50218.233      36.893836      36.893836      36.893836    
     98000   0.55708058    -7.6876183     -6.8520093      4.6867447      50218.233      36.893836      36.893836      36.893836    
     99000   0.56061098    -7.6841015     -6.843197       4.701033       50218.233      36.893836      36.893836      36.893836    
    100000   0.55928584    -7.6897693     -6.8508525      4.6590401      50218.233      36.893836      36.893836      36.893836    
    101000   0.55916214    -7.680455      -6.8417238      4.738526       50218.233      36.893836      36.893836      36.893836    
    102000   0.56253294    -7.6841198     -6.8403324      4.7086617      50218.233      36.893836      36.893836      36.893836    
    103000   0.56122332    -7.6784792     -6.8366562      4.7529518      50218.233      36.893836      36.893836      36.893836    
    104000   0.55740706    -7.683814      -6.8477153      4.7048858      50218.233      36.893836      36.893836      36.893836    
    105000   0.56092804    -7.6870061     -6.845626       4.6888673      50218.233      36.893836      36.893836      36.893836    
    106000   0.55822673    -7.6866969     -6.8493687      4.6883568      50218.233      36.893836      36.893836      36.893836    
    107000   0.55903906    -7.6853081     -6.8467615      4.6900354      50218.233      36.893836      36.893836      36.893836    
    108000   0.55858034    -7.6853272     -6.8474686      4.6895834      50218.233      36.893836      36.893836      36.893836    
    109000   0.5637036     -7.6827889     -6.8372455      4.7187206      50218.233      36.893836      36.893836      36.893836    
    110000   0.56268702    -7.6828289     -6.8388104      4.7255627      50218.233      36.893836      36.893836      36.893836    
    111000   0.55912529    -7.6858596     -6.8471836      4.6870759      50218.233      36.893836      36.893836      36.893836    
    112000   0.5622746     -7.6840438     -6.8406439      4.7069332      50218.233      36.893836      36.893836      36.893836    
    113000   0.55880011    -7.6856732     -6.847485       4.6907224      50218.233      36.893836      36.893836      36.893836    
    114000   0.55756498    -7.6845281     -6.8481926      4.7097607      50218.233      36.893836      36.893836      36.893836    
    115000   0.56242071    -7.6796962     -6.8360771      4.7486471      50218.233      36.893836      36.893836      36.893836    
    116000   0.560764      -7.6852005     -6.8440664      4.710941       50218.233      36.893836      36.893836      36.893836    
    117000   0.5609877     -7.6833209     -6.8418514      4.7211928      50218.233      36.893836      36.893836      36.893836    
    118000   0.55958607    -7.6860014     -6.8466342      4.6968981      50218.233      36.893836      36.893836      36.893836    
    119000   0.56193544    -7.6856795     -6.8427884      4.7017711      50218.233      36.893836      36.893836      36.893836    
    120000   0.55652639    -7.6840852     -6.8493075      4.7049152      50218.233      36.893836      36.893836      36.893836    
    121000   0.55766118    -7.6861155     -6.8496356      4.6909291      50218.233      36.893836      36.893836      36.893836    
    122000   0.56010474    -7.6889055     -6.8487604      4.669825       50218.233      36.893836      36.893836      36.893836    
    123000   0.5613913     -7.6834561     -6.8413812      4.7016274      50218.233      36.893836      36.893836      36.893836    
    124000   0.55915693    -7.6866774     -6.847954       4.6933788      50218.233      36.893836      36.893836      36.893836    
    125000   0.56019423    -7.6832828     -6.8430034      4.6965405      50218.233      36.893836      36.893836      36.893836    
    126000   0.55616722    -7.683575      -6.8493361      4.7072736      50218.233      36.893836      36.893836      36.893836    
    127000   0.55947324    -7.685699      -6.8465011      4.6918872      50218.233      36.893836      36.893836      36.893836    
    128000   0.55727019    -7.6844267     -6.8485333      4.6978724      50218.233      36.893836      36.893836      36.893836    
    129000   0.55924166    -7.682801      -6.8439505      4.7124         50218.233      36.893836      36.893836      36.893836    
    130000   0.56016097    -7.6855906     -6.8453611      4.691161       50218.233      36.893836      36.893836      36.893836    
    131000   0.55828134    -7.68304       -6.8456299      4.7151988      50218.233      36.893836      36.893836      36.893836    
    132000   0.55870426    -7.6845353     -6.8464908      4.6970217      50218.233      36.893836      36.893836      36.893836    
    133000   0.55825514    -7.6851343     -6.8477635      4.6876559      50218.233      36.893836      36.893836      36.893836    
    134000   0.56282417    -7.6811962     -6.8369719      4.7313278      50218.233      36.893836      36.893836      36.893836    
    135000   0.56242845    -7.6871743     -6.8435436      4.6761658      50218.233      36.893836      36.893836      36.893836    
    136000   0.55792691    -7.6851105     -6.8482321      4.6885116      50218.233      36.893836      36.893836      36.893836    
    137000   0.55905593    -7.6851358     -6.8465638      4.6895839      50218.233      36.893836      36.893836      36.893836    
    138000   0.55924648    -7.685205      -6.8463472      4.6973901      50218.233      36.893836      36.893836      36.893836    
    139000   0.5597947     -7.6859126     -6.8462325      4.6894615      50218.233      36.893836      36.893836      36.893836    
    140000   0.55885734    -7.6850935     -6.8468195      4.6999054      50218.233      36.893836      36.893836      36.893836    
    141000   0.55828859    -7.6800272     -6.8426062      4.7229421      50218.233      36.893836      36.893836      36.893836    
    142000   0.56414743    -7.6831548     -6.8369456      4.7210419      50218.233      36.893836      36.893836      36.893836    
    143000   0.56108509    -7.6868446     -6.8452289      4.669512       50218.233      36.893836      36.893836      36.893836    
    144000   0.5595001     -7.6865697     -6.8473315      4.6724025      50218.233      36.893836      36.893836      36.893836    
    145000   0.55826174    -7.6811332     -6.8437525      4.7224604      50218.233      36.893836      36.893836      36.893836    
    146000   0.5593845     -7.6845515     -6.8454867      4.6899589      50218.233      36.893836      36.893836      36.893836    
    147000   0.56155213    -7.6842967     -6.8419805      4.7049355      50218.233      36.893836      36.893836      36.893836    
    148000   0.56073689    -7.6821589     -6.8410655      4.7104003      50218.233      36.893836      36.893836      36.893836    
    149000   0.56299151    -7.6818682     -6.8373929      4.7243355      50218.233      36.893836      36.893836      36.893836    
    150000   0.55789727    -7.6837142     -6.8468802      4.7036408      50218.233      36.893836      36.893836      36.893836    
    151000   0.56105368    -7.6820995     -6.8405309      4.7178078      50218.233      36.893836      36.893836      36.893836    
    152000   0.56198581    -7.6824281     -6.8394613      4.7084899      50218.233      36.893836      36.893836      36.893836    
    153000   0.56084427    -7.6787755     -6.837521       4.7303567      50218.233      36.893836      36.893836      36.893836    
    154000   0.56221797    -7.6845083     -6.8411933      4.7008661      50218.233      36.893836      36.893836      36.893836    
    155000   0.56023868    -7.6814419     -6.8410958      4.7173441      50218.233      36.893836      36.893836      36.893836    
    156000   0.55983233    -7.6829091     -6.8431725      4.703399       50218.233      36.893836      36.893836      36.893836    
    157000   0.56189109    -7.6835829     -6.8407583      4.7001562      50218.233      36.893836      36.893836      36.893836    
    158000   0.56186056    -7.6788233     -6.8360445      4.7437519      50218.233      36.893836      36.893836      36.893836    
    159000   0.56103896    -7.685419      -6.8438725      4.6944867      50218.233      36.893836      36.893836      36.893836    
    160000   0.5589797     -7.6866387     -6.8481811      4.6868881      50218.233      36.893836      36.893836      36.893836    
    161000   0.56103206    -7.6874481     -6.845912       4.6680907      50218.233      36.893836      36.893836      36.893836    
    162000   0.56088394    -7.680107      -6.8387931      4.7249816      50218.233      36.893836      36.893836      36.893836    
    163000   0.55904223    -7.6870242     -6.8484728      4.6814967      50218.233      36.893836      36.893836      36.893836    
    164000   0.55860252    -7.686968      -6.8490762      4.6816477      50218.233      36.893836      36.893836      36.893836    
    165000   0.55914393    -7.6819363     -6.8432323      4.7251091      50218.233      36.893836      36.893836      36.893836    
    166000   0.56158142    -7.6815685     -6.8392084      4.7177273      50218.233      36.893836      36.893836      36.893836    
    167000   0.56118029    -7.6870066     -6.8452481      4.6867713      50218.233      36.893836      36.893836      36.893836    
    168000   0.56126795    -7.6842267     -6.8423368      4.6883161      50218.233      36.893836      36.893836      36.893836    
    169000   0.56066754    -7.6830626     -6.8420733      4.7208956      50218.233      36.893836      36.893836      36.893836    
    170000   0.5642128     -7.6856501     -6.839343       4.6939587      50218.233      36.893836      36.893836      36.893836    
    171000   0.56080483    -7.6803758     -6.8391805      4.7269955      50218.233      36.893836      36.893836      36.893836    
    172000   0.56070614    -7.6817277     -6.8406805      4.7207819      50218.233      36.893836      36.893836      36.893836    
    173000   0.56012883    -7.6813036     -6.8411223      4.7403516      50218.233      36.893836      36.893836      36.893836    
    174000   0.5585689     -7.6839441     -6.8461026      4.6939         50218.233      36.893836      36.893836      36.893836    
    175000   0.56039619    -7.6858287     -6.8452463      4.6886288      50218.233      36.893836      36.893836      36.893836    
    176000   0.55928701    -7.687198      -6.8482794      4.6819628      50218.233      36.893836      36.893836      36.893836    
    177000   0.56026113    -7.6814669     -6.8410871      4.7179485      50218.233      36.893836      36.893836      36.893836    
    178000   0.55768707    -7.6840835     -6.8475648      4.6994959      50218.233      36.893836      36.893836      36.893836    
    179000   0.56130512    -7.6829358     -6.8409901      4.6977259      50218.233      36.893836      36.893836      36.893836    
    180000   0.56069384    -7.6796354     -6.8386066      4.7304763      50218.233      36.893836      36.893836      36.893836    
    181000   0.56181181    -7.6826831     -6.8399773      4.7140638      50218.233      36.893836      36.893836      36.893836    
    182000   0.56240307    -7.6823227     -6.8387301      4.71265        50218.233      36.893836      36.893836      36.893836    
    183000   0.55849681    -7.686914      -6.8491807      4.6889821      50218.233      36.893836      36.893836      36.893836    
    184000   0.55950558    -7.6819296     -6.8426832      4.7149072      50218.233      36.893836      36.893836      36.893836    
    185000   0.55923041    -7.6844635     -6.8456298      4.702349       50218.233      36.893836      36.893836      36.893836    
    186000   0.56079057    -7.6816621     -6.8404883      4.7179445      50218.233      36.893836      36.893836      36.893836    
    187000   0.55731823    -7.6824102     -6.8464447      4.7066351      50218.233      36.893836      36.893836      36.893836    
    188000   0.56057837    -7.6779729     -6.8371173      4.75023        50218.233      36.893836      36.893836      36.893836    
    189000   0.56061098    -7.6864755     -6.845571       4.6771634      50218.233      36.893836      36.893836      36.893836    
    190000   0.55674532    -7.6826906     -6.8475845      4.6967497      50218.233      36.893836      36.893836      36.893836    
    191000   0.56313589    -7.681745      -6.8370532      4.7312309      50218.233      36.893836      36.893836      36.893836    
    192000   0.56288783    -7.6812206     -6.8369009      4.7279031      50218.233      36.893836      36.893836      36.893836    
    193000   0.55866592    -7.682213      -6.844226       4.7163885      50218.233      36.893836      36.893836      36.893836    
    194000   0.56110086    -7.6818303     -6.840191       4.7183038      50218.233      36.893836      36.893836      36.893836    
    195000   0.55823243    -7.6807933     -6.8434566      4.7128926      50218.233      36.893836      36.893836      36.893836    
    196000   0.55946438    -7.6832745     -6.8440899      4.7052891      50218.233      36.893836      36.893836      36.893836    
    197000   0.56008621    -7.6813012     -6.8411839      4.7252092      50218.233      36.893836      36.893836      36.893836    
    198000   0.5618887     -7.6834454     -6.8406243      4.7139308      50218.233      36.893836      36.893836      36.893836    
    199000   0.56017119    -7.6869618     -6.846717       4.6796929      50218.233      36.893836      36.893836      36.893836    
    200000   0.56089559    -7.6801996     -6.8388682      4.7490203      50218.233      36.893836      36.893836      36.893836    
    201000   0.56162542    -7.6827964     -6.8403702      4.7239768      50218.233      36.893836      36.893836      36.893836    
    202000   0.55906466    -7.6860427     -6.8474576      4.6994022      50218.233      36.893836      36.893836      36.893836    
    203000   0.56143732    -7.6834368     -6.8412928      4.7038245      50218.233      36.893836      36.893836      36.893836    
    204000   0.56280303    -7.6851402     -6.8409477      4.6991245      50218.233      36.893836      36.893836      36.893836    
    205000   0.55838308    -7.6832149     -6.8456522      4.7170278      50218.233      36.893836      36.893836      36.893836    
    206000   0.55672955    -7.6846558     -6.8495734      4.6995262      50218.233      36.893836      36.893836      36.893836    
    207000   0.55950364    -7.6813528     -6.8421093      4.7320817      50218.233      36.893836      36.893836      36.893836    
    208000   0.55831561    -7.6817204     -6.8442589      4.7125845      50218.233      36.893836      36.893836      36.893836    
    209000   0.56350137    -7.678922      -6.833682       4.7352915      50218.233      36.893836      36.893836      36.893836    
    210000   0.56015506    -7.6818674     -6.8416468      4.7205623      50218.233      36.893836      36.893836      36.893836    
    211000   0.56010299    -7.6808912     -6.8407487      4.728888       50218.233      36.893836      36.893836      36.893836    
    212000   0.55884153    -7.6781962     -6.8399458      4.7517         50218.233      36.893836      36.893836      36.893836    
    213000   0.55957361    -7.6819772     -6.8426287      4.7222274      50218.233      36.893836      36.893836      36.893836    
    214000   0.55865026    -7.678805      -6.8408415      4.7450771      50218.233      36.893836      36.893836      36.893836    
    215000   0.55651881    -7.6823327     -6.8475663      4.723621       50218.233      36.893836      36.893836      36.893836    
    216000   0.55942887    -7.6828271     -6.8436958      4.7170749      50218.233      36.893836      36.893836      36.893836    
    217000   0.56402482    -7.6837523     -6.8377272      4.7146344      50218.233      36.893836      36.893836      36.893836    
    218000   0.56003537    -7.6822692     -6.8422281      4.7188087      50218.233      36.893836      36.893836      36.893836    
    219000   0.55965214    -7.6825644     -6.8430981      4.7138468      50218.233      36.893836      36.893836      36.893836    
    220000   0.56269988    -7.6817959     -6.8377581      4.7339962      50218.233      36.893836      36.893836      36.893836    
    221000   0.55974412    -7.6822665     -6.8426623      4.722917       50218.233      36.893836      36.893836      36.893836    
    222000   0.56163205    -7.6800538     -6.8376177      4.7377584      50218.233      36.893836      36.893836      36.893836    
    223000   0.56187169    -7.680865      -6.8380694      4.724993       50218.233      36.893836      36.893836      36.893836    
    224000   0.56082102    -7.6836725     -6.842453       4.6957704      50218.233      36.893836      36.893836      36.893836    
    225000   0.56038034    -7.6853725     -6.8448139      4.7070281      50218.233      36.893836      36.893836      36.893836    
    226000   0.55939247    -7.6825497     -6.843473       4.7096944      50218.233      36.893836      36.893836      36.893836    
    227000   0.56044062    -7.6814462     -6.8407972      4.7269969      50218.233      36.893836      36.893836      36.893836    
    228000   0.55861003    -7.6775221     -6.8396189      4.7580992      50218.233      36.893836      36.893836      36.893836    
    229000   0.56087033    -7.6869056     -6.8456121      4.6871759      50218.233      36.893836      36.893836      36.893836    
    230000   0.55919031    -7.6783076     -6.8395341      4.7623538      50218.233      36.893836      36.893836      36.893836    
    231000   0.55901585    -7.6833584     -6.8448465      4.7043245      50218.233      36.893836      36.893836      36.893836    
    232000   0.5593535     -7.6821913     -6.843173       4.7215401      50218.233      36.893836      36.893836      36.893836    
    233000   0.56027006    -7.686086      -6.8456929      4.7012667      50218.233      36.893836      36.893836      36.893836    
    234000   0.55807554    -7.6854605     -6.8483591      4.7049626      50218.233      36.893836      36.893836      36.893836    
    235000   0.55796203    -7.6832549     -6.8463238      4.7081092      50218.233      36.893836      36.893836      36.893836    
    236000   0.55845715    -7.6813743     -6.8437005      4.7267465      50218.233      36.893836      36.893836      36.893836    
    237000   0.56129651    -7.6870111     -6.8450783      4.6934833      50218.233      36.893836      36.893836      36.893836    
    238000   0.55782032    -7.6871422     -6.8504236      4.6666892      50218.233      36.893836      36.893836      36.893836    
    239000   0.56034621    -7.6851213     -6.844614       4.69805        50218.233      36.893836      36.893836      36.893836    
    240000   0.55808614    -7.6871481     -6.8500308      4.6847268      50218.233      36.893836      36.893836      36.893836    
    241000   0.56185187    -7.6804492     -6.8376833      4.7354775      50218.233      36.893836      36.893836      36.893836    
    242000   0.56259848    -7.688108      -6.8442223      4.676003       50218.233      36.893836      36.893836      36.893836    
    243000   0.55967416    -7.6824856     -6.8429863      4.7277739      50218.233      36.893836      36.893836      36.893836    
    244000   0.56078792    -7.6838883     -6.8427184      4.7117147      50218.233      36.893836      36.893836      36.893836    
    245000   0.55740724    -7.686082      -6.849983       4.6951254      50218.233      36.893836      36.893836      36.893836    
    246000   0.56012873    -7.6835628     -6.8433816      4.7179747      50218.233      36.893836      36.893836      36.893836    
    247000   0.56065095    -7.6839285     -6.8429641      4.7099568      50218.233      36.893836      36.893836      36.893836    
    248000   0.55938776    -7.685781      -6.8467113      4.6944839      50218.233      36.893836      36.893836      36.893836    
    249000   0.56150862    -7.6852461     -6.8429951      4.711081       50218.233      36.893836      36.893836      36.893836    
    250000   0.55959392    -7.6838711     -6.8444921      4.7227081      50218.233      36.893836      36.893836      36.893836    
    251000   0.55963623    -7.686499      -6.8470566      4.694663       50218.233      36.893836      36.893836      36.893836    
    252000   0.55779343    -7.6856636     -6.8489853      4.6924298      50218.233      36.893836      36.893836      36.893836    
    253000   0.55861552    -7.6839863     -6.8460749      4.7147443      50218.233      36.893836      36.893836      36.893836    
    254000   0.55862591    -7.6804958     -6.8425688      4.7293864      50218.233      36.893836      36.893836      36.893836    
    255000   0.5619642     -7.6846299     -6.8416956      4.7085083      50218.233      36.893836      36.893836      36.893836    
    256000   0.55800183    -7.6814589     -6.844468       4.7218681      50218.233      36.893836      36.893836      36.893836    
    257000   0.55828005    -7.682239      -6.8448309      4.7234488      50218.233      36.893836      36.893836      36.893836    
    258000   0.55742863    -7.6830862     -6.8469551      4.7108449      50218.233      36.893836      36.893836      36.893836    
    259000   0.55622946    -7.6796834     -6.8453511      4.7402758      50218.233      36.893836      36.893836      36.893836    
    260000   0.56066223    -7.6825679     -6.8415865      4.7118202      50218.233      36.893836      36.893836      36.893836    
    261000   0.56229393    -7.6846941     -6.8412652      4.7055286      50218.233      36.893836      36.893836      36.893836    
    262000   0.56073707    -7.6805761     -6.8394824      4.735245       50218.233      36.893836      36.893836      36.893836    
    263000   0.56145814    -7.6797586     -6.8375834      4.7376789      50218.233      36.893836      36.893836      36.893836    
    264000   0.55901079    -7.683647      -6.8451428      4.7085156      50218.233      36.893836      36.893836      36.893836    
    265000   0.56225382    -7.6785791     -6.8352103      4.7453161      50218.233      36.893836      36.893836      36.893836    
    266000   0.56140611    -7.6798681     -6.837771       4.7430297      50218.233      36.893836      36.893836      36.893836    
    267000   0.55949186    -7.6782724     -6.8390466      4.741078       50218.233      36.893836      36.893836      36.893836    
    268000   0.56102863    -7.682651      -6.84112        4.7279575      50218.233      36.893836      36.893836      36.893836    
    269000   0.5627032     -7.6817162     -6.8376734      4.7171489      50218.233      36.893836      36.893836      36.893836    
    270000   0.56162259    -7.679127      -6.8367051      4.7503852      50218.233      36.893836      36.893836      36.893836    
    271000   0.56002293    -7.6819201     -6.8418976      4.7261462      50218.233      36.893836      36.893836      36.893836    
    272000   0.55881522    -7.681043      -6.8428321      4.7329764      50218.233      36.893836      36.893836      36.893836    
    273000   0.5611201     -7.6814253     -6.8397571      4.7378801      50218.233      36.893836      36.893836      36.893836    
    274000   0.55991131    -7.6822986     -6.8424436      4.7340253      50218.233      36.893836      36.893836      36.893836    
    275000   0.55836348    -7.6880328     -6.8504995      4.6813516      50218.233      36.893836      36.893836      36.893836    
    276000   0.56072646    -7.6847275     -6.8436498      4.704066       50218.233      36.893836      36.893836      36.893836    
    277000   0.5617029     -7.6791318     -6.8365895      4.7574439      50218.233      36.893836      36.893836      36.893836    
    278000   0.55783026    -7.6807708     -6.8440373      4.7276218      50218.233      36.893836      36.893836      36.893836    
    279000   0.55975989    -7.6790197     -6.8393918      4.7405433      50218.233      36.893836      36.893836      36.893836    
    280000   0.56095045    -7.685581      -6.8441673      4.7007296      50218.233      36.893836      36.893836      36.893836    
    281000   0.55917134    -7.6763061     -6.837561       4.7697247      50218.233      36.893836      36.893836      36.893836    
    282000   0.55916458    -7.6806526     -6.8419176      4.7358148      50218.233      36.893836      36.893836      36.893836    
    283000   0.55922948    -7.686288      -6.8474557      4.6776855      50218.233      36.893836      36.893836      36.893836    
    284000   0.55906952    -7.6795877     -6.8409954      4.7372531      50218.233      36.893836      36.893836      36.893836    
    285000   0.56032537    -7.6792119     -6.8387358      4.7384332      50218.233      36.893836      36.893836      36.893836    
    286000   0.56225248    -7.6759328     -6.832566       4.7668421      50218.233      36.893836      36.893836      36.893836    
    287000   0.55809954    -7.6773012     -6.8401638      4.7533191      50218.233      36.893836      36.893836      36.893836    
    288000   0.56188625    -7.678465      -6.8356477      4.7415402      50218.233      36.893836      36.893836      36.893836    
    289000   0.56222398    -7.6823327     -6.8390087      4.7172806      50218.233      36.893836      36.893836      36.893836    
    290000   0.56061472    -7.6789541     -6.8380439      4.7410725      50218.233      36.893836      36.893836      36.893836    
    291000   0.55841078    -7.6822989     -6.8446946      4.7177458      50218.233      36.893836      36.893836      36.893836    
    292000   0.55972869    -7.6770216     -6.8374405      4.7546644      50218.233      36.893836      36.893836      36.893836    
    293000   0.56122881    -7.6795817     -6.8377505      4.7244207      50218.233      36.893836      36.893836      36.893836    
    294000   0.56225607    -7.6783053     -6.8349332      4.7501815      50218.233      36.893836      36.893836      36.893836    
    295000   0.56012891    -7.6819413     -6.8417599      4.717159       50218.233      36.893836      36.893836      36.893836    
    296000   0.55880255    -7.6781308     -6.8399389      4.7540923      50218.233      36.893836      36.893836      36.893836    
    297000   0.55872997    -7.6873727     -6.8492896      4.6793291      50218.233      36.893836      36.893836      36.893836    
    298000   0.55783733    -7.676126      -6.839382       4.7486345      50218.233      36.893836      36.893836      36.893836    
    299000   0.55841331    -7.678925      -6.841317       4.7410687      50218.233      36.893836      36.893836      36.893836    
    300000   0.56007666    -7.6781547     -6.8380517      4.7483573      50218.233      36.893836      36.893836      36.893836    
    301000   0.5607268     -7.6816309     -6.8405527      4.7281896      50218.233      36.893836      36.893836      36.893836    
    302000   0.55934712    -7.6808143     -6.8418055      4.7293725      50218.233      36.893836      36.893836      36.893836    
    303000   0.55995755    -7.677086      -6.8371617      4.7576764      50218.233      36.893836      36.893836      36.893836    
    304000   0.56000141    -7.6809607     -6.8409705      4.7230134      50218.233      36.893836      36.893836      36.893836    
    305000   0.56038273    -7.6753116     -6.8347495      4.77159        50218.233      36.893836      36.893836      36.893836    
    306000   0.55988261    -7.6778441     -6.8380321      4.7603607      50218.233      36.893836      36.893836      36.893836    
    307000   0.55809142    -7.6780958     -6.8409706      4.740307       50218.233      36.893836      36.893836      36.893836    
    308000   0.56011735    -7.6822513     -6.8420872      4.7155414      50218.233      36.893836      36.893836      36.893836    
    309000   0.56282997    -7.6771162     -6.8328833      4.7632735      50218.233      36.893836      36.893836      36.893836    
    310000   0.56267221    -7.674981      -6.8309847      4.7821465      50218.233      36.893836      36.893836      36.893836    
    311000   0.56247664    -7.6806319     -6.836929       4.7526103      50218.233      36.893836      36.893836      36.893836    
    312000   0.558956      -7.6828865     -6.8444644      4.7142341      50218.233      36.893836      36.893836      36.893836    
    313000   0.55876001    -7.672754      -6.8346259      4.7788609      50218.233      36.893836      36.893836      36.893836    
    314000   0.56169907    -7.6781381     -6.8356015      4.7522761      50218.233      36.893836      36.893836      36.893836    
    315000   0.55816218    -7.6769046     -6.8396732      4.7536516      50218.233      36.893836      36.893836      36.893836    
    316000   0.56008895    -7.6778845     -6.837763       4.7445987      50218.233      36.893836      36.893836      36.893836    
    317000   0.5608299     -7.6784227     -6.8371898      4.7464879      50218.233      36.893836      36.893836      36.893836    
    318000   0.55927346    -7.6786043     -6.839706       4.7418488      50218.233      36.893836      36.893836      36.893836    
    319000   0.56042365    -7.6785744     -6.8379509      4.736933       50218.233      36.893836      36.893836      36.893836    
    320000   0.55888945    -7.6773589     -6.8390367      4.7396528      50218.233      36.893836      36.893836      36.893836    
    321000   0.56172498    -7.677716      -6.8351405      4.759709       50218.233      36.893836      36.893836      36.893836    
    322000   0.55790318    -7.6797117     -6.8428689      4.7249903      50218.233      36.893836      36.893836      36.893836    
    323000   0.55853833    -7.6766687     -6.8388731      4.7587622      50218.233      36.893836      36.893836      36.893836    
    324000   0.56060566    -7.6804707     -6.8395742      4.7388028      50218.233      36.893836      36.893836      36.893836    
    325000   0.55855736    -7.6775158     -6.8396917      4.7591191      50218.233      36.893836      36.893836      36.893836    
    326000   0.56046122    -7.6809527     -6.8402728      4.7362234      50218.233      36.893836      36.893836      36.893836    
    327000   0.56049768    -7.6756553     -6.8349207      4.7599252      50218.233      36.893836      36.893836      36.893836    
    328000   0.56065168    -7.6765094     -6.8355438      4.7613435      50218.233      36.893836      36.893836      36.893836    
    329000   0.5585632     -7.6774381     -6.8396052      4.7502466      50218.233      36.893836      36.893836      36.893836    
    330000   0.56263021    -7.6730366     -6.8291033      4.788031       50218.233      36.893836      36.893836      36.893836    
    331000   0.56042041    -7.6760324     -6.8354138      4.7706217      50218.233      36.893836      36.893836      36.893836    
    332000   0.56068892    -7.6790124     -6.8379909      4.7464129      50218.233      36.893836      36.893836      36.893836    
    333000   0.56149593    -7.6774644     -6.8352325      4.7499656      50218.233      36.893836      36.893836      36.893836    
    334000   0.56008602    -7.676453      -6.836336       4.7628512      50218.233      36.893836      36.893836      36.893836    
    335000   0.55873824    -7.6769445     -6.8388491      4.7457189      50218.233      36.893836      36.893836      36.893836    
    336000   0.55884969    -7.6761382     -6.8378755      4.7604468      50218.233      36.893836      36.893836      36.893836    
    337000   0.56112224    -7.6797772     -6.8381058      4.7332007      50218.233      36.893836      36.893836      36.893836    
    338000   0.56168664    -7.6800395     -6.8375215      4.7348042      50218.233      36.893836      36.893836      36.893836    
    339000   0.55996907    -7.676725      -6.8367834      4.7686479      50218.233      36.893836      36.893836      36.893836    
    340000   0.56011487    -7.6819432     -6.8417829      4.7210926      50218.233      36.893836      36.893836      36.893836    
    341000   0.56502805    -7.6820211     -6.8344911      4.7296224      50218.233      36.893836      36.893836      36.893836    
    342000   0.56355497    -7.6805222     -6.8352018      4.7424562      50218.233      36.893836      36.893836      36.893836    
    343000   0.56081499    -7.6767445     -6.835534       4.7651343      50218.233      36.893836      36.893836      36.893836    
    344000   0.56075489    -7.6787839     -6.8376636      4.7536348      50218.233      36.893836      36.893836      36.893836    
    345000   0.56077667    -7.6788509     -6.8376978      4.7500004      50218.233      36.893836      36.893836      36.893836    
    346000   0.560711      -7.6794124     -6.8383579      4.7470857      50218.233      36.893836      36.893836      36.893836    
    347000   0.55918422    -7.6708499     -6.8320855      4.7878846      50218.233      36.893836      36.893836      36.893836    
    348000   0.55863097    -7.6763427     -6.8384081      4.769151       50218.233      36.893836      36.893836      36.893836    
    349000   0.56024015    -7.6727867     -6.8324384      4.7976323      50218.233      36.893836      36.893836      36.893836    
    350000   0.55689206    -7.6781435     -6.8428173      4.7557731      50218.233      36.893836      36.893836      36.893836    
    351000   0.55684535    -7.6735843     -6.8383282      4.7848821      50218.233      36.893836      36.893836      36.893836    
    352000   0.55862402    -7.6806472     -6.8427231      4.7336282      50218.233      36.893836      36.893836      36.893836    
    353000   0.56103942    -7.6795543     -6.8380071      4.753801       50218.233      36.893836      36.893836      36.893836    
    354000   0.56077127    -7.6781282     -6.8369832      4.7402576      50218.233      36.893836      36.893836      36.893836    
    355000   0.55855547    -7.6714088     -6.8335875      4.8068971      50218.233      36.893836      36.893836      36.893836    
    356000   0.56028695    -7.6752157     -6.8347972      4.7746605      50218.233      36.893836      36.893836      36.893836    
    357000   0.56186246    -7.6792148     -6.8364331      4.7413051      50218.233      36.893836      36.893836      36.893836    
    358000   0.55877499    -7.6757165     -6.8375659      4.7636732      50218.233      36.893836      36.893836      36.893836    
    359000   0.56069406    -7.6754009     -6.8343718      4.7681212      50218.233      36.893836      36.893836      36.893836    
    360000   0.55613528    -7.6750051     -6.840814       4.7666262      50218.233      36.893836      36.893836      36.893836    
    361000   0.55934823    -7.6769698     -6.8379594      4.7616592      50218.233      36.893836      36.893836      36.893836    
    362000   0.55778338    -7.677017      -6.8403538      4.7644155      50218.233      36.893836      36.893836      36.893836    
    363000   0.56063987    -7.6797549     -6.838807       4.7438021      50218.233      36.893836      36.893836      36.893836    
    364000   0.55826624    -7.6790502     -6.8416627      4.7469615      50218.233      36.893836      36.893836      36.893836    
    365000   0.55737366    -7.6739292     -6.8378806      4.7690198      50218.233      36.893836      36.893836      36.893836    
    366000   0.56049776    -7.6774475     -6.8367128      4.7627564      50218.233      36.893836      36.893836      36.893836    
    367000   0.55964588    -7.6785695     -6.8391126      4.7518111      50218.233      36.893836      36.893836      36.893836    
    368000   0.5621916     -7.6747953     -6.8315198      4.7897189      50218.233      36.893836      36.893836      36.893836    
    369000   0.56082972    -7.6729579     -6.8317253      4.7873885      50218.233      36.893836      36.893836      36.893836    
    370000   0.56222377    -7.6792226     -6.835899       4.7321741      50218.233      36.893836      36.893836      36.893836    
    371000   0.55891171    -7.6790304     -6.8406748      4.7477012      50218.233      36.893836      36.893836      36.893836    
    372000   0.55778669    -7.6792597     -6.8425916      4.7661141      50218.233      36.893836      36.893836      36.893836    
    373000   0.55942493    -7.6816063     -6.8424809      4.7246167      50218.233      36.893836      36.893836      36.893836    
    374000   0.56265795    -7.6827617     -6.8387868      4.725638       50218.233      36.893836      36.893836      36.893836    
    375000   0.55999239    -7.6777689     -6.8377922      4.7507476      50218.233      36.893836      36.893836      36.893836    
    376000   0.55976403    -7.683709      -6.8440749      4.7173004      50218.233      36.893836      36.893836      36.893836    
    377000   0.56153828    -7.6792047     -6.8369093      4.7459279      50218.233      36.893836      36.893836      36.893836    
    378000   0.55915138    -7.6737498     -6.8350347      4.7842724      50218.233      36.893836      36.893836      36.893836    
    379000   0.55751101    -7.675923      -6.8396684      4.7714301      50218.233      36.893836      36.893836      36.893836    
    380000   0.56123178    -7.6790789     -6.8372432      4.7442131      50218.233      36.893836      36.893836      36.893836    
    381000   0.55988254    -7.6831024     -6.8432905      4.7122177      50218.233      36.893836      36.893836      36.893836    
    382000   0.56231674    -7.6837356     -6.8402725      4.7081571      50218.233      36.893836      36.893836      36.893836    
    383000   0.5580355     -7.6750042     -6.8379629      4.7689105      50218.233      36.893836      36.893836      36.893836    
    384000   0.55978317    -7.6783825     -6.8387197      4.749408       50218.233      36.893836      36.893836      36.893836    
    385000   0.55898682    -7.6761886     -6.8377203      4.7627525      50218.233      36.893836      36.893836      36.893836    
    386000   0.56215172    -7.6751851     -6.8319696      4.7723659      50218.233      36.893836      36.893836      36.893836    
    387000   0.56022604    -7.6770251     -6.836698       4.7512437      50218.233      36.893836      36.893836      36.893836    
    388000   0.55997875    -7.6830412     -6.843085       4.7076746      50218.233      36.893836      36.893836      36.893836    
    389000   0.56076671    -7.6819415     -6.8408034      4.7292727      50218.233      36.893836      36.893836      36.893836    
    390000   0.56132607    -7.6824832     -6.840506       4.7225657      50218.233      36.893836      36.893836      36.893836    
    391000   0.56084633    -7.6826963     -6.8414388      4.7243989      50218.233      36.893836      36.893836      36.893836    
    392000   0.56155732    -7.6828403     -6.8405163      4.7209363      50218.233      36.893836      36.893836      36.893836    
    393000   0.55872362    -7.6815075     -6.843434       4.7210124      50218.233      36.893836      36.893836      36.893836    
    394000   0.55953066    -7.6796508     -6.8403668      4.7475344      50218.233      36.893836      36.893836      36.893836    
    395000   0.56014711    -7.6791322     -6.8389235      4.7401195      50218.233      36.893836      36.893836      36.893836    
    396000   0.56112659    -7.6781864     -6.8365085      4.7581106      50218.233      36.893836      36.893836      36.893836    
    397000   0.55870957    -7.6821466     -6.8440942      4.7227211      50218.233      36.893836      36.893836      36.893836    
    398000   0.56592382    -7.6820239     -6.8331503      4.7311294      50218.233      36.893836      36.893836      36.893836    
    399000   0.56217349    -7.6817566     -6.8385083      4.7306944      50218.233      36.893836      36.893836      36.893836    
    400000   0.55771412    -7.6784061     -6.8418468      4.7533851      50218.233      36.893836      36.893836      36.893836    
    401000   0.56146021    -7.6846828     -6.8425045      4.7129899      50218.233      36.893836      36.893836      36.893836    
    402000   0.5584066     -7.6782663     -6.8406684      4.7554716      50218.233      36.893836      36.893836      36.893836    
    403000   0.55978578    -7.682059      -6.8423923      4.7309847      50218.233      36.893836      36.893836      36.893836    
    404000   0.56167521    -7.673704      -6.8312031      4.7845533      50218.233      36.893836      36.893836      36.893836    
    405000   0.55874959    -7.6822487     -6.8441362      4.714311       50218.233      36.893836      36.893836      36.893836    
    406000   0.56219623    -7.674837      -6.8315546      4.777626       50218.233      36.893836      36.893836      36.893836    
    407000   0.56045486    -7.6810844     -6.840414       4.7240631      50218.233      36.893836      36.893836      36.893836    
    408000   0.56169824    -7.6772195     -6.8346841      4.7510232      50218.233      36.893836      36.893836      36.893836    
    409000   0.5606847     -7.6805634     -6.8395483      4.7300015      50218.233      36.893836      36.893836      36.893836    
    410000   0.55966078    -7.6820985     -6.8426192      4.7254614      50218.233      36.893836      36.893836      36.893836    
    411000   0.55980704    -7.6815408     -6.8418421      4.7155132      50218.233      36.893836      36.893836      36.893836    
    412000   0.55968208    -7.6795738     -6.8400626      4.7302668      50218.233      36.893836      36.893836      36.893836    
    413000   0.56270645    -7.6810125     -6.8369648      4.731092       50218.233      36.893836      36.893836      36.893836    
    414000   0.56089959    -7.6830358     -6.8416984      4.7095294      50218.233      36.893836      36.893836      36.893836    
    415000   0.55771859    -7.6788985     -6.8423325      4.7467746      50218.233      36.893836      36.893836      36.893836    
    416000   0.557191      -7.6816859     -6.8459113      4.7220348      50218.233      36.893836      36.893836      36.893836    
    417000   0.5602149     -7.6834763     -6.8431659      4.7045609      50218.233      36.893836      36.893836      36.893836    
    418000   0.55896746    -7.6825436     -6.8441044      4.7177649      50218.233      36.893836      36.893836      36.893836    
    419000   0.56173584    -7.677594      -6.8350023      4.7601752      50218.233      36.893836      36.893836      36.893836    
    420000   0.56312888    -7.6804546     -6.8357733      4.7417994      50218.233      36.893836      36.893836      36.893836    
    421000   0.56068687    -7.6759108     -6.8348924      4.7788004      50218.233      36.893836      36.893836      36.893836    
    422000   0.55738581    -7.6775955     -6.8415286      4.7527629      50218.233      36.893836      36.893836      36.893836    
    423000   0.55806827    -7.6814024     -6.8443119      4.7279226      50218.233      36.893836      36.893836      36.893836    
    424000   0.56165583    -7.6803368     -6.8378651      4.740439       50218.233      36.893836      36.893836      36.893836    
    425000   0.56503662    -7.681347      -6.8338041      4.7375067      50218.233      36.893836      36.893836      36.893836    
    426000   0.55747708    -7.6808062     -6.8446024      4.740231       50218.233      36.893836      36.893836      36.893836    
    427000   0.5602303     -7.6795978     -6.8392643      4.7320009      50218.233      36.893836      36.893836      36.893836    
    428000   0.56127667    -7.6843473     -6.8424443      4.71726        50218.233      36.893836      36.893836      36.893836    
    429000   0.55849838    -7.6785691     -6.8408334      4.7480491      50218.233      36.893836      36.893836      36.893836    
    430000   0.55985321    -7.6795303     -6.8397624      4.7462566      50218.233      36.893836      36.893836      36.893836    
    431000   0.56139439    -7.682744      -6.8406643      4.7203167      50218.233      36.893836      36.893836      36.893836    
    432000   0.56082371    -7.6808122     -6.8395886      4.7351203      50218.233      36.893836      36.893836      36.893836    
    433000   0.5581338     -7.6873569     -6.8501681      4.686723       50218.233      36.893836      36.893836      36.893836    
    434000   0.56104537    -7.6809417     -6.8393856      4.7305558      50218.233      36.893836      36.893836      36.893836    
    435000   0.55791919    -7.6816094     -6.8447426      4.7231985      50218.233      36.893836      36.893836      36.893836    
    436000   0.56036136    -7.6833835     -6.8428534      4.7046302      50218.233      36.893836      36.893836      36.893836    
    437000   0.55687851    -7.6782074     -6.8429015      4.741926       50218.233      36.893836      36.893836      36.893836    
    438000   0.56195621    -7.682061      -6.8391387      4.7188004      50218.233      36.893836      36.893836      36.893836    
    439000   0.56033308    -7.6815883     -6.8411006      4.7244502      50218.233      36.893836      36.893836      36.893836    
    440000   0.56004181    -7.6785789     -6.8385281      4.7485662      50218.233      36.893836      36.893836      36.893836    
    441000   0.56010458    -7.6836788     -6.8435339      4.714087       50218.233      36.893836      36.893836      36.893836    
    442000   0.56062404    -7.6829069     -6.8419828      4.710857       50218.233      36.893836      36.893836      36.893836    
    443000   0.55908912    -7.6815422     -6.8429204      4.7248486      50218.233      36.893836      36.893836      36.893836    
    444000   0.55972532    -7.6862055     -6.8466295      4.6920253      50218.233      36.893836      36.893836      36.893836    
    445000   0.55754897    -7.6829309     -6.8466194      4.721404       50218.233      36.893836      36.893836      36.893836    
    446000   0.56003639    -7.6847851     -6.8447425      4.704508       50218.233      36.893836      36.893836      36.893836    
    447000   0.55825559    -7.6811154     -6.8437439      4.73467        50218.233      36.893836      36.893836      36.893836    
    448000   0.55817278    -7.679136      -6.8418887      4.7346806      50218.233      36.893836      36.893836      36.893836    
    449000   0.56070583    -7.6809554     -6.8399086      4.7241266      50218.233      36.893836      36.893836      36.893836    
    450000   0.56152825    -7.6858262     -6.8435458      4.703184       50218.233      36.893836      36.893836      36.893836    
    451000   0.56164436    -7.6839448     -6.8414902      4.7160284      50218.233      36.893836      36.893836      36.893836    
    452000   0.56011806    -7.6847774     -6.8446122      4.7065643      50218.233      36.893836      36.893836      36.893836    
    453000   0.56023977    -7.6871629     -6.8468152      4.6863435      50218.233      36.893836      36.893836      36.893836    
    454000   0.55877413    -7.6820978     -6.8439485      4.7166266      50218.233      36.893836      36.893836      36.893836    
    455000   0.5576144     -7.6816777     -6.845268       4.7046169      50218.233      36.893836      36.893836      36.893836    
    456000   0.56223938    -7.6846051     -6.8412581      4.6924346      50218.233      36.893836      36.893836      36.893836    
    457000   0.56004613    -7.6853542     -6.845297       4.683579       50218.233      36.893836      36.893836      36.893836    
    458000   0.55912784    -7.6858934     -6.8472135      4.6964123      50218.233      36.893836      36.893836      36.893836    
    459000   0.56194463    -7.6840717     -6.8411667      4.7058784      50218.233      36.893836      36.893836      36.893836    
    460000   0.55837762    -7.6824911     -6.8449366      4.7026441      50218.233      36.893836      36.893836      36.893836    
    461000   0.55795482    -7.6787998     -6.8418794      4.73312        50218.233      36.893836      36.893836      36.893836    
    462000   0.55834774    -7.6814839     -6.8439742      4.7129152      50218.233      36.893836      36.893836      36.893836    
    463000   0.55692053    -7.679905      -6.844536       4.7251933      50218.233      36.893836      36.893836      36.893836    
    464000   0.55893078    -7.684047      -6.8456628      4.7003251      50218.233      36.893836      36.893836      36.893836    
    465000   0.55962901    -7.6838011     -6.8443695      4.7046036      50218.233      36.893836      36.893836      36.893836    
    466000   0.5579588     -7.6789971     -6.8420708      4.7380132      50218.233      36.893836      36.893836      36.893836    
    467000   0.56109122    -7.6840417     -6.8424168      4.7078154      50218.233      36.893836      36.893836      36.893836    
    468000   0.56079737    -7.6875941     -6.84641        4.6846737      50218.233      36.893836      36.893836      36.893836    
    469000   0.56205287    -7.6840281     -6.8409608      4.7123669      50218.233      36.893836      36.893836      36.893836    
    470000   0.55789481    -7.6847326     -6.8479023      4.6875516      50218.233      36.893836      36.893836      36.893836    
    471000   0.55761043    -7.6837063     -6.8473025      4.697424       50218.233      36.893836      36.893836      36.893836    
    472000   0.55780065    -7.6814504     -6.8447613      4.7071909      50218.233      36.893836      36.893836      36.893836    
    473000   0.5595292     -7.6826354     -6.8433536      4.7227449      50218.233      36.893836      36.893836      36.893836    
    474000   0.56022432    -7.6831736     -6.8428491      4.7113301      50218.233      36.893836      36.893836      36.893836    
    475000   0.56239913    -7.6829921     -6.8394055      4.7217424      50218.233      36.893836      36.893836      36.893836    
    476000   0.56011822    -7.6868909     -6.8467255      4.6732087      50218.233      36.893836      36.893836      36.893836    
    477000   0.55911014    -7.6824664     -6.8438131      4.7125577      50218.233      36.893836      36.893836      36.893836    
    478000   0.56342361    -7.6787146     -6.8335912      4.7499081      50218.233      36.893836      36.893836      36.893836    
    479000   0.56201416    -7.6824374     -6.8394281      4.7179118      50218.233      36.893836      36.893836      36.893836    
    480000   0.56132395    -7.6812839     -6.8393099      4.7263922      50218.233      36.893836      36.893836      36.893836    
    481000   0.558643      -7.6802099     -6.8422573      4.7308525      50218.233      36.893836      36.893836      36.893836    
    482000   0.55972091    -7.6775107     -6.8379412      4.7581247      50218.233      36.893836      36.893836      36.893836    
    483000   0.56052032    -7.680765      -6.8399965      4.7310496      50218.233      36.893836      36.893836      36.893836    
    484000   0.55848502    -7.6852417     -6.847526       4.688617       50218.233      36.893836      36.893836      36.893836    
    485000   0.55987316    -7.6834774     -6.8436796      4.7048484      50218.233      36.893836      36.893836      36.893836    
    486000   0.55946124    -7.6719544     -6.8327744      4.7962748      50218.233      36.893836      36.893836      36.893836    
    487000   0.5601056     -7.6797268     -6.8395804      4.7435054      50218.233      36.893836      36.893836      36.893836    
    488000   0.5621034     -7.6832378     -6.8400947      4.6962554      50218.233      36.893836      36.893836      36.893836    
    489000   0.55664745    -7.6831796     -6.8482203      4.7078503      50218.233      36.893836      36.893836      36.893836    
    490000   0.5616729     -7.6854627     -6.8429653      4.6965943      50218.233      36.893836      36.893836      36.893836    
    491000   0.56089732    -7.6836719     -6.8423379      4.701787       50218.233      36.893836      36.893836      36.893836    
    492000   0.55997081    -7.6782882     -6.8383439      4.7443832      50218.233      36.893836      36.893836      36.893836    
    493000   0.56248736    -7.6808848     -6.8371658      4.7277797      50218.233      36.893836      36.893836      36.893836    
    494000   0.56044297    -7.6802805     -6.839628       4.7358426      50218.233      36.893836      36.893836      36.893836    
    495000   0.55745572    -7.684213      -6.8480413      4.6958331      50218.233      36.893836      36.893836      36.893836    
    496000   0.55850617    -7.6796063     -6.841859       4.7473322      50218.233      36.893836      36.893836      36.893836    
    497000   0.56340074    -7.6792437     -6.8341547      4.7505373      50218.233      36.893836      36.893836      36.893836    
    498000   0.55945687    -7.6828322     -6.8436588      4.7229135      50218.233      36.893836      36.893836      36.893836    
    499000   0.55989693    -7.6741364     -6.8343029      4.7792631      50218.233      36.893836      36.893836      36.893836    
    500000   0.56058277    -7.6830486     -6.8421864      4.7192157      50218.233      36.893836      36.893836      36.893836    
    501000   0.56358573    -7.6836628     -6.8382963      4.7083099      50218.233      36.893836      36.893836      36.893836    
    502000   0.55663861    -7.6815413     -6.8465952      4.7217513      50218.233      36.893836      36.893836      36.893836    
    503000   0.55990923    -7.6769281     -6.8370762      4.7634995      50218.233      36.893836      36.893836      36.893836    
    504000   0.56221842    -7.6797708     -6.8364552      4.7479967      50218.233      36.893836      36.893836      36.893836    
    505000   0.55982371    -7.6824714     -6.8427478      4.7295624      50218.233      36.893836      36.893836      36.893836    
    506000   0.55657544    -7.6806621     -6.8458108      4.7244553      50218.233      36.893836      36.893836      36.893836    
    507000   0.55633029    -7.6834195     -6.8489359      4.6999311      50218.233      36.893836      36.893836      36.893836    
    508000   0.56023       -7.6793614     -6.8390283      4.7352058      50218.233      36.893836      36.893836      36.893836    
    509000   0.56105324    -7.6824108     -6.8408429      4.7195704      50218.233      36.893836      36.893836      36.893836    
    510000   0.56080181    -7.6720656     -6.8308748      4.7939843      50218.233      36.893836      36.893836      36.893836    
    511000   0.55917901    -7.6792483     -6.8404917      4.7429452      50218.233      36.893836      36.893836      36.893836    
    512000   0.56044993    -7.6791305     -6.8384675      4.7405641      50218.233      36.893836      36.893836      36.893836    
    513000   0.55913227    -7.6827199     -6.8440334      4.7032708      50218.233      36.893836      36.893836      36.893836    
    514000   0.55826198    -7.6824851     -6.845104       4.7177969      50218.233      36.893836      36.893836      36.893836    
    515000   0.56040114    -7.6777358     -6.837146       4.7428342      50218.233      36.893836      36.893836      36.893836    
    516000   0.55853449    -7.6833686     -6.8455788      4.7099012      50218.233      36.893836      36.893836      36.893836    
    517000   0.56118831    -7.6786239     -6.8368534      4.7479118      50218.233      36.893836      36.893836      36.893836    
    518000   0.55627049    -7.6815557     -6.8471618      4.7309487      50218.233      36.893836      36.893836      36.893836    
    519000   0.55855113    -7.6847738     -6.8469591      4.7040941      50218.233      36.893836      36.893836      36.893836    
    520000   0.5614098     -7.6818277     -6.839725       4.7215008      50218.233      36.893836      36.893836      36.893836    
    521000   0.55778583    -7.6789301     -6.8422633      4.7460624      50218.233      36.893836      36.893836      36.893836    
    522000   0.56005512    -7.6764954     -6.8364246      4.7578544      50218.233      36.893836      36.893836      36.893836    
    523000   0.55857164    -7.6746315     -6.836786       4.7603331      50218.233      36.893836      36.893836      36.893836    
    524000   0.55647821    -7.6810944     -6.8463889      4.7324773      50218.233      36.893836      36.893836      36.893836    
    525000   0.56041341    -7.6815855     -6.8409774      4.7251001      50218.233      36.893836      36.893836      36.893836    
    526000   0.56103054    -7.6838319     -6.842298       4.7033106      50218.233      36.893836      36.893836      36.893836    
    527000   0.55856113    -7.684358      -6.8465282      4.7014887      50218.233      36.893836      36.893836      36.893836    
    528000   0.56353527    -7.679597      -6.8343061      4.746206       50218.233      36.893836      36.893836      36.893836    
    529000   0.55984295    -7.6785994     -6.838847       4.7412514      50218.233      36.893836      36.893836      36.893836    
    530000   0.56207411    -7.6820484     -6.8389493      4.7240347      50218.233      36.893836      36.893836      36.893836    
    531000   0.56162483    -7.6819351     -6.8395098      4.7250688      50218.233      36.893836      36.893836      36.893836    
    532000   0.56091823    -7.6817263     -6.8403609      4.7239844      50218.233      36.893836      36.893836      36.893836    
    533000   0.55767983    -7.6741543     -6.8376464      4.7689954      50218.233      36.893836      36.893836      36.893836    
    534000   0.55960193    -7.6821116     -6.8427206      4.726746       50218.233      36.893836      36.893836      36.893836    
    535000   0.55993677    -7.6868771     -6.8469839      4.6865058      50218.233      36.893836      36.893836      36.893836    
    536000   0.55841204    -7.6829936     -6.8453874      4.7146122      50218.233      36.893836      36.893836      36.893836    
    537000   0.5592294     -7.6793458     -6.8405136      4.7327291      50218.233      36.893836      36.893836      36.893836    
    538000   0.56019318    -7.6853161     -6.8450383      4.6902078      50218.233      36.893836      36.893836      36.893836    
    539000   0.56002654    -7.6746127     -6.8345848      4.782431       50218.233      36.893836      36.893836      36.893836    
    540000   0.55967841    -7.6829369     -6.8434312      4.7180124      50218.233      36.893836      36.893836      36.893836    
    541000   0.55692389    -7.6767615     -6.8413876      4.7571208      50218.233      36.893836      36.893836      36.893836    
    542000   0.55760616    -7.6800328     -6.8436355      4.7390911      50218.233      36.893836      36.893836      36.893836    
    543000   0.56078117    -7.6812071     -6.8400473      4.7212751      50218.233      36.893836      36.893836      36.893836    
    544000   0.55933973    -7.6854733     -6.8464756      4.7017158      50218.233      36.893836      36.893836      36.893836    
    545000   0.55801759    -7.6814926     -6.8444782      4.7262347      50218.233      36.893836      36.893836      36.893836    
    546000   0.55863629    -7.6838182     -6.8458757      4.700639       50218.233      36.893836      36.893836      36.893836    
    547000   0.55977331    -7.6816868     -6.8420388      4.7186137      50218.233      36.893836      36.893836      36.893836    
    548000   0.56110199    -7.6812188     -6.8395778      4.7245637      50218.233      36.893836      36.893836      36.893836    
    549000   0.55885614    -7.6769921     -6.8387198      4.7597314      50218.233      36.893836      36.893836      36.893836    
    550000   0.56051035    -7.6804699     -6.8397163      4.7397135      50218.233      36.893836      36.893836      36.893836    
    551000   0.56013555    -7.6778572     -6.8376658      4.7536792      50218.233      36.893836      36.893836      36.893836    
    552000   0.55931214    -7.6777919     -6.8388357      4.7457831      50218.233      36.893836      36.893836      36.893836    
    553000   0.55852492    -7.6764706     -6.8386952      4.7669476      50218.233      36.893836      36.893836      36.893836    
    554000   0.56534141    -7.6803655     -6.8323654      4.7502697      50218.233      36.893836      36.893836      36.893836    
    555000   0.56079784    -7.6862626     -6.8450778      4.6954468      50218.233      36.893836      36.893836      36.893836    
    556000   0.56192875    -7.6798917     -6.8370105      4.7361007      50218.233      36.893836      36.893836      36.893836    
    557000   0.55731279    -7.6804925     -6.8445352      4.724004       50218.233      36.893836      36.893836      36.893836    
    558000   0.55729335    -7.6852178     -6.8492897      4.6936587      50218.233      36.893836      36.893836      36.893836    
    559000   0.55906868    -7.683692      -6.8451009      4.697715       50218.233      36.893836      36.893836      36.893836    
    560000   0.56015836    -7.68302       -6.8427945      4.7118681      50218.233      36.893836      36.893836      36.893836    
    561000   0.55788188    -7.6820711     -6.8452601      4.7146418      50218.233      36.893836      36.893836      36.893836    
    562000   0.55812985    -7.6808428     -6.84366        4.7308962      50218.233      36.893836      36.893836      36.893836    
    563000   0.56103464    -7.6819897     -6.8404497      4.7110436      50218.233      36.893836      36.893836      36.893836    
    564000   0.56285784    -7.6872019     -6.8429271      4.6964762      50218.233      36.893836      36.893836      36.893836    
    565000   0.55859276    -7.6809625     -6.8430853      4.7175667      50218.233      36.893836      36.893836      36.893836    
    566000   0.55863382    -7.6801334     -6.8421946      4.7452287      50218.233      36.893836      36.893836      36.893836    
    567000   0.56292403    -7.678115      -6.8337409      4.7504888      50218.233      36.893836      36.893836      36.893836    
    568000   0.55925895    -7.6812217     -6.8423452      4.7245318      50218.233      36.893836      36.893836      36.893836    
    569000   0.56023242    -7.6776115     -6.8372748      4.7594178      50218.233      36.893836      36.893836      36.893836    
    570000   0.55877272    -7.6818031     -6.843656       4.7250816      50218.233      36.893836      36.893836      36.893836    
    571000   0.56143386    -7.6796591     -6.8375202      4.7491008      50218.233      36.893836      36.893836      36.893836    
    572000   0.56003942    -7.68063       -6.8405828      4.7202583      50218.233      36.893836      36.893836      36.893836    
    573000   0.55824533    -7.6769124     -6.8395563      4.7523974      50218.233      36.893836      36.893836      36.893836    
    574000   0.5594291     -7.6785461     -6.8394143      4.7440708      50218.233      36.893836      36.893836      36.893836    
    575000   0.56262215    -7.6746433     -6.8307221      4.7765214      50218.233      36.893836      36.893836      36.893836    
    576000   0.56071353    -7.6802389     -6.8391805      4.7305356      50218.233      36.893836      36.893836      36.893836    
    577000   0.56257999    -7.6790393     -6.8351813      4.7427535      50218.233      36.893836      36.893836      36.893836    
    578000   0.55784995    -7.6777689     -6.8410058      4.7454212      50218.233      36.893836      36.893836      36.893836    
    579000   0.5599863     -7.6791527     -6.8391852      4.736017       50218.233      36.893836      36.893836      36.893836    
    580000   0.55887301    -7.6757542     -6.8374566      4.7544469      50218.233      36.893836      36.893836      36.893836    
    581000   0.56319802    -7.6754328     -6.8306478      4.7750597      50218.233      36.893836      36.893836      36.893836    
    582000   0.55839261    -7.6766949     -6.8391179      4.7640186      50218.233      36.893836      36.893836      36.893836    
    583000   0.56311461    -7.6807524     -6.8360925      4.7398495      50218.233      36.893836      36.893836      36.893836    
    584000   0.56086205    -7.6755583     -6.8342772      4.7719697      50218.233      36.893836      36.893836      36.893836    
    585000   0.55868561    -7.6813239     -6.8433074      4.7274688      50218.233      36.893836      36.893836      36.893836    
    586000   0.56104103    -7.6767795     -6.8352299      4.7566269      50218.233      36.893836      36.893836      36.893836    
    587000   0.55979542    -7.6812773     -6.8415961      4.7276988      50218.233      36.893836      36.893836      36.893836    
    588000   0.55896677    -7.6826229     -6.8441847      4.7070513      50218.233      36.893836      36.893836      36.893836    
    589000   0.56014906    -7.6822001     -6.8419885      4.7197251      50218.233      36.893836      36.893836      36.893836    
    590000   0.56012212    -7.677582      -6.8374108      4.7584589      50218.233      36.893836      36.893836      36.893836    
    591000   0.55978356    -7.6783986     -6.8387353      4.7448149      50218.233      36.893836      36.893836      36.893836    
    592000   0.56080994    -7.6757815     -6.8345785      4.7514327      50218.233      36.893836      36.893836      36.893836    
    593000   0.55914663    -7.6829838     -6.8442758      4.7128359      50218.233      36.893836      36.893836      36.893836    
    594000   0.5585602     -7.6825103     -6.844682       4.7153134      50218.233      36.893836      36.893836      36.893836    
    595000   0.55726044    -7.6830595     -6.8471807      4.7136686      50218.233      36.893836      36.893836      36.893836    
    596000   0.56069903    -7.6798562     -6.8388196      4.7438657      50218.233      36.893836      36.893836      36.893836    
    597000   0.55990892    -7.6776473     -6.8377958      4.7595551      50218.233      36.893836      36.893836      36.893836    
    598000   0.55724519    -7.6786766     -6.8428207      4.7387981      50218.233      36.893836      36.893836      36.893836    
    599000   0.55836931    -7.6798317     -6.8422897      4.7272113      50218.233      36.893836      36.893836      36.893836    
    600000   0.56015887    -7.6772296     -6.8370033      4.7577968      50218.233      36.893836      36.893836      36.893836    
    601000   0.55889993    -7.6779559     -6.8396179      4.7425688      50218.233      36.893836      36.893836      36.893836    
    602000   0.56075363    -7.6793319     -6.8382135      4.7336152      50218.233      36.893836      36.893836      36.893836    
    603000   0.56345705    -7.6814352     -6.8362616      4.7192801      50218.233      36.893836      36.893836      36.893836    
    604000   0.56147074    -7.6787255     -6.8365314      4.7371802      50218.233      36.893836      36.893836      36.893836    
    605000   0.56176356    -7.6788248     -6.8361914      4.7378393      50218.233      36.893836      36.893836      36.893836    
    606000   0.55884427    -7.6778612     -6.8396067      4.7528143      50218.233      36.893836      36.893836      36.893836    
    607000   0.55909427    -7.6799237     -6.8412942      4.7293405      50218.233      36.893836      36.893836      36.893836    
    608000   0.5608109     -7.6712543     -6.83005        4.806181       50218.233      36.893836      36.893836      36.893836    
    609000   0.55872282    -7.6796831     -6.8416108      4.7252911      50218.233      36.893836      36.893836      36.893836    
    610000   0.56028067    -7.6845427     -6.8441336      4.6945201      50218.233      36.893836      36.893836      36.893836    
    611000   0.55912004    -7.6790088     -6.8403407      4.7328185      50218.233      36.893836      36.893836      36.893836    
    612000   0.56100689    -7.6788069     -6.8373086      4.7530992      50218.233      36.893836      36.893836      36.893836    
    613000   0.55651728    -7.6781813     -6.8434172      4.7460494      50218.233      36.893836      36.893836      36.893836    
    614000   0.56234747    -7.6738298     -6.8303206      4.7821498      50218.233      36.893836      36.893836      36.893836    
    615000   0.55886365    -7.6781274     -6.8398439      4.7476017      50218.233      36.893836      36.893836      36.893836    
    616000   0.55915843    -7.679079      -6.8403533      4.7568723      50218.233      36.893836      36.893836      36.893836    
    617000   0.56037894    -7.6797276     -6.8391711      4.7442537      50218.233      36.893836      36.893836      36.893836    
    618000   0.55954355    -7.6784465     -6.8391431      4.7524372      50218.233      36.893836      36.893836      36.893836    
    619000   0.55824536    -7.6789084     -6.8415523      4.7435795      50218.233      36.893836      36.893836      36.893836    
    620000   0.5562879     -7.6800117     -6.8455918      4.7341872      50218.233      36.893836      36.893836      36.893836    
    621000   0.56039922    -7.6827226     -6.8421357      4.7051246      50218.233      36.893836      36.893836      36.893836    
    622000   0.56291266    -7.6819542     -6.8375972      4.7280836      50218.233      36.893836      36.893836      36.893836    
    623000   0.55909997    -7.6845092     -6.8458712      4.6986563      50218.233      36.893836      36.893836      36.893836    
    624000   0.55750533    -7.6845282     -6.8482821      4.6889828      50218.233      36.893836      36.893836      36.893836    
    625000   0.56001151    -7.6786453     -6.83864        4.7545139      50218.233      36.893836      36.893836      36.893836    
    626000   0.56325528    -7.6784394     -6.8335685      4.7488093      50218.233      36.893836      36.893836      36.893836    
    627000   0.56110626    -7.6799591     -6.8383116      4.7397043      50218.233      36.893836      36.893836      36.893836    
    628000   0.55895533    -7.6818502     -6.8434292      4.7139727      50218.233      36.893836      36.893836      36.893836    
    629000   0.56277676    -7.6762889     -6.8321358      4.7638189      50218.233      36.893836      36.893836      36.893836    
    630000   0.56277007    -7.6777423     -6.8335992      4.755338       50218.233      36.893836      36.893836      36.893836    
    631000   0.55975406    -7.6772851     -6.8376659      4.7419567      50218.233      36.893836      36.893836      36.893836    
    632000   0.5595922     -7.6807618     -6.8413854      4.7273531      50218.233      36.893836      36.893836      36.893836    
    633000   0.55805203    -7.6844159     -6.8473498      4.6995312      50218.233      36.893836      36.893836      36.893836    
    634000   0.5617377     -7.6777443     -6.8351497      4.7517853      50218.233      36.893836      36.893836      36.893836    
    635000   0.55810689    -7.6742585     -6.8371101      4.7889854      50218.233      36.893836      36.893836      36.893836    
    636000   0.5613869     -7.6810013     -6.8389329      4.7310508      50218.233      36.893836      36.893836      36.893836    
    637000   0.55896745    -7.6790556     -6.8406163      4.7385947      50218.233      36.893836      36.893836      36.893836    
    638000   0.55966292    -7.683407      -6.8439246      4.7151231      50218.233      36.893836      36.893836      36.893836    
    639000   0.56163974    -7.6802351     -6.8377875      4.7374987      50218.233      36.893836      36.893836      36.893836    
    640000   0.55974556    -7.6776138     -6.8380074      4.744858       50218.233      36.893836      36.893836      36.893836    
    641000   0.55625137    -7.6781528     -6.8437876      4.738748       50218.233      36.893836      36.893836      36.893836    
    642000   0.55621571    -7.6760114     -6.8416997      4.75238        50218.233      36.893836      36.893836      36.893836    
    643000   0.56121275    -7.6773164     -6.8355092      4.7663485      50218.233      36.893836      36.893836      36.893836    
    644000   0.56103771    -7.6766598     -6.8351152      4.7613497      50218.233      36.893836      36.893836      36.893836    
    645000   0.56184633    -7.6752325     -6.832475       4.7684812      50218.233      36.893836      36.893836      36.893836    
    646000   0.5603537     -7.6795669     -6.8390483      4.7509052      50218.233      36.893836      36.893836      36.893836    
    647000   0.56102203    -7.6790672     -6.8375461      4.7495793      50218.233      36.893836      36.893836      36.893836    
    648000   0.56037255    -7.6810447     -6.8404979      4.7361638      50218.233      36.893836      36.893836      36.893836    
    649000   0.56032984    -7.6769987     -6.8365159      4.7692093      50218.233      36.893836      36.893836      36.893836    
    650000   0.56189234    -7.6736078     -6.8307812      4.7859946      50218.233      36.893836      36.893836      36.893836    
    651000   0.55973593    -7.6776816     -6.8380896      4.7697894      50218.233      36.893836      36.893836      36.893836    
    652000   0.5572154     -7.677033      -6.8412218      4.7541334      50218.233      36.893836      36.893836      36.893836    
    653000   0.55980166    -7.6833972     -6.8437067      4.7056256      50218.233      36.893836      36.893836      36.893836    
    654000   0.56131946    -7.6818159     -6.8398487      4.7213406      50218.233      36.893836      36.893836      36.893836    
    655000   0.56061705    -7.6762931     -6.8353795      4.7509588      50218.233      36.893836      36.893836      36.893836    
    656000   0.56105306    -7.677372      -6.8358044      4.7592985      50218.233      36.893836      36.893836      36.893836    
    657000   0.55947653    -7.6765792     -6.8373763      4.7572366      50218.233      36.893836      36.893836      36.893836    
    658000   0.55659959    -7.6812272     -6.8463397      4.7180247      50218.233      36.893836      36.893836      36.893836    
    659000   0.56007428    -7.6790598     -6.8389603      4.7432688      50218.233      36.893836      36.893836      36.893836    
    660000   0.56076022    -7.6830181     -6.8418897      4.7201978      50218.233      36.893836      36.893836      36.893836    
    661000   0.56002311    -7.6784485     -6.8384258      4.7412346      50218.233      36.893836      36.893836      36.893836    
    662000   0.55841722    -7.6771566     -6.8395426      4.7529819      50218.233      36.893836      36.893836      36.893836    
    663000   0.55882021    -7.6782721     -6.8400537      4.7543443      50218.233      36.893836      36.893836      36.893836    
    664000   0.55953867    -7.6756129     -6.8363168      4.7657054      50218.233      36.893836      36.893836      36.893836    
    665000   0.55848184    -7.6780632     -6.8403524      4.7483677      50218.233      36.893836      36.893836      36.893836    
    666000   0.56318544    -7.6835651     -6.8387989      4.7237977      50218.233      36.893836      36.893836      36.893836    
    667000   0.56214993    -7.6806751     -6.8374622      4.7419605      50218.233      36.893836      36.893836      36.893836    
    668000   0.56231791    -7.680986      -6.8375211      4.7278232      50218.233      36.893836      36.893836      36.893836    
    669000   0.55775268    -7.6793341     -6.842717       4.7488129      50218.233      36.893836      36.893836      36.893836    
    670000   0.56034259    -7.6807117     -6.8402098      4.729626       50218.233      36.893836      36.893836      36.893836    
    671000   0.56077648    -7.6811218     -6.839969       4.7253665      50218.233      36.893836      36.893836      36.893836    
    672000   0.56140116    -7.6798849     -6.8377952      4.7447235      50218.233      36.893836      36.893836      36.893836    
    673000   0.56111701    -7.6799092     -6.8382457      4.7407446      50218.233      36.893836      36.893836      36.893836    
    674000   0.56026415    -7.6836713     -6.8432871      4.7037387      50218.233      36.893836      36.893836      36.893836    
    675000   0.55931891    -7.6803244     -6.841358       4.7437514      50218.233      36.893836      36.893836      36.893836    
    676000   0.56114035    -7.6812111     -6.8395125      4.7280074      50218.233      36.893836      36.893836      36.893836    
    677000   0.56119112    -7.6809325     -6.8391578      4.726698       50218.233      36.893836      36.893836      36.893836    
    678000   0.558533      -7.6768843     -6.8390967      4.7543814      50218.233      36.893836      36.893836      36.893836    
    679000   0.55769515    -7.6762368     -6.8397059      4.7544406      50218.233      36.893836      36.893836      36.893836    
    680000   0.55896277    -7.6757725     -6.8373403      4.7593857      50218.233      36.893836      36.893836      36.893836    
    681000   0.55892671    -7.6805432     -6.8421651      4.725143       50218.233      36.893836      36.893836      36.893836    
    682000   0.56116266    -7.6832473     -6.8415153      4.7181508      50218.233      36.893836      36.893836      36.893836    
    683000   0.55792149    -7.6784184     -6.8415481      4.7392852      50218.233      36.893836      36.893836      36.893836    
    684000   0.55720287    -7.682437      -6.8466445      4.7211068      50218.233      36.893836      36.893836      36.893836    
    685000   0.55985596    -7.6763929     -6.8366209      4.7606648      50218.233      36.893836      36.893836      36.893836    
    686000   0.55882629    -7.6805161     -6.8422886      4.7382285      50218.233      36.893836      36.893836      36.893836    
    687000   0.56350817    -7.6812741     -6.8360239      4.7353494      50218.233      36.893836      36.893836      36.893836    
    688000   0.56197623    -7.6799798     -6.8370274      4.7390287      50218.233      36.893836      36.893836      36.893836    
    689000   0.56319005    -7.6788404     -6.8340673      4.7439504      50218.233      36.893836      36.893836      36.893836    
    690000   0.56044338    -7.6768767     -6.8362236      4.7530893      50218.233      36.893836      36.893836      36.893836    
    691000   0.55946938    -7.6779793     -6.8387871      4.7398814      50218.233      36.893836      36.893836      36.893836    
    692000   0.559414      -7.6767841     -6.8376751      4.7570975      50218.233      36.893836      36.893836      36.893836    
    693000   0.56016457    -7.6789648     -6.8387299      4.7462513      50218.233      36.893836      36.893836      36.893836    
    694000   0.55890284    -7.6795745     -6.8412322      4.7457286      50218.233      36.893836      36.893836      36.893836    
    695000   0.56348481    -7.6818748     -6.8366596      4.7260651      50218.233      36.893836      36.893836      36.893836    
    696000   0.56156317    -7.6826336     -6.8403009      4.7093396      50218.233      36.893836      36.893836      36.893836    
    697000   0.56072758    -7.684402      -6.8433226      4.7002411      50218.233      36.893836      36.893836      36.893836    
    698000   0.5598527     -7.6794564     -6.8396893      4.7321118      50218.233      36.893836      36.893836      36.893836    
    699000   0.56389002    -7.6827674     -6.8369444      4.7208869      50218.233      36.893836      36.893836      36.893836    
    700000   0.55955036    -7.6821084     -6.8427948      4.7038851      50218.233      36.893836      36.893836      36.893836    
    701000   0.56155707    -7.6778681     -6.8355445      4.7557901      50218.233      36.893836      36.893836      36.893836    
    702000   0.56040886    -7.6811295     -6.8405282      4.7202705      50218.233      36.893836      36.893836      36.893836    
    703000   0.56096219    -7.6739377     -6.8325064      4.7775691      50218.233      36.893836      36.893836      36.893836    
    704000   0.56116058    -7.6785786     -6.8368497      4.7636429      50218.233      36.893836      36.893836      36.893836    
    705000   0.55945571    -7.679458      -6.8402864      4.7343446      50218.233      36.893836      36.893836      36.893836    
    706000   0.55867025    -7.6805893     -6.8425958      4.7320202      50218.233      36.893836      36.893836      36.893836    
    707000   0.55892007    -7.6740041     -6.835636       4.7796315      50218.233      36.893836      36.893836      36.893836    
    708000   0.56013846    -7.6744439     -6.8342482      4.7598091      50218.233      36.893836      36.893836      36.893836    
    709000   0.55908901    -7.6808904     -6.8422689      4.7191758      50218.233      36.893836      36.893836      36.893836    
    710000   0.55969157    -7.6767264     -6.837201       4.7494943      50218.233      36.893836      36.893836      36.893836    
    711000   0.55839943    -7.6751835     -6.8375963      4.759446       50218.233      36.893836      36.893836      36.893836    
    712000   0.55732051    -7.6760939     -6.8401251      4.7484996      50218.233      36.893836      36.893836      36.893836    
    713000   0.56129795    -7.6758093     -6.8338744      4.7729842      50218.233      36.893836      36.893836      36.893836    
    714000   0.55825919    -7.6778221     -6.8404453      4.7409969      50218.233      36.893836      36.893836      36.893836    
    715000   0.55991843    -7.6803463     -6.8404806      4.7292496      50218.233      36.893836      36.893836      36.893836    
    716000   0.56199774    -7.6769879     -6.8340033      4.7616814      50218.233      36.893836      36.893836      36.893836    
    717000   0.55708468    -7.6782895     -6.8426743      4.7511154      50218.233      36.893836      36.893836      36.893836    
    718000   0.55949632    -7.6814829     -6.8422503      4.7206922      50218.233      36.893836      36.893836      36.893836    
    719000   0.56107965    -7.6818645     -6.840257       4.7219725      50218.233      36.893836      36.893836      36.893836    
    720000   0.55985546    -7.6800673     -6.8402961      4.7263693      50218.233      36.893836      36.893836      36.893836    
    721000   0.55923349    -7.6805426     -6.8417043      4.7334431      50218.233      36.893836      36.893836      36.893836    
    722000   0.55922276    -7.6808888     -6.8420666      4.7306078      50218.233      36.893836      36.893836      36.893836    
    723000   0.55880909    -7.6795055     -6.8413037      4.7383335      50218.233      36.893836      36.893836      36.893836    
    724000   0.56106388    -7.6776152     -6.8360314      4.7379958      50218.233      36.893836      36.893836      36.893836    
    725000   0.56025594    -7.6817        -6.841328       4.7290859      50218.233      36.893836      36.893836      36.893836    
    726000   0.56254206    -7.678856      -6.8350549      4.7405967      50218.233      36.893836      36.893836      36.893836    
    727000   0.56100698    -7.6836084     -6.8421099      4.7049673      50218.233      36.893836      36.893836      36.893836    
    728000   0.55960913    -7.680785      -6.8413832      4.7268554      50218.233      36.893836      36.893836      36.893836    
    729000   0.55839025    -7.6784177     -6.8408442      4.7500288      50218.233      36.893836      36.893836      36.893836    
    730000   0.55957769    -7.6784856     -6.839131       4.7550296      50218.233      36.893836      36.893836      36.893836    
    731000   0.55861598    -7.6819624     -6.8440504      4.7138768      50218.233      36.893836      36.893836      36.893836    
    732000   0.5633891     -7.6782783     -6.8332067      4.7530304      50218.233      36.893836      36.893836      36.893836    
    733000   0.55919418    -7.6771347     -6.8383553      4.7556502      50218.233      36.893836      36.893836      36.893836    
    734000   0.56318196    -7.6790754     -6.8343145      4.7520545      50218.233      36.893836      36.893836      36.893836    
    735000   0.56052796    -7.6846949     -6.8439149      4.7033349      50218.233      36.893836      36.893836      36.893836    
    736000   0.56202852    -7.6822298     -6.839199       4.717827       50218.233      36.893836      36.893836      36.893836    
    737000   0.55937328    -7.6812515     -6.8422036      4.7338938      50218.233      36.893836      36.893836      36.893836    
    738000   0.56067324    -7.6752129     -6.834215       4.776576       50218.233      36.893836      36.893836      36.893836    
    739000   0.56030948    -7.6823148     -6.8418625      4.7158029      50218.233      36.893836      36.893836      36.893836    
    740000   0.56091024    -7.679438      -6.8380846      4.7340578      50218.233      36.893836      36.893836      36.893836    
    741000   0.5630968     -7.679683      -6.8350498      4.7363317      50218.233      36.893836      36.893836      36.893836    
    742000   0.55796793    -7.6819895     -6.8450495      4.7059282      50218.233      36.893836      36.893836      36.893836    
    743000   0.55751574    -7.6808609     -6.8445992      4.7328806      50218.233      36.893836      36.893836      36.893836    
    744000   0.55894154    -7.6789371     -6.8405367      4.736536       50218.233      36.893836      36.893836      36.893836    
    745000   0.55896549    -7.6826639     -6.8442276      4.7126643      50218.233      36.893836      36.893836      36.893836    
    746000   0.55826757    -7.685135      -6.8477456      4.6991018      50218.233      36.893836      36.893836      36.893836    
    747000   0.56193219    -7.6863785     -6.8434922      4.678907       50218.233      36.893836      36.893836      36.893836    
    748000   0.55892513    -7.683213      -6.8448372      4.7105879      50218.233      36.893836      36.893836      36.893836    
    749000   0.55966538    -7.68423       -6.8447439      4.6926679      50218.233      36.893836      36.893836      36.893836    
    750000   0.5634384     -7.6774243     -6.8322787      4.7624655      50218.233      36.893836      36.893836      36.893836    
    751000   0.560688      -7.6826137     -6.8415937      4.7096943      50218.233      36.893836      36.893836      36.893836    
    752000   0.55820345    -7.67928       -6.8419867      4.7330805      50218.233      36.893836      36.893836      36.893836    
    753000   0.56115418    -7.6785018     -6.8367825      4.7434513      50218.233      36.893836      36.893836      36.893836    
    754000   0.56047929    -7.6816911     -6.8409841      4.7246048      50218.233      36.893836      36.893836      36.893836    
    755000   0.56091221    -7.6784323     -6.837076       4.7517924      50218.233      36.893836      36.893836      36.893836    
    756000   0.56136193    -7.6798814     -6.8378505      4.7503636      50218.233      36.893836      36.893836      36.893836    
    757000   0.55782896    -7.679619      -6.8428875      4.7356591      50218.233      36.893836      36.893836      36.893836    
    758000   0.55994102    -7.679636      -6.8397365      4.7421276      50218.233      36.893836      36.893836      36.893836    
    759000   0.55910389    -7.6863513     -6.8477074      4.6897516      50218.233      36.893836      36.893836      36.893836    
    760000   0.56012123    -7.6823877     -6.8422178      4.7169581      50218.233      36.893836      36.893836      36.893836    
    761000   0.56187797    -7.6816009     -6.838796       4.7233068      50218.233      36.893836      36.893836      36.893836    
    762000   0.56087216    -7.6788041     -6.8375078      4.7341418      50218.233      36.893836      36.893836      36.893836    
    763000   0.56394427    -7.6780124     -6.832108       4.7504031      50218.233      36.893836      36.893836      36.893836    
    764000   0.55856574    -7.6784289     -6.8405922      4.7536546      50218.233      36.893836      36.893836      36.893836    
    765000   0.56437458    -7.6766208     -6.830071       4.7679369      50218.233      36.893836      36.893836      36.893836    
    766000   0.55849176    -7.6823863     -6.8446605      4.699532       50218.233      36.893836      36.893836      36.893836    
    767000   0.5602402     -7.6757814     -6.8354331      4.7655694      50218.233      36.893836      36.893836      36.893836    
    768000   0.55900211    -7.6795163     -6.8410251      4.7369171      50218.233      36.893836      36.893836      36.893836    
    769000   0.56066888    -7.6782829     -6.8372915      4.7398318      50218.233      36.893836      36.893836      36.893836    
    770000   0.5578426     -7.679921      -6.843169       4.734791       50218.233      36.893836      36.893836      36.893836    
    771000   0.56268071    -7.6815541     -6.837545       4.7273639      50218.233      36.893836      36.893836      36.893836    
    772000   0.55840456    -7.6808322     -6.8432373      4.7303114      50218.233      36.893836      36.893836      36.893836    
    773000   0.56274925    -7.6810463     -6.8369344      4.7296286      50218.233      36.893836      36.893836      36.893836    
    774000   0.56078555    -7.6829618     -6.8417955      4.724617       50218.233      36.893836      36.893836      36.893836    
    775000   0.56300143    -7.6793287     -6.8348386      4.7438531      50218.233      36.893836      36.893836      36.893836    
    776000   0.56195594    -7.6791511     -6.8362292      4.7221542      50218.233      36.893836      36.893836      36.893836    
    777000   0.55892491    -7.6787563     -6.8403809      4.7372173      50218.233      36.893836      36.893836      36.893836    
    778000   0.55913312    -7.6810703     -6.8423826      4.7285354      50218.233      36.893836      36.893836      36.893836    
    779000   0.56208842    -7.6802289     -6.8371082      4.7422092      50218.233      36.893836      36.893836      36.893836    
    780000   0.55866866    -7.6808386     -6.8428475      4.7304521      50218.233      36.893836      36.893836      36.893836    
    781000   0.55994909    -7.6796455     -6.8397338      4.7411756      50218.233      36.893836      36.893836      36.893836    
    782000   0.55751318    -7.6796313     -6.8433735      4.7312247      50218.233      36.893836      36.893836      36.893836    
    783000   0.55759193    -7.6800074     -6.8436314      4.73124        50218.233      36.893836      36.893836      36.893836    
    784000   0.56142988    -7.6827557     -6.8406229      4.7131361      50218.233      36.893836      36.893836      36.893836    
    785000   0.56017602    -7.6739834     -6.8337313      4.7737972      50218.233      36.893836      36.893836      36.893836    
    786000   0.56048325    -7.6802798     -6.8395669      4.7307412      50218.233      36.893836      36.893836      36.893836    
    787000   0.5608151     -7.6771        -6.8358893      4.7411933      50218.233      36.893836      36.893836      36.893836    
    788000   0.5594766     -7.6818158     -6.8426129      4.703242       50218.233      36.893836      36.893836      36.893836    
    789000   0.5574689     -7.6765241     -6.8403326      4.7475621      50218.233      36.893836      36.893836      36.893836    
    790000   0.56197115    -7.6851678     -6.8422231      4.6983559      50218.233      36.893836      36.893836      36.893836    
    791000   0.55873315    -7.6842378     -6.84615        4.6969329      50218.233      36.893836      36.893836      36.893836    
    792000   0.55864907    -7.6824164     -6.8444548      4.7008984      50218.233      36.893836      36.893836      36.893836    
    793000   0.56028226    -7.6829462     -6.8425347      4.7164078      50218.233      36.893836      36.893836      36.893836    
    794000   0.56154215    -7.6804093     -6.8381081      4.7244296      50218.233      36.893836      36.893836      36.893836    
    795000   0.55860502    -7.6787481     -6.8408525      4.738283       50218.233      36.893836      36.893836      36.893836    
    796000   0.55747336    -7.6751841     -6.838986       4.7549719      50218.233      36.893836      36.893836      36.893836    
    797000   0.55895731    -7.6767675     -6.8383435      4.755618       50218.233      36.893836      36.893836      36.893836    
    798000   0.56161351    -7.6841312     -6.8417229      4.6987338      50218.233      36.893836      36.893836      36.893836    
    799000   0.56424927    -7.6792908     -6.8329289      4.7336876      50218.233      36.893836      36.893836      36.893836    
    800000   0.55840028    -7.6800387     -6.8424502      4.7329783      50218.233      36.893836      36.893836      36.893836    
    801000   0.56015702    -7.6802274     -6.8400038      4.7335283      50218.233      36.893836      36.893836      36.893836    
    802000   0.55868824    -7.6777986     -6.8397782      4.7524214      50218.233      36.893836      36.893836      36.893836    
    803000   0.56057387    -7.6779586     -6.8371097      4.7507885      50218.233      36.893836      36.893836      36.893836    
    804000   0.5584213     -7.6767574     -6.8391373      4.7564442      50218.233      36.893836      36.893836      36.893836    
    805000   0.55879059    -7.6772866     -6.8391127      4.7555707      50218.233      36.893836      36.893836      36.893836    
    806000   0.55863429    -7.677525      -6.8395855      4.7525103      50218.233      36.893836      36.893836      36.893836    
    807000   0.55824494    -7.6748495     -6.837494       4.7729696      50218.233      36.893836      36.893836      36.893836    
    808000   0.55743057    -7.6751888     -6.8390548      4.770773       50218.233      36.893836      36.893836      36.893836    
    809000   0.56186789    -7.6750182     -6.8322283      4.7643591      50218.233      36.893836      36.893836      36.893836    
    810000   0.56015876    -7.6744379     -6.8342117      4.7705993      50218.233      36.893836      36.893836      36.893836    
    811000   0.55718107    -7.6808702     -6.8451105      4.7244428      50218.233      36.893836      36.893836      36.893836    
    812000   0.56124066    -7.6769145     -6.8350655      4.753404       50218.233      36.893836      36.893836      36.893836    
    813000   0.55989426    -7.6781832     -6.8383538      4.7421751      50218.233      36.893836      36.893836      36.893836    
    814000   0.56108143    -7.6814528     -6.8398426      4.7219086      50218.233      36.893836      36.893836      36.893836    
    815000   0.56006622    -7.6736689     -6.8335815      4.7825333      50218.233      36.893836      36.893836      36.893836    
    816000   0.55927881    -7.680822      -6.8419157      4.7189177      50218.233      36.893836      36.893836      36.893836    
    817000   0.55979255    -7.6852114     -6.8455345      4.6951312      50218.233      36.893836      36.893836      36.893836    
    818000   0.55855359    -7.6801376     -6.8423191      4.7404786      50218.233      36.893836      36.893836      36.893836    
    819000   0.55922952    -7.684355      -6.8455226      4.7044823      50218.233      36.893836      36.893836      36.893836    
    820000   0.56091422    -7.6753813     -6.834022       4.7796214      50218.233      36.893836      36.893836      36.893836    
    821000   0.56006304    -7.678025      -6.8379424      4.7478572      50218.233      36.893836      36.893836      36.893836    
    822000   0.56111245    -7.6794406     -6.8377839      4.7432678      50218.233      36.893836      36.893836      36.893836    
    823000   0.55977366    -7.6784935     -6.8388449      4.7473763      50218.233      36.893836      36.893836      36.893836    
    824000   0.56088328    -7.6800975     -6.8387845      4.7451881      50218.233      36.893836      36.893836      36.893836    
    825000   0.56169318    -7.677093      -6.8345652      4.7641714      50218.233      36.893836      36.893836      36.893836    
    826000   0.55654738    -7.6829626     -6.8481534      4.7076047      50218.233      36.893836      36.893836      36.893836    
    827000   0.56111619    -7.6772348     -6.8355725      4.7601111      50218.233      36.893836      36.893836      36.893836    
    828000   0.55827693    -7.6764966     -6.8390931      4.7640922      50218.233      36.893836      36.893836      36.893836    
    829000   0.56090839    -7.6764992     -6.8351486      4.758119       50218.233      36.893836      36.893836      36.893836    
    830000   0.56029878    -7.6762464     -6.8358102      4.7705513      50218.233      36.893836      36.893836      36.893836    
    831000   0.55805303    -7.6802524     -6.8431847      4.7272566      50218.233      36.893836      36.893836      36.893836    
    832000   0.55767217    -7.6812968     -6.8448004      4.7156541      50218.233      36.893836      36.893836      36.893836    
    833000   0.5614178     -7.6794009     -6.8372862      4.7430533      50218.233      36.893836      36.893836      36.893836    
    834000   0.56253205    -7.6785224     -6.8347364      4.7481848      50218.233      36.893836      36.893836      36.893836    
    835000   0.56349897    -7.67261       -6.8273736      4.7943522      50218.233      36.893836      36.893836      36.893836    
    836000   0.55820108    -7.6819637     -6.844674       4.7234508      50218.233      36.893836      36.893836      36.893836    
    837000   0.5609381     -7.6805149     -6.8391197      4.7206442      50218.233      36.893836      36.893836      36.893836    
    838000   0.56196052    -7.6756772     -6.8327484      4.7722704      50218.233      36.893836      36.893836      36.893836    
    839000   0.5594793     -7.6804314     -6.8412244      4.7332464      50218.233      36.893836      36.893836      36.893836    
    840000   0.55813281    -7.6803063     -6.843119       4.7239374      50218.233      36.893836      36.893836      36.893836    
    841000   0.56149577    -7.6798321     -6.8376004      4.7362149      50218.233      36.893836      36.893836      36.893836    
    842000   0.56156135    -7.6823822     -6.8400522      4.7198981      50218.233      36.893836      36.893836      36.893836    
    843000   0.56199361    -7.6775511     -6.8345727      4.7628225      50218.233      36.893836      36.893836      36.893836    
    844000   0.55935979    -7.6831783     -6.8441506      4.7145858      50218.233      36.893836      36.893836      36.893836    
    845000   0.55959714    -7.6777035     -6.8383197      4.7615446      50218.233      36.893836      36.893836      36.893836    
    846000   0.55882701    -7.6762956     -6.838067       4.7708273      50218.233      36.893836      36.893836      36.893836    
    847000   0.55868609    -7.6842128     -6.8461956      4.6920809      50218.233      36.893836      36.893836      36.893836    
    848000   0.56095942    -7.6822295     -6.8408023      4.7127592      50218.233      36.893836      36.893836      36.893836    
    849000   0.56274242    -7.6830354     -6.8389338      4.7042387      50218.233      36.893836      36.893836      36.893836    
    850000   0.55850585    -7.6826797     -6.8449329      4.714574       50218.233      36.893836      36.893836      36.893836    
    851000   0.56021124    -7.6778344     -6.8375295      4.7514476      50218.233      36.893836      36.893836      36.893836    
    852000   0.56040129    -7.6799801     -6.8393901      4.7447008      50218.233      36.893836      36.893836      36.893836    
    853000   0.56578964    -7.6761611     -6.8274887      4.7733903      50218.233      36.893836      36.893836      36.893836    
    854000   0.5610877     -7.6775089     -6.8358893      4.7645764      50218.233      36.893836      36.893836      36.893836    
    855000   0.56104836    -7.677515      -6.8359545      4.7611534      50218.233      36.893836      36.893836      36.893836    
    856000   0.55853417    -7.6814567     -6.8436674      4.7370489      50218.233      36.893836      36.893836      36.893836    
    857000   0.55977678    -7.6797202     -6.840067       4.7379464      50218.233      36.893836      36.893836      36.893836    
    858000   0.55795829    -7.6801586     -6.8432331      4.732927       50218.233      36.893836      36.893836      36.893836    
    859000   0.55800562    -7.6813609     -6.8443644      4.7260762      50218.233      36.893836      36.893836      36.893836    
    860000   0.55989385    -7.678564      -6.8387351      4.73967        50218.233      36.893836      36.893836      36.893836    
    861000   0.55892644    -7.6752475     -6.8368697      4.7702108      50218.233      36.893836      36.893836      36.893836    
    862000   0.5579286     -7.6817718     -6.8448908      4.7127629      50218.233      36.893836      36.893836      36.893836    
    863000   0.55903151    -7.6807508     -6.8422154      4.7371975      50218.233      36.893836      36.893836      36.893836    
    864000   0.56156495    -7.6810985     -6.838763       4.7356293      50218.233      36.893836      36.893836      36.893836    
    865000   0.55992919    -7.6792631     -6.8393813      4.7436965      50218.233      36.893836      36.893836      36.893836    
    866000   0.55948638    -7.6769811     -6.8377635      4.7490885      50218.233      36.893836      36.893836      36.893836    
    867000   0.56011538    -7.6794273     -6.8392662      4.7378102      50218.233      36.893836      36.893836      36.893836    
    868000   0.55987255    -7.6795511     -6.8397543      4.74729        50218.233      36.893836      36.893836      36.893836    
    869000   0.55916626    -7.6777528     -6.8390153      4.7525306      50218.233      36.893836      36.893836      36.893836    
    870000   0.56052936    -7.6809204     -6.8401383      4.7304005      50218.233      36.893836      36.893836      36.893836    
    871000   0.55898156    -7.6837292     -6.8452688      4.706528       50218.233      36.893836      36.893836      36.893836    
    872000   0.55891364    -7.679246      -6.8408875      4.746479       50218.233      36.893836      36.893836      36.893836    
    873000   0.56069041    -7.6814576     -6.840434       4.712716       50218.233      36.893836      36.893836      36.893836    
    874000   0.55859662    -7.6793889     -6.8415059      4.7351298      50218.233      36.893836      36.893836      36.893836    
    875000   0.5603312     -7.6808015     -6.8403167      4.7291591      50218.233      36.893836      36.893836      36.893836    
    876000   0.55849757    -7.6809117     -6.8431773      4.7152554      50218.233      36.893836      36.893836      36.893836    
    877000   0.56123637    -7.6797853     -6.8379428      4.7393204      50218.233      36.893836      36.893836      36.893836    
    878000   0.55943632    -7.6793721     -6.8402296      4.725721       50218.233      36.893836      36.893836      36.893836    
    879000   0.56185345    -7.6802352     -6.837467       4.7348251      50218.233      36.893836      36.893836      36.893836    
    880000   0.55985638    -7.681958      -6.8421854      4.7198169      50218.233      36.893836      36.893836      36.893836    
    881000   0.56159196    -7.682205      -6.8398291      4.7265558      50218.233      36.893836      36.893836      36.893836    
    882000   0.56156345    -7.6808783     -6.8385451      4.7243648      50218.233      36.893836      36.893836      36.893836    
    883000   0.55846219    -7.6781214     -6.8404401      4.7397203      50218.233      36.893836      36.893836      36.893836    
    884000   0.55917535    -7.6829386     -6.8441875      4.7103668      50218.233      36.893836      36.893836      36.893836    
    885000   0.56330714    -7.6818664     -6.8369177      4.7329869      50218.233      36.893836      36.893836      36.893836    
    886000   0.56060174    -7.6809508     -6.8400601      4.722847       50218.233      36.893836      36.893836      36.893836    
    887000   0.55502458    -7.6782208     -6.8456958      4.7352249      50218.233      36.893836      36.893836      36.893836    
    888000   0.56135605    -7.6860364     -6.8440143      4.6793546      50218.233      36.893836      36.893836      36.893836    
    889000   0.55937166    -7.6867572     -6.8477117      4.6786269      50218.233      36.893836      36.893836      36.893836    
    890000   0.55831703    -7.6872024     -6.8497388      4.658684       50218.233      36.893836      36.893836      36.893836    
    891000   0.56014678    -7.6868246     -6.8466163      4.68022        50218.233      36.893836      36.893836      36.893836    
    892000   0.56126018    -7.6850809     -6.8432026      4.7005755      50218.233      36.893836      36.893836      36.893836    
    893000   0.56060228    -7.6806506     -6.8397592      4.7292972      50218.233      36.893836      36.893836      36.893836    
    894000   0.56295047    -7.6791874     -6.8347737      4.7474035      50218.233      36.893836      36.893836      36.893836    
    895000   0.55936211    -7.6869113     -6.8478801      4.6753773      50218.233      36.893836      36.893836      36.893836    
    896000   0.55768658    -7.6772525     -6.8407345      4.7592761      50218.233      36.893836      36.893836      36.893836    
    897000   0.55743215    -7.6795985     -6.8434622      4.7382085      50218.233      36.893836      36.893836      36.893836    
    898000   0.55801306    -7.6794739     -6.8424662      4.7349999      50218.233      36.893836      36.893836      36.893836    
    899000   0.55997482    -7.6811661     -6.8412159      4.7258554      50218.233      36.893836      36.893836      36.893836    
    900000   0.55945412    -7.680148      -6.8409787      4.7241458      50218.233      36.893836      36.893836      36.893836    
    901000   0.56045167    -7.6805081     -6.8398426      4.7322292      50218.233      36.893836      36.893836      36.893836    
    902000   0.56048006    -7.6793018     -6.8385937      4.748692       50218.233      36.893836      36.893836      36.893836    
    903000   0.5635957     -7.6780924     -6.8327109      4.7548009      50218.233      36.893836      36.893836      36.893836    
    904000   0.55971087    -7.6829009     -6.8433466      4.7075968      50218.233      36.893836      36.893836      36.893836    
    905000   0.5576744     -7.6818661     -6.8453664      4.7192285      50218.233      36.893836      36.893836      36.893836    
    906000   0.5585675     -7.6836737     -6.8458344      4.7111648      50218.233      36.893836      36.893836      36.893836    
    907000   0.56074701    -7.6794743     -6.8383658      4.7392048      50218.233      36.893836      36.893836      36.893836    
    908000   0.55967977    -7.6845128     -6.845005       4.685338       50218.233      36.893836      36.893836      36.893836    
    909000   0.56023151    -7.6813496     -6.8410143      4.7242873      50218.233      36.893836      36.893836      36.893836    
    910000   0.56080821    -7.6802137     -6.8390134      4.7363289      50218.233      36.893836      36.893836      36.893836    
    911000   0.55736234    -7.6806478     -6.8446162      4.7306126      50218.233      36.893836      36.893836      36.893836    
    912000   0.55997116    -7.6817221     -6.8417773      4.7092686      50218.233      36.893836      36.893836      36.893836    
    913000   0.55646145    -7.6849936     -6.8503133      4.7113427      50218.233      36.893836      36.893836      36.893836    
    914000   0.55918624    -7.6821338     -6.8433664      4.7158286      50218.233      36.893836      36.893836      36.893836    
    915000   0.55920141    -7.682343      -6.8435528      4.717046       50218.233      36.893836      36.893836      36.893836    
    916000   0.56160507    -7.6789597     -6.8365641      4.7471754      50218.233      36.893836      36.893836      36.893836    
    917000   0.55969996    -7.6779711     -6.8384331      4.7496237      50218.233      36.893836      36.893836      36.893836    
    918000   0.55885579    -7.6755015     -6.8372297      4.7737689      50218.233      36.893836      36.893836      36.893836    
    919000   0.56077977    -7.6773377     -6.83618        4.7510038      50218.233      36.893836      36.893836      36.893836    
    920000   0.55846224    -7.6791886     -6.8415071      4.7455301      50218.233      36.893836      36.893836      36.893836    
    921000   0.55871629    -7.6787271     -6.8406646      4.7418115      50218.233      36.893836      36.893836      36.893836    
    922000   0.55941761    -7.6794411     -6.8403266      4.7457369      50218.233      36.893836      36.893836      36.893836    
    923000   0.56070685    -7.6776542     -6.8366059      4.760485       50218.233      36.893836      36.893836      36.893836    
    924000   0.5605709     -7.6764476     -6.8356032      4.7630538      50218.233      36.893836      36.893836      36.893836    
    925000   0.56048146    -7.6819182     -6.8412079      4.7226266      50218.233      36.893836      36.893836      36.893836    
    926000   0.5635945     -7.6829019     -6.8375222      4.7124581      50218.233      36.893836      36.893836      36.893836    
    927000   0.56169962    -7.6844805     -6.8419431      4.6989369      50218.233      36.893836      36.893836      36.893836    
    928000   0.5613046     -7.6810053     -6.8390604      4.7361951      50218.233      36.893836      36.893836      36.893836    
    929000   0.56132522    -7.6816188     -6.839643       4.7396578      50218.233      36.893836      36.893836      36.893836    
    930000   0.56371957    -7.6796849     -6.8341176      4.7465199      50218.233      36.893836      36.893836      36.893836    
    931000   0.56231735    -7.6829805     -6.8395165      4.7196879      50218.233      36.893836      36.893836      36.893836    
    932000   0.56008745    -7.6769052     -6.836786       4.7570732      50218.233      36.893836      36.893836      36.893836    
    933000   0.5612685     -7.6800146     -6.8381239      4.735416       50218.233      36.893836      36.893836      36.893836    
    934000   0.55824663    -7.6786499     -6.8412919      4.7388708      50218.233      36.893836      36.893836      36.893836    
    935000   0.56322462    -7.6837233     -6.8388984      4.7204056      50218.233      36.893836      36.893836      36.893836    
    936000   0.56115049    -7.6788486     -6.8371348      4.739701       50218.233      36.893836      36.893836      36.893836    
    937000   0.56224675    -7.67779       -6.8344319      4.7565338      50218.233      36.893836      36.893836      36.893836    
    938000   0.55904981    -7.6813387     -6.8427759      4.7315266      50218.233      36.893836      36.893836      36.893836    
    939000   0.56006416    -7.6842169     -6.8441326      4.7153864      50218.233      36.893836      36.893836      36.893836    
    940000   0.56175375    -7.6802118     -6.8375932      4.747359       50218.233      36.893836      36.893836      36.893836    
    941000   0.55922225    -7.6814313     -6.8426099      4.7323016      50218.233      36.893836      36.893836      36.893836    
    942000   0.56040693    -7.6810315     -6.840433       4.7284007      50218.233      36.893836      36.893836      36.893836    
    943000   0.56237825    -7.6796027     -6.8360474      4.7424137      50218.233      36.893836      36.893836      36.893836    
    944000   0.55854291    -7.6801148     -6.8423124      4.7217246      50218.233      36.893836      36.893836      36.893836    
    945000   0.56045824    -7.6786147     -6.8379393      4.7401661      50218.233      36.893836      36.893836      36.893836    
    946000   0.55575388    -7.6785793     -6.8449603      4.7423598      50218.233      36.893836      36.893836      36.893836    
    947000   0.55798842    -7.6777395     -6.8407688      4.7433513      50218.233      36.893836      36.893836      36.893836    
    948000   0.55970954    -7.6811945     -6.8416421      4.7282668      50218.233      36.893836      36.893836      36.893836    
    949000   0.55995925    -7.6798827     -6.8399558      4.7475121      50218.233      36.893836      36.893836      36.893836    
    950000   0.55966443    -7.6786721     -6.8391874      4.7537395      50218.233      36.893836      36.893836      36.893836    
    951000   0.55908578    -7.6782749     -6.8396581      4.7590773      50218.233      36.893836      36.893836      36.893836    
    952000   0.55957614    -7.6808699     -6.8415176      4.7414323      50218.233      36.893836      36.893836      36.893836    
    953000   0.56092638    -7.6817608     -6.8403832      4.7352465      50218.233      36.893836      36.893836      36.893836    
    954000   0.56024748    -7.6741844     -6.8338251      4.7861644      50218.233      36.893836      36.893836      36.893836    
    955000   0.55729592    -7.678005      -6.842073       4.7481424      50218.233      36.893836      36.893836      36.893836    
    956000   0.55665574    -7.6814304     -6.8464587      4.7188706      50218.233      36.893836      36.893836      36.893836    
    957000   0.55926753    -7.6748123     -6.8359229      4.7684745      50218.233      36.893836      36.893836      36.893836    
    958000   0.55843654    -7.6771807     -6.8395378      4.7531246      50218.233      36.893836      36.893836      36.893836    
    959000   0.56223842    -7.6764116     -6.833066       4.7636601      50218.233      36.893836      36.893836      36.893836    
    960000   0.56171705    -7.6755343     -6.8329707      4.7800126      50218.233      36.893836      36.893836      36.893836    
    961000   0.56332751    -7.6784714     -6.8334922      4.7688508      50218.233      36.893836      36.893836      36.893836    
    962000   0.55898099    -7.6795267     -6.8410672      4.7437509      50218.233      36.893836      36.893836      36.893836    
    963000   0.55877025    -7.6791762     -6.8410328      4.7464507      50218.233      36.893836      36.893836      36.893836    
    964000   0.56249571    -7.6817569     -6.8380253      4.7289577      50218.233      36.893836      36.893836      36.893836    
    965000   0.55988267    -7.6860394     -6.8462273      4.6936358      50218.233      36.893836      36.893836      36.893836    
    966000   0.56057709    -7.6797767     -6.838923       4.7381488      50218.233      36.893836      36.893836      36.893836    
    967000   0.5595792     -7.6801426     -6.8407857      4.7556072      50218.233      36.893836      36.893836      36.893836    
    968000   0.56020846    -7.6792543     -6.8389536      4.7438742      50218.233      36.893836      36.893836      36.893836    
    969000   0.55874584    -7.6801093     -6.8420025      4.7393037      50218.233      36.893836      36.893836      36.893836    
    970000   0.55976038    -7.6819186     -6.84229        4.7215272      50218.233      36.893836      36.893836      36.893836    
    971000   0.5575412     -7.6823313     -6.8460314      4.732963       50218.233      36.893836      36.893836      36.893836    
    972000   0.5588958     -7.6806795     -6.8423477      4.731219       50218.233      36.893836      36.893836      36.893836    
    973000   0.56021777    -7.6835116     -6.8431968      4.7225725      50218.233      36.893836      36.893836      36.893836    
    974000   0.56116523    -7.6859585     -6.8442226      4.6985891      50218.233      36.893836      36.893836      36.893836    
    975000   0.5609015     -7.6764545     -6.8351142      4.7551953      50218.233      36.893836      36.893836      36.893836    
    976000   0.56244471    -7.6785314     -6.8348764      4.7583851      50218.233      36.893836      36.893836      36.893836    
    977000   0.5605338     -7.6857087     -6.84492        4.6887398      50218.233      36.893836      36.893836      36.893836    
    978000   0.55678862    -7.6782134     -6.8430423      4.7505098      50218.233      36.893836      36.893836      36.893836    
    979000   0.55925762    -7.678434      -6.8395595      4.7521392      50218.233      36.893836      36.893836      36.893836    
    980000   0.56111065    -7.6791334     -6.8374794      4.7380688      50218.233      36.893836      36.893836      36.893836    
    981000   0.55956139    -7.6783781     -6.8390479      4.7454144      50218.233      36.893836      36.893836      36.893836    
    982000   0.56049193    -7.680282      -6.839556       4.7455369      50218.233      36.893836      36.893836      36.893836    
    983000   0.55923026    -7.675583      -6.8367496      4.7687286      50218.233      36.893836      36.893836      36.893836    
    984000   0.56061259    -7.6795197     -6.8386127      4.7408547      50218.233      36.893836      36.893836      36.893836    
    985000   0.55973699    -7.6808539     -6.8412604      4.7430628      50218.233      36.893836      36.893836      36.893836    
    986000   0.56129757    -7.6825043     -6.8405699      4.7188164      50218.233      36.893836      36.893836      36.893836    
    987000   0.55901107    -7.680467      -6.8419624      4.7323352      50218.233      36.893836      36.893836      36.893836    
    988000   0.56090866    -7.6812064     -6.8398553      4.7327386      50218.233      36.893836      36.893836      36.893836    
    989000   0.5571992     -7.6790327     -6.8432458      4.738045       50218.233      36.893836      36.893836      36.893836    
    990000   0.56127286    -7.682722      -6.8408247      4.7267233      50218.233      36.893836      36.893836      36.893836    
    991000   0.55808035    -7.681964      -6.8448554      4.7383396      50218.233      36.893836      36.893836      36.893836    
    992000   0.56206427    -7.6777754     -6.834691       4.7425113      50218.233      36.893836      36.893836      36.893836    
    993000   0.56415268    -7.6794312     -6.8332143      4.7545728      50218.233      36.893836      36.893836      36.893836    
    994000   0.55887558    -7.6795828     -6.8412813      4.7403414      50218.233      36.893836      36.893836      36.893836    
    995000   0.55986711    -7.6795207     -6.839732       4.7338362      50218.233      36.893836      36.893836      36.893836    
    996000   0.55917768    -7.6805006     -6.841746       4.7356938      50218.233      36.893836      36.893836      36.893836    
    997000   0.5611545     -7.6785669     -6.8368471      4.7461051      50218.233      36.893836      36.893836      36.893836    
    998000   0.56091724    -7.6821601     -6.8407962      4.7237201      50218.233      36.893836      36.893836      36.893836    
    999000   0.55934991    -7.6799649     -6.840952       4.7365697      50218.233      36.893836      36.893836      36.893836    
   1000000   0.55813817    -7.6819582     -6.8447628      4.7140601      50218.233      36.893836      36.893836      36.893836    
Loop time of 1647.73 on 4 procs for 1000000 steps with 70304 atoms

Performance: 524357.791 tau/day, 606.896 timesteps/s, 42.667 Matom-step/s
95.2% CPU use with 4 MPI tasks x 1 OpenMP threads

MPI task timing breakdown:
Section |  min time  |  avg time  |  max time  |%varavg| %total
---------------------------------------------------------------
Pair    | 490.89     | 583.44     | 659.76     | 249.9 | 35.41
Neigh   | 6.4415     | 7.0039     | 7.3194     |  12.7 |  0.43
Comm    | 244.67     | 248.78     | 252.75     |  22.4 | 15.10
Output  | 0.19987    | 0.20736    | 0.21914    |   1.6 |  0.01
Modify  | 640.19     | 714.5      | 802.95     | 217.7 | 43.36
Other   |            | 93.8       |            |       |  5.69

Nlocal:          17576 ave       17604 max       17535 min
Histogram: 1 0 0 0 0 0 1 1 0 1
Nghost:        16840.2 ave       16901 max       16799 min
Histogram: 2 0 0 0 0 1 0 0 0 1
Neighs:              0 ave           0 max           0 min
Histogram: 4 0 0 0 0 0 0 0 0 0

Total # of neighbors = 0
Ave neighs/atom = 0
Neighbor list builds = 218352
Dangerous builds = 0
clear
OMP_NUM_THREADS environment is not set. Defaulting to 1 thread. (src/comm.cpp:98)
  using 1 OpenMP thread(s) per MPI task
package gpu 0
jump dms540.lmp

variable T equal 540
# T = 1000* (temp in LJ unit)
variable f equal 1000
log log.${T}
log log.540
