variable TLJ equal (${T}/1000)
variable TLJ equal (660/1000)
variable NCyle equal 10
variable iStep equal (${f})
variable iStep equal (1000)
variable dumpStep equal (${f}*100)
variable dumpStep equal (1000*100)
variable runStep equal (${f}*100*${NCyle})
variable runStep equal (1000*100*${NCyle})
variable runStep equal (1000*100*10)

units       lj
atom_style  atomic
dimension 3
boundary     p p p
pair_style  lj/cut 2.5
read_data  ../data/T${T}.dat
read_data  ../data/T660.dat
Reading data file ...
  orthogonal box = (0.97250269 0.97250269 0.97250269) to (37.866338 37.866338 37.866338)
  1 by 1 by 5 MPI processor grid
  reading atoms ...
  70304 atoms
  reading velocities ...
  70304 velocities
  read_data CPU = 0.261 seconds
change_box all triclinic
Changing box ...
  triclinic box = (0.97250269 0.97250269 0.97250269) to (37.866338 37.866338 37.866338) with tilt (0 0 0)
mass 1 1
mass 2 1
pair_modify shift yes
pair_coeff  1 1 1 1
pair_coeff  1 2 1.5 0.8
pair_coeff  2 2 0.5 0.88


timestep 0.01
thermo ${iStep}
thermo 1000
reset_timestep 0
thermo_style custom step temp pe etotal press vol lx ly lz
fix             1 all nvt temp ${TLJ}  ${TLJ}  0.1
fix             1 all nvt temp 0.66  ${TLJ}  0.1
fix             1 all nvt temp 0.66  0.66  0.1
thermo_modify flush yes

fix dsf all deform 1 xy  wiggle 0.5  ${f}   units box
fix dsf all deform 1 xy  wiggle 0.5  1000   units box
fix ps1 all ave/time 1 1 ${iStep} c_thermo_press[1] c_thermo_press[2]  c_thermo_press[3] c_thermo_press[4]  c_thermo_press[5] c_thermo_press[6]  file  stress.${T}
fix ps1 all ave/time 1 1 1000 c_thermo_press[1] c_thermo_press[2]  c_thermo_press[3] c_thermo_press[4]  c_thermo_press[5] c_thermo_press[6]  file  stress.${T}
fix ps1 all ave/time 1 1 1000 c_thermo_press[1] c_thermo_press[2]  c_thermo_press[3] c_thermo_press[4]  c_thermo_press[5] c_thermo_press[6]  file  stress.660
dump            1 all custom ${dumpStep} dump.${T} id type x y z
dump            1 all custom 100000 dump.${T} id type x y z
dump            1 all custom 100000 dump.660 id type x y z
dump_modify 1 sort id
fix nodrift all momentum 1  linear 1 1 1
fix com_seed all recenter INIT INIT INIT shift all
run ${runStep}
run 1000000
Generated 0 of 1 mixed pair_coeff terms from geometric mixing rule
Per MPI rank memory allocation (min/avg/max) = 6.67 | 8.472 | 8.924 Mbytes
   Step          Temp          PotEng         TotEng         Press          Volume           Lx             Ly             Lz      
         0   0.66172441    -7.4780819     -6.4855094      6.3663572      50218.233      36.893836      36.893836      36.893836    
      1000   0.66015656    -7.4778963     -6.4876755      6.3626755      50218.233      36.893836      36.893836      36.893836    
      2000   0.66068323    -7.4727377     -6.4817269      6.3993089      50218.233      36.893836      36.893836      36.893836    
      3000   0.65889098    -7.4706466     -6.4823242      6.4107139      50218.233      36.893836      36.893836      36.893836    
      4000   0.65957996    -7.4684611     -6.4791052      6.4369598      50218.233      36.893836      36.893836      36.893836    
      5000   0.65912473    -7.4682454     -6.4795724      6.4225155      50218.233      36.893836      36.893836      36.893836    
      6000   0.65825049    -7.4720061     -6.4846444      6.3963974      50218.233      36.893836      36.893836      36.893836    
      7000   0.65884695    -7.4748544     -6.4865981      6.3896594      50218.233      36.893836      36.893836      36.893836    
      8000   0.65873356    -7.470038      -6.4819518      6.4284726      50218.233      36.893836      36.893836      36.893836    
      9000   0.65846183    -7.4703722     -6.4826935      6.4058075      50218.233      36.893836      36.893836      36.893836    
     10000   0.66055392    -7.4734372     -6.4826204      6.3910675      50218.233      36.893836      36.893836      36.893836    
     11000   0.66350179    -7.4717016     -6.4764631      6.4127218      50218.233      36.893836      36.893836      36.893836    
     12000   0.66001318    -7.4714278     -6.4814221      6.406335       50218.233      36.893836      36.893836      36.893836    
     13000   0.66120402    -7.4682499     -6.4764579      6.4372187      50218.233      36.893836      36.893836      36.893836    
     14000   0.66142963    -7.4762126     -6.4840823      6.3719131      50218.233      36.893836      36.893836      36.893836    
     15000   0.65844984    -7.47085       -6.4831893      6.400085       50218.233      36.893836      36.893836      36.893836    
     16000   0.6656522     -7.4724304     -6.4739663      6.4047924      50218.233      36.893836      36.893836      36.893836    
     17000   0.65887488    -7.4623974     -6.4740991      6.4812876      50218.233      36.893836      36.893836      36.893836    
     18000   0.6600982     -7.4680999     -6.4779667      6.4202321      50218.233      36.893836      36.893836      36.893836    
     19000   0.66323596    -7.4675359     -6.4726961      6.4373363      50218.233      36.893836      36.893836      36.893836    
     20000   0.65984768    -7.4718817     -6.4821242      6.3890521      50218.233      36.893836      36.893836      36.893836    
     21000   0.66018124    -7.4633162     -6.4730584      6.4563825      50218.233      36.893836      36.893836      36.893836    
     22000   0.66036341    -7.466362      -6.475831       6.4425938      50218.233      36.893836      36.893836      36.893836    
     23000   0.6584964     -7.4660689     -6.4783383      6.4350831      50218.233      36.893836      36.893836      36.893836    
     24000   0.65824548    -7.4695981     -6.4822439      6.4150834      50218.233      36.893836      36.893836      36.893836    
     25000   0.66113239    -7.473214      -6.4815295      6.3842175      50218.233      36.893836      36.893836      36.893836    
     26000   0.65845326    -7.4683948     -6.480729       6.4254377      50218.233      36.893836      36.893836      36.893836    
     27000   0.65980249    -7.4614327     -6.4717431      6.465648       50218.233      36.893836      36.893836      36.893836    
     28000   0.65998487    -7.4681236     -6.4781603      6.4210248      50218.233      36.893836      36.893836      36.893836    
     29000   0.65922247    -7.4739221     -6.4851025      6.3791719      50218.233      36.893836      36.893836      36.893836    
     30000   0.65932536    -7.4677193     -6.4787454      6.4432023      50218.233      36.893836      36.893836      36.893836    
     31000   0.66603049    -7.4726175     -6.4735859      6.4035699      50218.233      36.893836      36.893836      36.893836    
     32000   0.65679632    -7.4635356     -6.4783551      6.45398        50218.233      36.893836      36.893836      36.893836    
     33000   0.660749      -7.4735813     -6.4824719      6.3842841      50218.233      36.893836      36.893836      36.893836    
     34000   0.66199576    -7.4719525     -6.478973       6.397079       50218.233      36.893836      36.893836      36.893836    
     35000   0.65922236    -7.4728198     -6.4840003      6.4010025      50218.233      36.893836      36.893836      36.893836    
     36000   0.66175059    -7.4741344     -6.4815227      6.3870741      50218.233      36.893836      36.893836      36.893836    
     37000   0.66226442    -7.4739786     -6.4805961      6.3920857      50218.233      36.893836      36.893836      36.893836    
     38000   0.65770918    -7.4711026     -6.4845529      6.41271        50218.233      36.893836      36.893836      36.893836    
     39000   0.65748362    -7.4727512     -6.4865398      6.3827463      50218.233      36.893836      36.893836      36.893836    
     40000   0.6574365     -7.4739826     -6.4878419      6.388591       50218.233      36.893836      36.893836      36.893836    
     41000   0.65967863    -7.4745118     -6.485008       6.3770634      50218.233      36.893836      36.893836      36.893836    
     42000   0.65946299    -7.4750368     -6.4858564      6.376563       50218.233      36.893836      36.893836      36.893836    
     43000   0.66197076    -7.47457       -6.481628       6.3874488      50218.233      36.893836      36.893836      36.893836    
     44000   0.66016767    -7.4716499     -6.4814125      6.398868       50218.233      36.893836      36.893836      36.893836    
     45000   0.65948174    -7.471997      -6.4827884      6.396067       50218.233      36.893836      36.893836      36.893836    
     46000   0.66010599    -7.4685421     -6.4783972      6.4271333      50218.233      36.893836      36.893836      36.893836    
     47000   0.66223493    -7.4740758     -6.4807375      6.3996961      50218.233      36.893836      36.893836      36.893836    
     48000   0.65806223    -7.472083      -6.4850037      6.4023487      50218.233      36.893836      36.893836      36.893836    
     49000   0.65747374    -7.4750083     -6.4888118      6.3776173      50218.233      36.893836      36.893836      36.893836    
     50000   0.66272648    -7.4739606     -6.479885       6.3819148      50218.233      36.893836      36.893836      36.893836    
     51000   0.66441758    -7.4717853     -6.4751731      6.4115202      50218.233      36.893836      36.893836      36.893836    
     52000   0.66075384    -7.4709017     -6.4797851      6.4081414      50218.233      36.893836      36.893836      36.893836    
     53000   0.65831601    -7.4713408     -6.4838808      6.3975228      50218.233      36.893836      36.893836      36.893836    
     54000   0.66143325    -7.4679752     -6.4758394      6.4272154      50218.233      36.893836      36.893836      36.893836    
     55000   0.65771191    -7.4683426     -6.4817888      6.4128122      50218.233      36.893836      36.893836      36.893836    
     56000   0.65583556    -7.4698843     -6.4861449      6.418293       50218.233      36.893836      36.893836      36.893836    
     57000   0.65662811    -7.4699816     -6.4850535      6.4045983      50218.233      36.893836      36.893836      36.893836    
     58000   0.65809157    -7.4706012     -6.4834778      6.4016214      50218.233      36.893836      36.893836      36.893836    
     59000   0.65977897    -7.471774      -6.4821196      6.4078656      50218.233      36.893836      36.893836      36.893836    
     60000   0.65973794    -7.4726407     -6.4830479      6.4010282      50218.233      36.893836      36.893836      36.893836    
     61000   0.66016756    -7.4729957     -6.4827584      6.3942743      50218.233      36.893836      36.893836      36.893836    
     62000   0.66516703    -7.4698224     -6.472086       6.4260645      50218.233      36.893836      36.893836      36.893836    
     63000   0.65923186    -7.4755155     -6.4866817      6.378817       50218.233      36.893836      36.893836      36.893836    
     64000   0.65704179    -7.4749346     -6.4893859      6.3601323      50218.233      36.893836      36.893836      36.893836    
     65000   0.66118072    -7.4698805     -6.4781236      6.4061365      50218.233      36.893836      36.893836      36.893836    
     66000   0.66171221    -7.4694421     -6.4768879      6.4200589      50218.233      36.893836      36.893836      36.893836    
     67000   0.66107256    -7.4722282     -6.4806335      6.3930428      50218.233      36.893836      36.893836      36.893836    
     68000   0.66143132    -7.4683797     -6.4762468      6.4290096      50218.233      36.893836      36.893836      36.893836    
     69000   0.65829833    -7.4671192     -6.4796858      6.4435054      50218.233      36.893836      36.893836      36.893836    
     70000   0.66012433    -7.4754209     -6.4852485      6.3755155      50218.233      36.893836      36.893836      36.893836    
     71000   0.65914801    -7.4654352     -6.4767273      6.4451141      50218.233      36.893836      36.893836      36.893836    
     72000   0.65947903    -7.467051      -6.4778466      6.4292374      50218.233      36.893836      36.893836      36.893836    
     73000   0.65972679    -7.4645072     -6.4749311      6.4426836      50218.233      36.893836      36.893836      36.893836    
     74000   0.66124791    -7.4680725     -6.4762148      6.4253315      50218.233      36.893836      36.893836      36.893836    
     75000   0.65700705    -7.4703446     -6.484848       6.408056       50218.233      36.893836      36.893836      36.893836    
     76000   0.65989932    -7.4628134     -6.4729785      6.4623568      50218.233      36.893836      36.893836      36.893836    
     77000   0.66408168    -7.4735421     -6.4774338      6.3940561      50218.233      36.893836      36.893836      36.893836    
     78000   0.66043848    -7.4716188     -6.4809752      6.3833446      50218.233      36.893836      36.893836      36.893836    
     79000   0.66351169    -7.4715553     -6.4763019      6.4034392      50218.233      36.893836      36.893836      36.893836    
     80000   0.66163922    -7.4740255     -6.4815808      6.389914       50218.233      36.893836      36.893836      36.893836    
     81000   0.6609291     -7.4646679     -6.4732884      6.4616267      50218.233      36.893836      36.893836      36.893836    
     82000   0.65828525    -7.4729405     -6.4855266      6.3807019      50218.233      36.893836      36.893836      36.893836    
     83000   0.65990032    -7.4777428     -6.4879064      6.360356       50218.233      36.893836      36.893836      36.893836    
     84000   0.66093623    -7.4656663     -6.474276       6.4463078      50218.233      36.893836      36.893836      36.893836    
     85000   0.65580921    -7.4703467     -6.4866469      6.4073386      50218.233      36.893836      36.893836      36.893836    
     86000   0.65871761    -7.4773753     -6.4893129      6.3543459      50218.233      36.893836      36.893836      36.893836    
     87000   0.65771129    -7.4713465     -6.4847936      6.4080423      50218.233      36.893836      36.893836      36.893836    
     88000   0.65752978    -7.4712388     -6.4849581      6.3934134      50218.233      36.893836      36.893836      36.893836    
     89000   0.66295793    -7.4734471     -6.4790244      6.4074821      50218.233      36.893836      36.893836      36.893836    
     90000   0.66082979    -7.4736958     -6.4824652      6.3791728      50218.233      36.893836      36.893836      36.893836    
     91000   0.65908244    -7.4747826     -6.486173       6.3696724      50218.233      36.893836      36.893836      36.893836    
     92000   0.65761799    -7.4708957     -6.4844827      6.3982902      50218.233      36.893836      36.893836      36.893836    
     93000   0.65863996    -7.4694835     -6.4815376      6.4009206      50218.233      36.893836      36.893836      36.893836    
     94000   0.65917115    -7.470682      -6.4819393      6.4021651      50218.233      36.893836      36.893836      36.893836    
     95000   0.6599584     -7.4730038     -6.4830802      6.385084       50218.233      36.893836      36.893836      36.893836    
     96000   0.66343867    -7.4746952     -6.4795514      6.3727027      50218.233      36.893836      36.893836      36.893836    
     97000   0.66218823    -7.4719086     -6.4786404      6.4076799      50218.233      36.893836      36.893836      36.893836    
     98000   0.66230519    -7.4695901     -6.4761465      6.4084908      50218.233      36.893836      36.893836      36.893836    
     99000   0.65533193    -7.4668791     -6.4838952      6.4392849      50218.233      36.893836      36.893836      36.893836    
    100000   0.65656709    -7.4667985     -6.4819618      6.4271017      50218.233      36.893836      36.893836      36.893836    
    101000   0.6595734     -7.4712454     -6.4818993      6.402129       50218.233      36.893836      36.893836      36.893836    
    102000   0.65898516    -7.4667092     -6.4782455      6.4313673      50218.233      36.893836      36.893836      36.893836    
    103000   0.6547973     -7.467118      -6.484936       6.434554       50218.233      36.893836      36.893836      36.893836    
    104000   0.66268896    -7.4702102     -6.4761908      6.417252       50218.233      36.893836      36.893836      36.893836    
    105000   0.65841129    -7.464465      -6.4768621      6.4675295      50218.233      36.893836      36.893836      36.893836    
    106000   0.66005424    -7.469727      -6.4796597      6.4296698      50218.233      36.893836      36.893836      36.893836    
    107000   0.66214131    -7.4674298     -6.4742319      6.4340371      50218.233      36.893836      36.893836      36.893836    
    108000   0.65821268    -7.4705506     -6.4832456      6.4080321      50218.233      36.893836      36.893836      36.893836    
    109000   0.65800861    -7.4627104     -6.4757115      6.4617581      50218.233      36.893836      36.893836      36.893836    
    110000   0.6604853     -7.4719179     -6.4812041      6.4049007      50218.233      36.893836      36.893836      36.893836    
    111000   0.66126198    -7.4700772     -6.4781983      6.4049194      50218.233      36.893836      36.893836      36.893836    
    112000   0.65827618    -7.4608968     -6.4734966      6.4739804      50218.233      36.893836      36.893836      36.893836    
    113000   0.6611832     -7.467826      -6.4760653      6.4405026      50218.233      36.893836      36.893836      36.893836    
    114000   0.66006462    -7.4653577     -6.4752749      6.4570328      50218.233      36.893836      36.893836      36.893836    
    115000   0.6633542     -7.4649379     -6.4699208      6.4660921      50218.233      36.893836      36.893836      36.893836    
    116000   0.65827213    -7.4623937     -6.4749996      6.4567364      50218.233      36.893836      36.893836      36.893836    
    117000   0.65740226    -7.4729163     -6.486827       6.3823965      50218.233      36.893836      36.893836      36.893836    
    118000   0.65981508    -7.4685242     -6.4788157      6.4196201      50218.233      36.893836      36.893836      36.893836    
    119000   0.65658321    -7.4681857     -6.4833249      6.4271101      50218.233      36.893836      36.893836      36.893836    
    120000   0.66042584    -7.4700733     -6.4794486      6.4283352      50218.233      36.893836      36.893836      36.893836    
    121000   0.65824736    -7.4689861     -6.4816291      6.4090027      50218.233      36.893836      36.893836      36.893836    
    122000   0.66038943    -7.4665188     -6.4759487      6.4461553      50218.233      36.893836      36.893836      36.893836    
    123000   0.65888627    -7.4622653     -6.47395        6.4689646      50218.233      36.893836      36.893836      36.893836    
    124000   0.65759256    -7.4657753     -6.4794005      6.4236505      50218.233      36.893836      36.893836      36.893836    
    125000   0.6635317     -7.4663907     -6.4711073      6.4405608      50218.233      36.893836      36.893836      36.893836    
    126000   0.66046678    -7.464271      -6.473585       6.4550024      50218.233      36.893836      36.893836      36.893836    
    127000   0.65865206    -7.473448      -6.485484       6.3847309      50218.233      36.893836      36.893836      36.893836    
    128000   0.66328442    -7.4677864     -6.4728739      6.4353491      50218.233      36.893836      36.893836      36.893836    
    129000   0.65918316    -7.4698736     -6.4811129      6.4024987      50218.233      36.893836      36.893836      36.893836    
    130000   0.66456661    -7.4712893     -6.4744536      6.3983491      50218.233      36.893836      36.893836      36.893836    
    131000   0.66109319    -7.4639679     -6.4723423      6.4534089      50218.233      36.893836      36.893836      36.893836    
    132000   0.66040171    -7.4736703     -6.4830818      6.3809972      50218.233      36.893836      36.893836      36.893836    
    133000   0.65871764    -7.4678747     -6.4798123      6.4281633      50218.233      36.893836      36.893836      36.893836    
    134000   0.66197221    -7.4734212     -6.480477       6.3873083      50218.233      36.893836      36.893836      36.893836    
    135000   0.65625567    -7.4701791     -6.4858096      6.4091317      50218.233      36.893836      36.893836      36.893836    
    136000   0.66114035    -7.4682733     -6.4765769      6.4245321      50218.233      36.893836      36.893836      36.893836    
    137000   0.6575769     -7.4682678     -6.4819165      6.4181437      50218.233      36.893836      36.893836      36.893836    
    138000   0.65941569    -7.4738439     -6.4847344      6.36891        50218.233      36.893836      36.893836      36.893836    
    139000   0.65871305    -7.4708777     -6.4828222      6.3904096      50218.233      36.893836      36.893836      36.893836    
    140000   0.65988548    -7.4685601     -6.4787459      6.4194439      50218.233      36.893836      36.893836      36.893836    
    141000   0.65979866    -7.4764759     -6.4867919      6.3748597      50218.233      36.893836      36.893836      36.893836    
    142000   0.65756151    -7.4769776     -6.4906494      6.3588618      50218.233      36.893836      36.893836      36.893836    
    143000   0.66024843    -7.4717076     -6.4813491      6.3989783      50218.233      36.893836      36.893836      36.893836    
    144000   0.66029384    -7.4690868     -6.4786601      6.4183272      50218.233      36.893836      36.893836      36.893836    
    145000   0.66137068    -7.4697889     -6.477747       6.4241768      50218.233      36.893836      36.893836      36.893836    
    146000   0.6598469     -7.4670173     -6.477261       6.436911       50218.233      36.893836      36.893836      36.893836    
    147000   0.65903148    -7.4739282     -6.485395       6.378694       50218.233      36.893836      36.893836      36.893836    
    148000   0.66079193    -7.4761321     -6.4849583      6.3712977      50218.233      36.893836      36.893836      36.893836    
    149000   0.66198575    -7.4671342     -6.4741697      6.4361304      50218.233      36.893836      36.893836      36.893836    
    150000   0.66168944    -7.4678186     -6.4752986      6.4259234      50218.233      36.893836      36.893836      36.893836    
    151000   0.65907268    -7.4668684     -6.4782734      6.4254308      50218.233      36.893836      36.893836      36.893836    
    152000   0.66190626    -7.4700709     -6.4772256      6.420274       50218.233      36.893836      36.893836      36.893836    
    153000   0.66052552    -7.4728328     -6.4820586      6.389655       50218.233      36.893836      36.893836      36.893836    
    154000   0.66489705    -7.4677407     -6.4704093      6.4088417      50218.233      36.893836      36.893836      36.893836    
    155000   0.65837579    -7.470422      -6.4828723      6.4060461      50218.233      36.893836      36.893836      36.893836    
    156000   0.6629584     -7.4690112     -6.4745878      6.4324468      50218.233      36.893836      36.893836      36.893836    
    157000   0.66156821    -7.4742261     -6.4818879      6.3883194      50218.233      36.893836      36.893836      36.893836    
    158000   0.65756518    -7.4690222     -6.4826885      6.4258985      50218.233      36.893836      36.893836      36.893836    
    159000   0.65930117    -7.4621749     -6.4732372      6.459118       50218.233      36.893836      36.893836      36.893836    
    160000   0.66270887    -7.4689163     -6.4748671      6.4245397      50218.233      36.893836      36.893836      36.893836    
    161000   0.65888332    -7.465785      -6.4774741      6.442004       50218.233      36.893836      36.893836      36.893836    
    162000   0.65898522    -7.4694762     -6.4810124      6.4217478      50218.233      36.893836      36.893836      36.893836    
    163000   0.65972043    -7.4660994     -6.4765328      6.4443611      50218.233      36.893836      36.893836      36.893836    
    164000   0.65715003    -7.4624556     -6.4767446      6.4616714      50218.233      36.893836      36.893836      36.893836    
    165000   0.65572496    -7.4658432     -6.4822697      6.439683       50218.233      36.893836      36.893836      36.893836    
    166000   0.65987711    -7.4701682     -6.4803666      6.4217625      50218.233      36.893836      36.893836      36.893836    
    167000   0.66111242    -7.4649604     -6.4733058      6.4599146      50218.233      36.893836      36.893836      36.893836    
    168000   0.65779535    -7.470794      -6.484115       6.4209172      50218.233      36.893836      36.893836      36.893836    
    169000   0.66065613    -7.4699513     -6.4789812      6.4142919      50218.233      36.893836      36.893836      36.893836    
    170000   0.65747212    -7.47099       -6.4847958      6.4130595      50218.233      36.893836      36.893836      36.893836    
    171000   0.66067977    -7.4711799     -6.4801743      6.4083406      50218.233      36.893836      36.893836      36.893836    
    172000   0.66162198    -7.4667467     -6.4743279      6.4341558      50218.233      36.893836      36.893836      36.893836    
    173000   0.65878057    -7.4680485     -6.4798917      6.4242133      50218.233      36.893836      36.893836      36.893836    
    174000   0.66029251    -7.4687514     -6.4783268      6.4266006      50218.233      36.893836      36.893836      36.893836    
    175000   0.65841659    -7.470186      -6.4825751      6.4164314      50218.233      36.893836      36.893836      36.893836    
    176000   0.66544871    -7.4700601     -6.4719013      6.4253053      50218.233      36.893836      36.893836      36.893836    
    177000   0.66304667    -7.4758337     -6.4812778      6.3666328      50218.233      36.893836      36.893836      36.893836    
    178000   0.65902011    -7.4632658     -6.4747497      6.4646001      50218.233      36.893836      36.893836      36.893836    
    179000   0.65717956    -7.4673977     -6.4816424      6.4357339      50218.233      36.893836      36.893836      36.893836    
    180000   0.66100931    -7.4634391     -6.4719393      6.4550434      50218.233      36.893836      36.893836      36.893836    
    181000   0.66190364    -7.4684611     -6.4756197      6.432793       50218.233      36.893836      36.893836      36.893836    
    182000   0.6602126     -7.469404      -6.4790992      6.42168        50218.233      36.893836      36.893836      36.893836    
    183000   0.65992675    -7.4723234     -6.4824474      6.3981855      50218.233      36.893836      36.893836      36.893836    
    184000   0.66094375    -7.4704137     -6.4790121      6.4100562      50218.233      36.893836      36.893836      36.893836    
    185000   0.66057243    -7.4721427     -6.4812981      6.4027855      50218.233      36.893836      36.893836      36.893836    
    186000   0.66029576    -7.4730474     -6.4826179      6.3927097      50218.233      36.893836      36.893836      36.893836    
    187000   0.65826705    -7.467738      -6.4803514      6.427815       50218.233      36.893836      36.893836      36.893836    
    188000   0.66293083    -7.4663207     -6.4719386      6.435713       50218.233      36.893836      36.893836      36.893836    
    189000   0.65908018    -7.4698039     -6.4811977      6.4216538      50218.233      36.893836      36.893836      36.893836    
    190000   0.66288512    -7.4743313     -6.4800178      6.3841668      50218.233      36.893836      36.893836      36.893836    
    191000   0.6607106     -7.4672723     -6.4762205      6.4502486      50218.233      36.893836      36.893836      36.893836    
    192000   0.66250482    -7.469486      -6.4757429      6.4267004      50218.233      36.893836      36.893836      36.893836    
    193000   0.65996265    -7.4742299     -6.4843001      6.3870815      50218.233      36.893836      36.893836      36.893836    
    194000   0.66222513    -7.4700381     -6.4767145      6.4168656      50218.233      36.893836      36.893836      36.893836    
    195000   0.66043297    -7.4721505     -6.4815152      6.3849768      50218.233      36.893836      36.893836      36.893836    
    196000   0.6613398     -7.4641077     -6.4721121      6.4574518      50218.233      36.893836      36.893836      36.893836    
    197000   0.65657501    -7.4683241     -6.4834756      6.422501       50218.233      36.893836      36.893836      36.893836    
    198000   0.66260373    -7.4646744     -6.470783       6.4542547      50218.233      36.893836      36.893836      36.893836    
    199000   0.65684717    -7.4719796     -6.4867229      6.3948483      50218.233      36.893836      36.893836      36.893836    
    200000   0.66239168    -7.4666287     -6.4730553      6.4421797      50218.233      36.893836      36.893836      36.893836    
    201000   0.66049109    -7.4688746     -6.4781521      6.4131415      50218.233      36.893836      36.893836      36.893836    
    202000   0.65809007    -7.4651203     -6.4779993      6.4501961      50218.233      36.893836      36.893836      36.893836    
    203000   0.65657827    -7.4675772     -6.4827238      6.4248143      50218.233      36.893836      36.893836      36.893836    
    204000   0.65933252    -7.4657011     -6.4767164      6.4461442      50218.233      36.893836      36.893836      36.893836    
    205000   0.65932235    -7.469034      -6.4800645      6.426638       50218.233      36.893836      36.893836      36.893836    
    206000   0.65963204    -7.465918      -6.476484       6.4282702      50218.233      36.893836      36.893836      36.893836    
    207000   0.65989991    -7.4653603     -6.4755246      6.450705       50218.233      36.893836      36.893836      36.893836    
    208000   0.66177912    -7.4731059     -6.4804513      6.3996867      50218.233      36.893836      36.893836      36.893836    
    209000   0.65963836    -7.4686463     -6.4792029      6.4326219      50218.233      36.893836      36.893836      36.893836    
    210000   0.6587871     -7.4668486     -6.478682       6.4432187      50218.233      36.893836      36.893836      36.893836    
    211000   0.66117999    -7.4742097     -6.4824538      6.3966244      50218.233      36.893836      36.893836      36.893836    
    212000   0.65820344    -7.4687948     -6.4815036      6.4203405      50218.233      36.893836      36.893836      36.893836    
    213000   0.65626634    -7.4691826     -6.4847971      6.4180152      50218.233      36.893836      36.893836      36.893836    
    214000   0.66295584    -7.4708673     -6.4764477      6.4012081      50218.233      36.893836      36.893836      36.893836    
    215000   0.66342087    -7.46265       -6.4675329      6.4767984      50218.233      36.893836      36.893836      36.893836    
    216000   0.66459701    -7.4669192     -6.4700378      6.4388304      50218.233      36.893836      36.893836      36.893836    
    217000   0.6605754     -7.4685884     -6.4777394      6.4201007      50218.233      36.893836      36.893836      36.893836    
    218000   0.65912652    -7.4719051     -6.4832294      6.3873964      50218.233      36.893836      36.893836      36.893836    
    219000   0.66075287    -7.4671654     -6.4760502      6.4371638      50218.233      36.893836      36.893836      36.893836    
    220000   0.66265284    -7.4728089     -6.4788437      6.3896606      50218.233      36.893836      36.893836      36.893836    
    221000   0.65801263    -7.4707778     -6.4837729      6.4014877      50218.233      36.893836      36.893836      36.893836    
    222000   0.65863092    -7.4767568     -6.4888245      6.3614462      50218.233      36.893836      36.893836      36.893836    
    223000   0.65892607    -7.4697785     -6.4814035      6.4220507      50218.233      36.893836      36.893836      36.893836    
    224000   0.66090853    -7.4758572     -6.4845085      6.3744363      50218.233      36.893836      36.893836      36.893836    
    225000   0.65812799    -7.4706475     -6.4834695      6.4135169      50218.233      36.893836      36.893836      36.893836    
    226000   0.65997748    -7.4715794     -6.4816273      6.397607       50218.233      36.893836      36.893836      36.893836    
    227000   0.6559891     -7.4761346     -6.4921649      6.3574224      50218.233      36.893836      36.893836      36.893836    
    228000   0.65857979    -7.4674354     -6.4795798      6.4277592      50218.233      36.893836      36.893836      36.893836    
    229000   0.66034898    -7.4710435     -6.4805341      6.4030154      50218.233      36.893836      36.893836      36.893836    
    230000   0.65605139    -7.4657765     -6.4817134      6.4233495      50218.233      36.893836      36.893836      36.893836    
    231000   0.66149394    -7.4681728     -6.475946       6.4348327      50218.233      36.893836      36.893836      36.893836    
    232000   0.65943404    -7.468234      -6.479097       6.4226695      50218.233      36.893836      36.893836      36.893836    
    233000   0.66206178    -7.4718741     -6.4787955      6.4060439      50218.233      36.893836      36.893836      36.893836    
    234000   0.65896132    -7.470867      -6.482439       6.402864       50218.233      36.893836      36.893836      36.893836    
    235000   0.66406597    -7.4750332     -6.4789485      6.3667909      50218.233      36.893836      36.893836      36.893836    
    236000   0.65874116    -7.4681946     -6.4800969      6.4240023      50218.233      36.893836      36.893836      36.893836    
    237000   0.6599618     -7.4713192     -6.4813906      6.4023528      50218.233      36.893836      36.893836      36.893836    
    238000   0.65998379    -7.4720423     -6.4820807      6.3978442      50218.233      36.893836      36.893836      36.893836    
    239000   0.66078763    -7.4707723     -6.4796049      6.4023291      50218.233      36.893836      36.893836      36.893836    
    240000   0.65830097    -7.4722825     -6.4848451      6.3941084      50218.233      36.893836      36.893836      36.893836    
    241000   0.65814553    -7.4659723     -6.4787681      6.4474493      50218.233      36.893836      36.893836      36.893836    
    242000   0.6585944     -7.4633309     -6.4754534      6.4542243      50218.233      36.893836      36.893836      36.893836    
    243000   0.66019667    -7.4712234     -6.4809425      6.3865765      50218.233      36.893836      36.893836      36.893836    
    244000   0.65736955    -7.4681148     -6.4820745      6.4268358      50218.233      36.893836      36.893836      36.893836    
    245000   0.66036947    -7.4705648     -6.4800246      6.4109303      50218.233      36.893836      36.893836      36.893836    
    246000   0.66051623    -7.4701827     -6.4794225      6.4120646      50218.233      36.893836      36.893836      36.893836    
    247000   0.66097918    -7.4715753     -6.4801207      6.392145       50218.233      36.893836      36.893836      36.893836    
    248000   0.66107276    -7.4684662     -6.4768711      6.4154216      50218.233      36.893836      36.893836      36.893836    
    249000   0.66064939    -7.4698689     -6.4789089      6.4164451      50218.233      36.893836      36.893836      36.893836    
    250000   0.66002438    -7.4676594     -6.477637       6.4224616      50218.233      36.893836      36.893836      36.893836    
    251000   0.66077384    -7.4712957     -6.4801491      6.4049715      50218.233      36.893836      36.893836      36.893836    
    252000   0.66111672    -7.4597906     -6.4681296      6.4939525      50218.233      36.893836      36.893836      36.893836    
    253000   0.65531393    -7.4718753     -6.4889184      6.4069268      50218.233      36.893836      36.893836      36.893836    
    254000   0.65882346    -7.4713721     -6.483151       6.3972173      50218.233      36.893836      36.893836      36.893836    
    255000   0.65938795    -7.4657393     -6.4766714      6.4306304      50218.233      36.893836      36.893836      36.893836    
    256000   0.65705923    -7.4711448     -6.4855699      6.3944995      50218.233      36.893836      36.893836      36.893836    
    257000   0.65890398    -7.4680589     -6.479717       6.4175758      50218.233      36.893836      36.893836      36.893836    
    258000   0.66082851    -7.4637852     -6.4725566      6.4479516      50218.233      36.893836      36.893836      36.893836    
    259000   0.65802109    -7.4686194     -6.4816018      6.412503       50218.233      36.893836      36.893836      36.893836    
    260000   0.65879841    -7.4667803     -6.4785967      6.4294474      50218.233      36.893836      36.893836      36.893836    
    261000   0.66152598    -7.464623      -6.4723481      6.4555502      50218.233      36.893836      36.893836      36.893836    
    262000   0.65943388    -7.4652091     -6.4760723      6.444182       50218.233      36.893836      36.893836      36.893836    
    263000   0.65950686    -7.465932      -6.4766858      6.4390634      50218.233      36.893836      36.893836      36.893836    
    264000   0.65975456    -7.4618129     -6.4721951      6.482049       50218.233      36.893836      36.893836      36.893836    
    265000   0.65612859    -7.4611221     -6.4769432      6.4717109      50218.233      36.893836      36.893836      36.893836    
    266000   0.65838359    -7.4645036     -6.4769423      6.4585669      50218.233      36.893836      36.893836      36.893836    
    267000   0.66030885    -7.4626619     -6.4722127      6.4598569      50218.233      36.893836      36.893836      36.893836    
    268000   0.65896188    -7.4687501     -6.4803213      6.4239376      50218.233      36.893836      36.893836      36.893836    
    269000   0.65677385    -7.4634216     -6.4782748      6.4599268      50218.233      36.893836      36.893836      36.893836    
    270000   0.66171406    -7.4678592     -6.4753022      6.4322812      50218.233      36.893836      36.893836      36.893836    
    271000   0.66446597    -7.47453       -6.4778452      6.3690571      50218.233      36.893836      36.893836      36.893836    
    272000   0.65958792    -7.468822      -6.4794542      6.4240401      50218.233      36.893836      36.893836      36.893836    
    273000   0.66123649    -7.4761318     -6.4842912      6.3727146      50218.233      36.893836      36.893836      36.893836    
    274000   0.66031578    -7.4653584     -6.4748988      6.4447121      50218.233      36.893836      36.893836      36.893836    
    275000   0.66127046    -7.4698565     -6.4779649      6.4196779      50218.233      36.893836      36.893836      36.893836    
    276000   0.65806736    -7.4748688     -6.4877818      6.3884592      50218.233      36.893836      36.893836      36.893836    
    277000   0.65486961    -7.4705638     -6.4882733      6.4073253      50218.233      36.893836      36.893836      36.893836    
    278000   0.66093565    -7.4637228     -6.4723334      6.4632624      50218.233      36.893836      36.893836      36.893836    
    279000   0.66285572    -7.4672802     -6.4730107      6.4470904      50218.233      36.893836      36.893836      36.893836    
    280000   0.66133182    -7.4621602     -6.4701766      6.4724149      50218.233      36.893836      36.893836      36.893836    
    281000   0.65955404    -7.4652434     -6.4759264      6.4615882      50218.233      36.893836      36.893836      36.893836    
    282000   0.65946678    -7.4681324     -6.4789463      6.4221928      50218.233      36.893836      36.893836      36.893836    
    283000   0.657296      -7.467862      -6.4819321      6.4265612      50218.233      36.893836      36.893836      36.893836    
    284000   0.65905503    -7.4655324     -6.4769639      6.4333266      50218.233      36.893836      36.893836      36.893836    
    285000   0.66377283    -7.4661385     -6.4704934      6.4521344      50218.233      36.893836      36.893836      36.893836    
    286000   0.66026016    -7.4682867     -6.4779105      6.4239553      50218.233      36.893836      36.893836      36.893836    
    287000   0.65807112    -7.4690663     -6.4819737      6.4177622      50218.233      36.893836      36.893836      36.893836    
    288000   0.65643339    -7.4672679     -6.4826318      6.4232994      50218.233      36.893836      36.893836      36.893836    
    289000   0.65999844    -7.4698105     -6.4798269      6.4106428      50218.233      36.893836      36.893836      36.893836    
    290000   0.65886908    -7.465346      -6.4770565      6.4548463      50218.233      36.893836      36.893836      36.893836    
    291000   0.66040612    -7.4620586     -6.4714635      6.4783546      50218.233      36.893836      36.893836      36.893836    
    292000   0.65816422    -7.4695603     -6.482328       6.405181       50218.233      36.893836      36.893836      36.893836    
    293000   0.66338584    -7.465075      -6.4700104      6.451124       50218.233      36.893836      36.893836      36.893836    
    294000   0.66058825    -7.4688784     -6.4780101      6.4347961      50218.233      36.893836      36.893836      36.893836    
    295000   0.66174525    -7.4736595     -6.4810558      6.3843809      50218.233      36.893836      36.893836      36.893836    
    296000   0.66211195    -7.4707924     -6.4776386      6.4194714      50218.233      36.893836      36.893836      36.893836    
    297000   0.65693154    -7.4690363     -6.483653       6.4135071      50218.233      36.893836      36.893836      36.893836    
    298000   0.66001632    -7.4713124     -6.481302       6.3986898      50218.233      36.893836      36.893836      36.893836    
    299000   0.66215958    -7.4693958     -6.4761706      6.4190331      50218.233      36.893836      36.893836      36.893836    
    300000   0.66212666    -7.4741975     -6.4810216      6.3815582      50218.233      36.893836      36.893836      36.893836    
    301000   0.66162306    -7.4667986     -6.4743781      6.4431323      50218.233      36.893836      36.893836      36.893836    
    302000   0.66019394    -7.4732704     -6.4829935      6.393255       50218.233      36.893836      36.893836      36.893836    
    303000   0.65922399    -7.471456      -6.4826341      6.4113996      50218.233      36.893836      36.893836      36.893836    
    304000   0.66096611    -7.4637618     -6.4723267      6.4688701      50218.233      36.893836      36.893836      36.893836    
    305000   0.66072377    -7.4634325     -6.4723609      6.4609491      50218.233      36.893836      36.893836      36.893836    
    306000   0.657261      -7.4662996     -6.4804221      6.435184       50218.233      36.893836      36.893836      36.893836    
    307000   0.65909105    -7.4643282     -6.4757056      6.4603963      50218.233      36.893836      36.893836      36.893836    
    308000   0.65940845    -7.4684811     -6.4793825      6.4196345      50218.233      36.893836      36.893836      36.893836    
    309000   0.65787997    -7.4687869     -6.481981       6.416107       50218.233      36.893836      36.893836      36.893836    
    310000   0.6584753     -7.4687647     -6.4810658      6.4115579      50218.233      36.893836      36.893836      36.893836    
    311000   0.65855578    -7.4739186     -6.486099       6.3844446      50218.233      36.893836      36.893836      36.893836    
    312000   0.65718423    -7.4738692     -6.4881069      6.3913193      50218.233      36.893836      36.893836      36.893836    
    313000   0.66245603    -7.4731869     -6.479517       6.3897366      50218.233      36.893836      36.893836      36.893836    
    314000   0.66192092    -7.4639748     -6.4711075      6.4526501      50218.233      36.893836      36.893836      36.893836    
    315000   0.66053455    -7.4708271     -6.4800394      6.4097591      50218.233      36.893836      36.893836      36.893836    
    316000   0.66013733    -7.4666234     -6.4764315      6.4378304      50218.233      36.893836      36.893836      36.893836    
    317000   0.65941244    -7.4691793     -6.4800747      6.4182132      50218.233      36.893836      36.893836      36.893836    
    318000   0.66218645    -7.4723756     -6.4791101      6.409276       50218.233      36.893836      36.893836      36.893836    
    319000   0.66013846    -7.4729088     -6.4827152      6.401213       50218.233      36.893836      36.893836      36.893836    
    320000   0.65748665    -7.4682474     -6.4820314      6.4215702      50218.233      36.893836      36.893836      36.893836    
    321000   0.65992435    -7.4705549     -6.4806824      6.4163301      50218.233      36.893836      36.893836      36.893836    
    322000   0.66236343    -7.4684586     -6.4749276      6.4355231      50218.233      36.893836      36.893836      36.893836    
    323000   0.65827446    -7.4777256     -6.4903279      6.3537114      50218.233      36.893836      36.893836      36.893836    
    324000   0.66295529    -7.4697144     -6.4752956      6.4075358      50218.233      36.893836      36.893836      36.893836    
    325000   0.65861165    -7.4683646     -6.4804612      6.4125566      50218.233      36.893836      36.893836      36.893836    
    326000   0.65828589    -7.4676179     -6.4802031      6.4377426      50218.233      36.893836      36.893836      36.893836    
    327000   0.65809342    -7.4676032     -6.4804771      6.426391       50218.233      36.893836      36.893836      36.893836    
    328000   0.65932179    -7.4712338     -6.4822652      6.4004727      50218.233      36.893836      36.893836      36.893836    
    329000   0.66028904    -7.4733314     -6.4829119      6.3816637      50218.233      36.893836      36.893836      36.893836    
    330000   0.66252747    -7.4743755     -6.4805985      6.3903474      50218.233      36.893836      36.893836      36.893836    
    331000   0.65967389    -7.4728144     -6.4833177      6.393188       50218.233      36.893836      36.893836      36.893836    
    332000   0.65684648    -7.4736402     -6.4883845      6.385864       50218.233      36.893836      36.893836      36.893836    
    333000   0.65963457    -7.4734567     -6.4840189      6.3896175      50218.233      36.893836      36.893836      36.893836    
    334000   0.66279522    -7.4667143     -6.4725356      6.4367162      50218.233      36.893836      36.893836      36.893836    
    335000   0.65931683    -7.4733048     -6.4843436      6.3969294      50218.233      36.893836      36.893836      36.893836    
    336000   0.66000333    -7.4710453     -6.4810544      6.3914168      50218.233      36.893836      36.893836      36.893836    
    337000   0.65690943    -7.4700328     -6.4846827      6.397175       50218.233      36.893836      36.893836      36.893836    
    338000   0.66246682    -7.4703787     -6.4766926      6.4133331      50218.233      36.893836      36.893836      36.893836    
    339000   0.65736246    -7.4704865     -6.4844569      6.3882258      50218.233      36.893836      36.893836      36.893836    
    340000   0.65740681    -7.466255      -6.4801588      6.4377068      50218.233      36.893836      36.893836      36.893836    
    341000   0.66178573    -7.472146      -6.4794815      6.396963       50218.233      36.893836      36.893836      36.893836    
    342000   0.65799887    -7.470083      -6.4830987      6.4137943      50218.233      36.893836      36.893836      36.893836    
    343000   0.66286145    -7.468955      -6.474677       6.4212532      50218.233      36.893836      36.893836      36.893836    
    344000   0.66216269    -7.4678096     -6.4745797      6.4201322      50218.233      36.893836      36.893836      36.893836    
    345000   0.66021422    -7.4707435     -6.4804363      6.4035982      50218.233      36.893836      36.893836      36.893836    
    346000   0.65809188    -7.4667219     -6.4795981      6.4511111      50218.233      36.893836      36.893836      36.893836    
    347000   0.66048226    -7.4644247     -6.4737154      6.4626142      50218.233      36.893836      36.893836      36.893836    
    348000   0.66025088    -7.4662402     -6.475878       6.4370399      50218.233      36.893836      36.893836      36.893836    
    349000   0.66415443    -7.4698623     -6.4736448      6.4304098      50218.233      36.893836      36.893836      36.893836    
    350000   0.65913822    -7.4729151     -6.4842219      6.3863757      50218.233      36.893836      36.893836      36.893836    
    351000   0.66066694    -7.4685317     -6.4775454      6.427089       50218.233      36.893836      36.893836      36.893836    
    352000   0.65901627    -7.4725475     -6.4840371      6.3898152      50218.233      36.893836      36.893836      36.893836    
    353000   0.66088355    -7.4764887     -6.4851774      6.3680502      50218.233      36.893836      36.893836      36.893836    
    354000   0.65660414    -7.4742357     -6.4893435      6.3788918      50218.233      36.893836      36.893836      36.893836    
    355000   0.66012309    -7.4805849     -6.4904144      6.3459001      50218.233      36.893836      36.893836      36.893836    
    356000   0.6621875     -7.4689151     -6.475648       6.4281031      50218.233      36.893836      36.893836      36.893836    
    357000   0.65717687    -7.471803      -6.4860517      6.3987453      50218.233      36.893836      36.893836      36.893836    
    358000   0.65944812    -7.4716137     -6.4824556      6.4067643      50218.233      36.893836      36.893836      36.893836    
    359000   0.66163408    -7.470352      -6.477915       6.4222517      50218.233      36.893836      36.893836      36.893836    
    360000   0.65917776    -7.4720508     -6.4832982      6.398667       50218.233      36.893836      36.893836      36.893836    
    361000   0.65793397    -7.4725394     -6.4856525      6.3930938      50218.233      36.893836      36.893836      36.893836    
    362000   0.66030696    -7.469654      -6.4792077      6.4002653      50218.233      36.893836      36.893836      36.893836    
    363000   0.66352625    -7.4683499     -6.4730747      6.4303253      50218.233      36.893836      36.893836      36.893836    
    364000   0.66250153    -7.4682671     -6.4745289      6.4191224      50218.233      36.893836      36.893836      36.893836    
    365000   0.66015604    -7.4689259     -6.4787059      6.424471       50218.233      36.893836      36.893836      36.893836    
    366000   0.66005317    -7.4700631     -6.4799975      6.4179666      50218.233      36.893836      36.893836      36.893836    
    367000   0.66065415    -7.467899      -6.4769319      6.4211888      50218.233      36.893836      36.893836      36.893836    
    368000   0.66003923    -7.4704973     -6.4804525      6.4146119      50218.233      36.893836      36.893836      36.893836    
    369000   0.65899144    -7.4661293     -6.4776562      6.4391337      50218.233      36.893836      36.893836      36.893836    
    370000   0.66277227    -7.4691102     -6.474966       6.4200411      50218.233      36.893836      36.893836      36.893836    
    371000   0.65719466    -7.4692137     -6.4834358      6.4078733      50218.233      36.893836      36.893836      36.893836    
    372000   0.659809      -7.471897      -6.4821976      6.3887387      50218.233      36.893836      36.893836      36.893836    
    373000   0.65974936    -7.469771      -6.480161       6.4037483      50218.233      36.893836      36.893836      36.893836    
    374000   0.66046431    -7.4661004     -6.475418       6.4403603      50218.233      36.893836      36.893836      36.893836    
    375000   0.65991643    -7.4709858     -6.4811253      6.3885632      50218.233      36.893836      36.893836      36.893836    
    376000   0.65827963    -7.4670818     -6.4796764      6.4305476      50218.233      36.893836      36.893836      36.893836    
    377000   0.65759998    -7.4706866     -6.4843007      6.4118004      50218.233      36.893836      36.893836      36.893836    
    378000   0.65773288    -7.4697991     -6.4832138      6.4129108      50218.233      36.893836      36.893836      36.893836    
    379000   0.65981921    -7.469404      -6.4796892      6.4122245      50218.233      36.893836      36.893836      36.893836    
    380000   0.6614201     -7.4675312     -6.4754151      6.4439758      50218.233      36.893836      36.893836      36.893836    
    381000   0.66308978    -7.4738656     -6.479245       6.3847208      50218.233      36.893836      36.893836      36.893836    
    382000   0.65941722    -7.4740226     -6.4849109      6.3890069      50218.233      36.893836      36.893836      36.893836    
    383000   0.6600358     -7.4705923     -6.4805527      6.4084891      50218.233      36.893836      36.893836      36.893836    
    384000   0.65854197    -7.4691112     -6.4813123      6.4212         50218.233      36.893836      36.893836      36.893836    
    385000   0.65762052    -7.4678856     -6.4814688      6.4287061      50218.233      36.893836      36.893836      36.893836    
    386000   0.65960905    -7.4678915     -6.478492       6.4318892      50218.233      36.893836      36.893836      36.893836    
    387000   0.65859426    -7.4648777     -6.4770003      6.4478501      50218.233      36.893836      36.893836      36.893836    
    388000   0.65799191    -7.4669287     -6.4799548      6.4296508      50218.233      36.893836      36.893836      36.893836    
    389000   0.65940323    -7.4705297     -6.4814389      6.4094317      50218.233      36.893836      36.893836      36.893836    
    390000   0.65784567    -7.4686625     -6.481908       6.4281534      50218.233      36.893836      36.893836      36.893836    
    391000   0.66180692    -7.464995      -6.4722987      6.4515345      50218.233      36.893836      36.893836      36.893836    
    392000   0.65971615    -7.4690887     -6.4795285      6.426483       50218.233      36.893836      36.893836      36.893836    
    393000   0.6598198     -7.4663614     -6.4766458      6.4478204      50218.233      36.893836      36.893836      36.893836    
    394000   0.65905153    -7.4642366     -6.4756734      6.4644417      50218.233      36.893836      36.893836      36.893836    
    395000   0.65846231    -7.4666877     -6.4790083      6.4287119      50218.233      36.893836      36.893836      36.893836    
    396000   0.66175264    -7.4689867     -6.4763719      6.4291688      50218.233      36.893836      36.893836      36.893836    
    397000   0.66105574    -7.4676364     -6.4760669      6.4291898      50218.233      36.893836      36.893836      36.893836    
    398000   0.65801641    -7.4665517     -6.4795411      6.4336572      50218.233      36.893836      36.893836      36.893836    
    399000   0.65911688    -7.4667763     -6.478115       6.4418612      50218.233      36.893836      36.893836      36.893836    
    400000   0.66080395    -7.4688312     -6.4776394      6.4326907      50218.233      36.893836      36.893836      36.893836    
    401000   0.65845669    -7.4671987     -6.4795278      6.4397718      50218.233      36.893836      36.893836      36.893836    
    402000   0.65928643    -7.4705947     -6.4816791      6.4083314      50218.233      36.893836      36.893836      36.893836    
    403000   0.65700816    -7.4681147     -6.4826165      6.4257263      50218.233      36.893836      36.893836      36.893836    
    404000   0.66405359    -7.4690624     -6.4729962      6.4212288      50218.233      36.893836      36.893836      36.893836    
    405000   0.65868162    -7.470324      -6.4823156      6.4076299      50218.233      36.893836      36.893836      36.893836    
    406000   0.65837309    -7.4754632     -6.4879176      6.3717906      50218.233      36.893836      36.893836      36.893836    
    407000   0.66215897    -7.4680722     -6.4748479      6.4332824      50218.233      36.893836      36.893836      36.893836    
    408000   0.6580004     -7.4743711     -6.4873845      6.3733041      50218.233      36.893836      36.893836      36.893836    
    409000   0.66124024    -7.4720343     -6.480188       6.4054302      50218.233      36.893836      36.893836      36.893836    
    410000   0.65999967    -7.4619335     -6.4719481      6.4627422      50218.233      36.893836      36.893836      36.893836    
    411000   0.66083218    -7.4736933     -6.4824592      6.3969752      50218.233      36.893836      36.893836      36.893836    
    412000   0.66020958    -7.4680907     -6.4777904      6.4226145      50218.233      36.893836      36.893836      36.893836    
    413000   0.65860539    -7.4670629     -6.4791688      6.4300103      50218.233      36.893836      36.893836      36.893836    
    414000   0.65946688    -7.4695993     -6.4804131      6.4174906      50218.233      36.893836      36.893836      36.893836    
    415000   0.65875632    -7.4722727     -6.4841523      6.3927297      50218.233      36.893836      36.893836      36.893836    
    416000   0.65681724    -7.474075      -6.4888632      6.3723632      50218.233      36.893836      36.893836      36.893836    
    417000   0.65763268    -7.4702798     -6.4838448      6.3895785      50218.233      36.893836      36.893836      36.893836    
    418000   0.65569759    -7.4691227     -6.4855903      6.4053079      50218.233      36.893836      36.893836      36.893836    
    419000   0.66124069    -7.4712536     -6.4794067      6.400001       50218.233      36.893836      36.893836      36.893836    
    420000   0.66243193    -7.4703419     -6.4767081      6.4164232      50218.233      36.893836      36.893836      36.893836    
    421000   0.66463749    -7.4657142     -6.4687722      6.4460311      50218.233      36.893836      36.893836      36.893836    
    422000   0.65463292    -7.4677181     -6.4857827      6.4234938      50218.233      36.893836      36.893836      36.893836    
    423000   0.6593696     -7.4631341     -6.4740937      6.4717927      50218.233      36.893836      36.893836      36.893836    
    424000   0.66236188    -7.4656204     -6.4720917      6.4479743      50218.233      36.893836      36.893836      36.893836    
    425000   0.66245347    -7.465898      -6.4722319      6.4395217      50218.233      36.893836      36.893836      36.893836    
    426000   0.6591459     -7.4672994     -6.4785946      6.4359049      50218.233      36.893836      36.893836      36.893836    
    427000   0.66122876    -7.4701794     -6.4783504      6.4117668      50218.233      36.893836      36.893836      36.893836    
    428000   0.66108606    -7.4639137     -6.4722987      6.4588274      50218.233      36.893836      36.893836      36.893836    
    429000   0.6588281     -7.4740245     -6.4857964      6.3896499      50218.233      36.893836      36.893836      36.893836    
    430000   0.66045096    -7.4717394     -6.481077       6.4035752      50218.233      36.893836      36.893836      36.893836    
    431000   0.6612596     -7.4707882     -6.4789129      6.4002669      50218.233      36.893836      36.893836      36.893836    
    432000   0.66131617    -7.4724729     -6.4805127      6.4034871      50218.233      36.893836      36.893836      36.893836    
    433000   0.6599484     -7.471727      -6.4818185      6.4014517      50218.233      36.893836      36.893836      36.893836    
    434000   0.66216213    -7.4764422     -6.4832132      6.3623914      50218.233      36.893836      36.893836      36.893836    
    435000   0.6653351     -7.4795293     -6.4815408      6.3557339      50218.233      36.893836      36.893836      36.893836    
    436000   0.65914085    -7.4701019     -6.4814046      6.4147204      50218.233      36.893836      36.893836      36.893836    
    437000   0.65915873    -7.4688416     -6.4801175      6.4222357      50218.233      36.893836      36.893836      36.893836    
    438000   0.65891672    -7.4701834     -6.4818223      6.4197579      50218.233      36.893836      36.893836      36.893836    
    439000   0.66192221    -7.4646652     -6.471796       6.440786       50218.233      36.893836      36.893836      36.893836    
    440000   0.6623665     -7.4702028     -6.4766672      6.4102395      50218.233      36.893836      36.893836      36.893836    
    441000   0.66069091    -7.4669715     -6.4759493      6.4368425      50218.233      36.893836      36.893836      36.893836    
    442000   0.66021783    -7.470036      -6.4797234      6.4216717      50218.233      36.893836      36.893836      36.893836    
    443000   0.66473748    -7.4723386     -6.4752465      6.390731       50218.233      36.893836      36.893836      36.893836    
    444000   0.65603841    -7.4687887     -6.484745       6.4216816      50218.233      36.893836      36.893836      36.893836    
    445000   0.66225037    -7.4681753     -6.4748139      6.425496       50218.233      36.893836      36.893836      36.893836    
    446000   0.659423      -7.4784658     -6.4893454      6.364657       50218.233      36.893836      36.893836      36.893836    
    447000   0.6635117     -7.475118      -6.4798647      6.3747572      50218.233      36.893836      36.893836      36.893836    
    448000   0.66252485    -7.4752725     -6.4814993      6.3792662      50218.233      36.893836      36.893836      36.893836    
    449000   0.65995522    -7.4689386     -6.4790199      6.4316222      50218.233      36.893836      36.893836      36.893836    
    450000   0.66035133    -7.4712197     -6.4807068      6.3952159      50218.233      36.893836      36.893836      36.893836    
    451000   0.66094714    -7.466893      -6.4754864      6.4396193      50218.233      36.893836      36.893836      36.893836    
    452000   0.66222552    -7.4707311     -6.4774069      6.429804       50218.233      36.893836      36.893836      36.893836    
    453000   0.66096734    -7.470427      -6.4789901      6.4168877      50218.233      36.893836      36.893836      36.893836    
    454000   0.66072277    -7.4714531     -6.4803831      6.4106719      50218.233      36.893836      36.893836      36.893836    
    455000   0.65921697    -7.4682077     -6.4793963      6.4264146      50218.233      36.893836      36.893836      36.893836    
    456000   0.66242147    -7.4698068     -6.4761888      6.41105        50218.233      36.893836      36.893836      36.893836    
    457000   0.65825131    -7.4664619     -6.479099       6.4452953      50218.233      36.893836      36.893836      36.893836    
    458000   0.65866783    -7.4708011     -6.4828134      6.395507       50218.233      36.893836      36.893836      36.893836    
    459000   0.65578866    -7.4689308     -6.4852619      6.3985442      50218.233      36.893836      36.893836      36.893836    
    460000   0.65745312    -7.4665992     -6.4804335      6.4337708      50218.233      36.893836      36.893836      36.893836    
    461000   0.66029064    -7.4665485     -6.4761266      6.4381816      50218.233      36.893836      36.893836      36.893836    
    462000   0.65970976    -7.4723067     -6.4827561      6.390101       50218.233      36.893836      36.893836      36.893836    
    463000   0.65815415    -7.4698894     -6.4826722      6.4097316      50218.233      36.893836      36.893836      36.893836    
    464000   0.66171194    -7.4692126     -6.4766589      6.4052488      50218.233      36.893836      36.893836      36.893836    
    465000   0.65984271    -7.4638126     -6.4740626      6.4596916      50218.233      36.893836      36.893836      36.893836    
    466000   0.66176505    -7.468472      -6.4758386      6.4275419      50218.233      36.893836      36.893836      36.893836    
    467000   0.66373238    -7.4683578     -6.4727734      6.4253742      50218.233      36.893836      36.893836      36.893836    
    468000   0.66060667    -7.4623877     -6.4714918      6.4592918      50218.233      36.893836      36.893836      36.893836    
    469000   0.6598793     -7.4711594     -6.4813546      6.4018449      50218.233      36.893836      36.893836      36.893836    
    470000   0.65822802    -7.4663104     -6.4789825      6.4392384      50218.233      36.893836      36.893836      36.893836    
    471000   0.6614833     -7.4645056     -6.4722947      6.4609604      50218.233      36.893836      36.893836      36.893836    
    472000   0.66443602    -7.4630324     -6.4663925      6.468979       50218.233      36.893836      36.893836      36.893836    
    473000   0.66114204    -7.4739784     -6.4822794      6.3854198      50218.233      36.893836      36.893836      36.893836    
    474000   0.66091736    -7.4667532     -6.4753913      6.432855       50218.233      36.893836      36.893836      36.893836    
    475000   0.65990139    -7.4667629     -6.4769249      6.4379048      50218.233      36.893836      36.893836      36.893836    
    476000   0.662182      -7.4706052     -6.4773463      6.4195942      50218.233      36.893836      36.893836      36.893836    
    477000   0.65720639    -7.469187      -6.4833915      6.4104222      50218.233      36.893836      36.893836      36.893836    
    478000   0.66109161    -7.4679021     -6.4762788      6.4241971      50218.233      36.893836      36.893836      36.893836    
    479000   0.66081511    -7.4651925     -6.473984       6.4420236      50218.233      36.893836      36.893836      36.893836    
    480000   0.66108278    -7.466591      -6.4749809      6.4386708      50218.233      36.893836      36.893836      36.893836    
    481000   0.66085349    -7.4642574     -6.4729913      6.4653174      50218.233      36.893836      36.893836      36.893836    
    482000   0.66172336    -7.4706083     -6.4780374      6.4096276      50218.233      36.893836      36.893836      36.893836    
    483000   0.66283316    -7.4635646     -6.469329       6.4582449      50218.233      36.893836      36.893836      36.893836    
    484000   0.66039096    -7.4628612     -6.4722888      6.4686332      50218.233      36.893836      36.893836      36.893836    
    485000   0.66196154    -7.4622585     -6.4693303      6.472315       50218.233      36.893836      36.893836      36.893836    
    486000   0.65501384    -7.469682      -6.4871752      6.4193144      50218.233      36.893836      36.893836      36.893836    
    487000   0.65932392    -7.4664165     -6.4774447      6.4311174      50218.233      36.893836      36.893836      36.893836    
    488000   0.66044652    -7.4650836     -6.474428       6.4535836      50218.233      36.893836      36.893836      36.893836    
    489000   0.65898604    -7.4677706     -6.4793056      6.4277373      50218.233      36.893836      36.893836      36.893836    
    490000   0.66055911    -7.4684671     -6.4776426      6.4182568      50218.233      36.893836      36.893836      36.893836    
    491000   0.6596422     -7.4640517     -6.4746025      6.4529585      50218.233      36.893836      36.893836      36.893836    
    492000   0.65960672    -7.4669022     -6.4775062      6.417458       50218.233      36.893836      36.893836      36.893836    
    493000   0.65973816    -7.4742569     -6.4846637      6.3730702      50218.233      36.893836      36.893836      36.893836    
    494000   0.65928612    -7.4736128     -6.4846977      6.3887832      50218.233      36.893836      36.893836      36.893836    
    495000   0.65928387    -7.4754435     -6.4865317      6.3616349      50218.233      36.893836      36.893836      36.893836    
    496000   0.66101276    -7.4689177     -6.4774127      6.4160281      50218.233      36.893836      36.893836      36.893836    
    497000   0.66068103    -7.4691512     -6.4781438      6.4169284      50218.233      36.893836      36.893836      36.893836    
    498000   0.65910587    -7.4707755     -6.4821307      6.3962531      50218.233      36.893836      36.893836      36.893836    
    499000   0.65855597    -7.4713881     -6.4835682      6.4086622      50218.233      36.893836      36.893836      36.893836    
    500000   0.65804084    -7.4691609     -6.4821137      6.410276       50218.233      36.893836      36.893836      36.893836    
    501000   0.65937888    -7.4683962     -6.4793419      6.4196358      50218.233      36.893836      36.893836      36.893836    
    502000   0.65960538    -7.4714807     -6.4820867      6.3950149      50218.233      36.893836      36.893836      36.893836    
    503000   0.66065721    -7.4680393     -6.4770676      6.4175653      50218.233      36.893836      36.893836      36.893836    
    504000   0.66070035    -7.4704533     -6.4794169      6.4179907      50218.233      36.893836      36.893836      36.893836    
    505000   0.65884772    -7.4733795     -6.485122       6.3923838      50218.233      36.893836      36.893836      36.893836    
    506000   0.65919558    -7.4725064     -6.4837271      6.399466       50218.233      36.893836      36.893836      36.893836    
    507000   0.65900266    -7.4713967     -6.4829068      6.4025895      50218.233      36.893836      36.893836      36.893836    
    508000   0.65818544    -7.4739321     -6.486668       6.3931643      50218.233      36.893836      36.893836      36.893836    
    509000   0.66224774    -7.471464      -6.4781065      6.4016518      50218.233      36.893836      36.893836      36.893836    
    510000   0.66029608    -7.4673239     -6.4768939      6.4390048      50218.233      36.893836      36.893836      36.893836    
    511000   0.66502724    -7.4734122     -6.4758855      6.3978697      50218.233      36.893836      36.893836      36.893836    
    512000   0.65886363    -7.4745951     -6.4863137      6.3672524      50218.233      36.893836      36.893836      36.893836    
    513000   0.65995561    -7.471472      -6.4815527      6.4025383      50218.233      36.893836      36.893836      36.893836    
    514000   0.6629656     -7.4666266     -6.4721924      6.4517806      50218.233      36.893836      36.893836      36.893836    
    515000   0.66101311    -7.4675077     -6.4760022      6.4368394      50218.233      36.893836      36.893836      36.893836    
    516000   0.66073189    -7.4713207     -6.4802369      6.3973162      50218.233      36.893836      36.893836      36.893836    
    517000   0.66179107    -7.4727232     -6.4800507      6.3965984      50218.233      36.893836      36.893836      36.893836    
    518000   0.66101104    -7.4687385     -6.477236       6.4209748      50218.233      36.893836      36.893836      36.893836    
    519000   0.66176241    -7.470223      -6.4775935      6.4058519      50218.233      36.893836      36.893836      36.893836    
    520000   0.65906641    -7.4686185     -6.4800329      6.4203888      50218.233      36.893836      36.893836      36.893836    
    521000   0.658485      -7.4636775     -6.4759641      6.4559791      50218.233      36.893836      36.893836      36.893836    
    522000   0.66208232    -7.4754535     -6.4823442      6.3796431      50218.233      36.893836      36.893836      36.893836    
    523000   0.66066721    -7.4707691     -6.4797824      6.4157418      50218.233      36.893836      36.893836      36.893836    
    524000   0.6632478     -7.4737874     -6.4789298      6.3909174      50218.233      36.893836      36.893836      36.893836    
    525000   0.66408564    -7.4736002     -6.4774859      6.4100006      50218.233      36.893836      36.893836      36.893836    
    526000   0.65626832    -7.4680585     -6.4836701      6.4223443      50218.233      36.893836      36.893836      36.893836    
    527000   0.66185337    -7.46814       -6.4753741      6.4276878      50218.233      36.893836      36.893836      36.893836    
    528000   0.65589224    -7.4674397     -6.4836154      6.4205936      50218.233      36.893836      36.893836      36.893836    
    529000   0.66032674    -7.4697804     -6.4793044      6.4212875      50218.233      36.893836      36.893836      36.893836    
    530000   0.66372564    -7.4717977     -6.4762234      6.4073318      50218.233      36.893836      36.893836      36.893836    
    531000   0.6587811     -7.4705542     -6.4823966      6.4153484      50218.233      36.893836      36.893836      36.893836    
    532000   0.65748269    -7.4685806     -6.4823706      6.4287723      50218.233      36.893836      36.893836      36.893836    
    533000   0.66180979    -7.4665931     -6.4738925      6.4428142      50218.233      36.893836      36.893836      36.893836    
    534000   0.65900755    -7.4688725     -6.4803753      6.4112582      50218.233      36.893836      36.893836      36.893836    
    535000   0.65892165    -7.4685434     -6.480175       6.4337569      50218.233      36.893836      36.893836      36.893836    
    536000   0.66091215    -7.4745621     -6.483208       6.3725649      50218.233      36.893836      36.893836      36.893836    
    537000   0.66194233    -7.4663293     -6.4734299      6.4412775      50218.233      36.893836      36.893836      36.893836    
    538000   0.65847423    -7.4697102     -6.4820129      6.4240724      50218.233      36.893836      36.893836      36.893836    
    539000   0.65945634    -7.4624231     -6.4732526      6.4573264      50218.233      36.893836      36.893836      36.893836    
    540000   0.66033602    -7.4694823     -6.4789924      6.4066784      50218.233      36.893836      36.893836      36.893836    
    541000   0.66000557    -7.4727401     -6.4827458      6.4008622      50218.233      36.893836      36.893836      36.893836    
    542000   0.66056612    -7.4676336     -6.4767986      6.4311484      50218.233      36.893836      36.893836      36.893836    
    543000   0.65852664    -7.4758867     -6.4881108      6.3783913      50218.233      36.893836      36.893836      36.893836    
    544000   0.66200372    -7.4726798     -6.4796884      6.3882846      50218.233      36.893836      36.893836      36.893836    
    545000   0.66084213    -7.4740535     -6.4828044      6.390824       50218.233      36.893836      36.893836      36.893836    
    546000   0.65772041    -7.4713861     -6.4848195      6.4109259      50218.233      36.893836      36.893836      36.893836    
    547000   0.66098023    -7.4675906     -6.4761344      6.4184155      50218.233      36.893836      36.893836      36.893836    
    548000   0.6647049     -7.466997      -6.4699538      6.449113       50218.233      36.893836      36.893836      36.893836    
    549000   0.65983324    -7.4706307     -6.480895       6.4074649      50218.233      36.893836      36.893836      36.893836    
    550000   0.65710115    -7.4755884     -6.4899506      6.3716884      50218.233      36.893836      36.893836      36.893836    
    551000   0.65845544    -7.4648195     -6.4771504      6.4446024      50218.233      36.893836      36.893836      36.893836    
    552000   0.66105748    -7.4706183     -6.4790462      6.4131256      50218.233      36.893836      36.893836      36.893836    
    553000   0.66102639    -7.4695543     -6.4780288      6.4202059      50218.233      36.893836      36.893836      36.893836    
    554000   0.65843003    -7.4750301     -6.4873991      6.3811519      50218.233      36.893836      36.893836      36.893836    
    555000   0.65582822    -7.4698038     -6.4860755      6.417885       50218.233      36.893836      36.893836      36.893836    
    556000   0.66177307    -7.4705217     -6.4778762      6.4034951      50218.233      36.893836      36.893836      36.893836    
    557000   0.65926253    -7.4752216     -6.4863418      6.376435       50218.233      36.893836      36.893836      36.893836    
    558000   0.66329022    -7.4653887     -6.4704675      6.4512275      50218.233      36.893836      36.893836      36.893836    
    559000   0.65705204    -7.4706406     -6.4850766      6.4044601      50218.233      36.893836      36.893836      36.893836    
    560000   0.66255614    -7.4702768     -6.4764567      6.4182258      50218.233      36.893836      36.893836      36.893836    
    561000   0.65866881    -7.46636       -6.4783708      6.4307582      50218.233      36.893836      36.893836      36.893836    
    562000   0.65904519    -7.4721323     -6.4835786      6.3963058      50218.233      36.893836      36.893836      36.893836    
    563000   0.66125206    -7.4718118     -6.4799478      6.3859291      50218.233      36.893836      36.893836      36.893836    
    564000   0.65862763    -7.4727324     -6.484805       6.3962126      50218.233      36.893836      36.893836      36.893836    
    565000   0.65868548    -7.4718662     -6.483852       6.3893738      50218.233      36.893836      36.893836      36.893836    
    566000   0.65836076    -7.4655202     -6.4779931      6.4337202      50218.233      36.893836      36.893836      36.893836    
    567000   0.65849638    -7.4710865     -6.483356       6.3944164      50218.233      36.893836      36.893836      36.893836    
    568000   0.66127637    -7.4674262     -6.4755257      6.4480449      50218.233      36.893836      36.893836      36.893836    
    569000   0.66367264    -7.4664007     -6.4709059      6.4363784      50218.233      36.893836      36.893836      36.893836    
    570000   0.65905179    -7.4671582     -6.4785946      6.4357542      50218.233      36.893836      36.893836      36.893836    
    571000   0.66301127    -7.4646422     -6.4701395      6.4597478      50218.233      36.893836      36.893836      36.893836    
    572000   0.65910198    -7.467457      -6.4788181      6.4244015      50218.233      36.893836      36.893836      36.893836    
    573000   0.65729994    -7.471531      -6.4855951      6.3991712      50218.233      36.893836      36.893836      36.893836    
    574000   0.65737855    -7.4719696     -6.4859158      6.4068404      50218.233      36.893836      36.893836      36.893836    
    575000   0.66035558    -7.4727752     -6.4822559      6.4008554      50218.233      36.893836      36.893836      36.893836    
    576000   0.65984241    -7.4679507     -6.4782011      6.4268269      50218.233      36.893836      36.893836      36.893836    
    577000   0.65935432    -7.466656      -6.4776386      6.4416843      50218.233      36.893836      36.893836      36.893836    
    578000   0.65795493    -7.4674607     -6.4805424      6.4285075      50218.233      36.893836      36.893836      36.893836    
    579000   0.66066688    -7.4672866     -6.4763004      6.4362246      50218.233      36.893836      36.893836      36.893836    
    580000   0.65929922    -7.4740126     -6.4850778      6.3895832      50218.233      36.893836      36.893836      36.893836    
    581000   0.65975414    -7.4660916     -6.4764745      6.4299204      50218.233      36.893836      36.893836      36.893836    
    582000   0.65950223    -7.4626062     -6.4733669      6.4721985      50218.233      36.893836      36.893836      36.893836    
    583000   0.66210361    -7.4683121     -6.4751708      6.4284848      50218.233      36.893836      36.893836      36.893836    
    584000   0.66451201    -7.4663117     -6.4695578      6.4596714      50218.233      36.893836      36.893836      36.893836    
    585000   0.65651348    -7.4689792     -6.484223       6.4141314      50218.233      36.893836      36.893836      36.893836    
    586000   0.65812818    -7.4705896     -6.4834113      6.4063393      50218.233      36.893836      36.893836      36.893836    
    587000   0.66260886    -7.4726507     -6.4787515      6.4049213      50218.233      36.893836      36.893836      36.893836    
    588000   0.66132321    -7.4773065     -6.4853358      6.370704       50218.233      36.893836      36.893836      36.893836    
    589000   0.65933737    -7.4720696     -6.4830776      6.392489       50218.233      36.893836      36.893836      36.893836    
    590000   0.65935917    -7.4728965     -6.4838718      6.3827543      50218.233      36.893836      36.893836      36.893836    
    591000   0.65788952    -7.4722313     -6.4854111      6.3779744      50218.233      36.893836      36.893836      36.893836    
    592000   0.65767757    -7.4739037     -6.4874013      6.3765464      50218.233      36.893836      36.893836      36.893836    
    593000   0.65947641    -7.4695252     -6.4803247      6.409705       50218.233      36.893836      36.893836      36.893836    
    594000   0.66085327    -7.4734285     -6.4821627      6.3818561      50218.233      36.893836      36.893836      36.893836    
    595000   0.65652887    -7.4709303     -6.486151       6.4003725      50218.233      36.893836      36.893836      36.893836    
    596000   0.65942333    -7.4701413     -6.4810204      6.4136768      50218.233      36.893836      36.893836      36.893836    
    597000   0.66102365    -7.4735967     -6.4820753      6.3972127      50218.233      36.893836      36.893836      36.893836    
    598000   0.66065759    -7.4695865     -6.4786142      6.4204634      50218.233      36.893836      36.893836      36.893836    
    599000   0.65503093    -7.4714512     -6.4889188      6.3885007      50218.233      36.893836      36.893836      36.893836    
    600000   0.66205563    -7.4747491     -6.4816798      6.3918296      50218.233      36.893836      36.893836      36.893836    
    601000   0.65940105    -7.4675552     -6.4784677      6.4278706      50218.233      36.893836      36.893836      36.893836    
    602000   0.66024647    -7.471521      -6.4811654      6.3930358      50218.233      36.893836      36.893836      36.893836    
    603000   0.65788826    -7.4624663     -6.475648       6.4635219      50218.233      36.893836      36.893836      36.893836    
    604000   0.65920223    -7.4706847     -6.4818955      6.4017027      50218.233      36.893836      36.893836      36.893836    
    605000   0.65820303    -7.4726689     -6.4853784      6.3921298      50218.233      36.893836      36.893836      36.893836    
    606000   0.66678672    -7.4705805     -6.4704146      6.414953       50218.233      36.893836      36.893836      36.893836    
    607000   0.66222677    -7.4702463     -6.4769203      6.4035344      50218.233      36.893836      36.893836      36.893836    
    608000   0.65662189    -7.4623464     -6.4774276      6.47094        50218.233      36.893836      36.893836      36.893836    
    609000   0.65717416    -7.4653244     -6.4795772      6.4542607      50218.233      36.893836      36.893836      36.893836    
    610000   0.65964943    -7.4690209     -6.4795609      6.4204874      50218.233      36.893836      36.893836      36.893836    
    611000   0.66196831    -7.4606965     -6.4677582      6.467522       50218.233      36.893836      36.893836      36.893836    
    612000   0.66074796    -7.4701138     -6.4790059      6.4192253      50218.233      36.893836      36.893836      36.893836    
    613000   0.66013333    -7.4661578     -6.4759719      6.4416354      50218.233      36.893836      36.893836      36.893836    
    614000   0.66303611    -7.472879      -6.478339       6.39865        50218.233      36.893836      36.893836      36.893836    
    615000   0.65713332    -7.4646428     -6.4789568      6.4369008      50218.233      36.893836      36.893836      36.893836    
    616000   0.66104924    -7.4673159     -6.4757561      6.4339398      50218.233      36.893836      36.893836      36.893836    
    617000   0.66200041    -7.4646791     -6.4716926      6.4679323      50218.233      36.893836      36.893836      36.893836    
    618000   0.66125144    -7.4710924     -6.4792293      6.4057105      50218.233      36.893836      36.893836      36.893836    
    619000   0.66083644    -7.4669712     -6.4757306      6.4398857      50218.233      36.893836      36.893836      36.893836    
    620000   0.66075002    -7.4665899     -6.4754789      6.4336305      50218.233      36.893836      36.893836      36.893836    
    621000   0.65964501    -7.4671588     -6.4777054      6.4491665      50218.233      36.893836      36.893836      36.893836    
    622000   0.65480065    -7.4714463     -6.4892593      6.399989       50218.233      36.893836      36.893836      36.893836    
    623000   0.6597487     -7.4678689     -6.47826        6.4330029      50218.233      36.893836      36.893836      36.893836    
    624000   0.66085516    -7.4675662     -6.4762976      6.4284114      50218.233      36.893836      36.893836      36.893836    
    625000   0.66119498    -7.4626592     -6.4708808      6.4551688      50218.233      36.893836      36.893836      36.893836    
    626000   0.66096683    -7.4667193     -6.4752832      6.4457688      50218.233      36.893836      36.893836      36.893836    
    627000   0.66088464    -7.4688004     -6.4774876      6.4315129      50218.233      36.893836      36.893836      36.893836    
    628000   0.66127127    -7.4703237     -6.4784309      6.4185794      50218.233      36.893836      36.893836      36.893836    
    629000   0.65684082    -7.462804      -6.4775568      6.4552991      50218.233      36.893836      36.893836      36.893836    
    630000   0.65929282    -7.4648013     -6.4758761      6.4604146      50218.233      36.893836      36.893836      36.893836    
    631000   0.66121229    -7.4678349     -6.4760305      6.4236652      50218.233      36.893836      36.893836      36.893836    
    632000   0.65922516    -7.4663689     -6.4775453      6.4414042      50218.233      36.893836      36.893836      36.893836    
    633000   0.66001489    -7.4731801     -6.4831718      6.392551       50218.233      36.893836      36.893836      36.893836    
    634000   0.65864978    -7.4706627     -6.4827021      6.4089915      50218.233      36.893836      36.893836      36.893836    
    635000   0.6614257     -7.4705121     -6.4783877      6.4097504      50218.233      36.893836      36.893836      36.893836    
    636000   0.65796943    -7.4738        -6.4868599      6.3919431      50218.233      36.893836      36.893836      36.893836    
    637000   0.6563054     -7.4693278     -6.4848837      6.40005        50218.233      36.893836      36.893836      36.893836    
    638000   0.66208395    -7.477041      -6.4839292      6.3711363      50218.233      36.893836      36.893836      36.893836    
    639000   0.66031599    -7.4694223     -6.4789624      6.4225488      50218.233      36.893836      36.893836      36.893836    
    640000   0.66007292    -7.4684393     -6.478344       6.4193267      50218.233      36.893836      36.893836      36.893836    
    641000   0.65956365    -7.4726859     -6.4833545      6.3877012      50218.233      36.893836      36.893836      36.893836    
    642000   0.66019538    -7.4706039     -6.4803249      6.4226085      50218.233      36.893836      36.893836      36.893836    
    643000   0.66193681    -7.4652004     -6.4723093      6.4394864      50218.233      36.893836      36.893836      36.893836    
    644000   0.65889671    -7.4680438     -6.4797128      6.4232748      50218.233      36.893836      36.893836      36.893836    
    645000   0.65998885    -7.4678084     -6.4778392      6.4304527      50218.233      36.893836      36.893836      36.893836    
    646000   0.65692168    -7.46703       -6.4816616      6.421213       50218.233      36.893836      36.893836      36.893836    
    647000   0.66037775    -7.4691877     -6.4786351      6.413649       50218.233      36.893836      36.893836      36.893836    
    648000   0.66075953    -7.4697353     -6.4786101      6.4170753      50218.233      36.893836      36.893836      36.893836    
    649000   0.66227869    -7.4668035     -6.4733996      6.4403921      50218.233      36.893836      36.893836      36.893836    
    650000   0.66022192    -7.4736299     -6.4833111      6.3899129      50218.233      36.893836      36.893836      36.893836    
    651000   0.66272531    -7.4709752     -6.4769014      6.4114696      50218.233      36.893836      36.893836      36.893836    
    652000   0.65951792    -7.466313      -6.4770501      6.4382636      50218.233      36.893836      36.893836      36.893836    
    653000   0.66007228    -7.4616902     -6.4715959      6.4755932      50218.233      36.893836      36.893836      36.893836    
    654000   0.65775683    -7.4647655     -6.4781442      6.4603169      50218.233      36.893836      36.893836      36.893836    
    655000   0.65880328    -7.4662049     -6.4780141      6.4353526      50218.233      36.893836      36.893836      36.893836    
    656000   0.66266704    -7.4691484     -6.475162       6.4175673      50218.233      36.893836      36.893836      36.893836    
    657000   0.66007769    -7.4729427     -6.4828403      6.3926674      50218.233      36.893836      36.893836      36.893836    
    658000   0.65699992    -7.4736539     -6.4881681      6.3775794      50218.233      36.893836      36.893836      36.893836    
    659000   0.65918181    -7.4693027     -6.4805441      6.4301884      50218.233      36.893836      36.893836      36.893836    
    660000   0.66179036    -7.4726215     -6.4799501      6.4030521      50218.233      36.893836      36.893836      36.893836    
    661000   0.66361401    -7.4715176     -6.4761107      6.4074804      50218.233      36.893836      36.893836      36.893836    
    662000   0.66179651    -7.4714578     -6.4787772      6.4037148      50218.233      36.893836      36.893836      36.893836    
    663000   0.65811404    -7.465387      -6.47823        6.4427435      50218.233      36.893836      36.893836      36.893836    
    664000   0.6620475     -7.4702512     -6.477194       6.4180919      50218.233      36.893836      36.893836      36.893836    
    665000   0.66280837    -7.4710444     -6.4768459      6.4214618      50218.233      36.893836      36.893836      36.893836    
    666000   0.6613257     -7.4630277     -6.4710532      6.4687319      50218.233      36.893836      36.893836      36.893836    
    667000   0.66040911    -7.4680288     -6.4774292      6.4393953      50218.233      36.893836      36.893836      36.893836    
    668000   0.66038426    -7.4712255     -6.4806631      6.4099294      50218.233      36.893836      36.893836      36.893836    
    669000   0.66033952    -7.4630048     -6.4725096      6.4682386      50218.233      36.893836      36.893836      36.893836    
    670000   0.65862139    -7.47048       -6.482562       6.4075243      50218.233      36.893836      36.893836      36.893836    
    671000   0.65906528    -7.4747653     -6.4861814      6.3799308      50218.233      36.893836      36.893836      36.893836    
    672000   0.66016842    -7.4712739     -6.4810353      6.396642       50218.233      36.893836      36.893836      36.893836    
    673000   0.65985018    -7.4683967     -6.4786355      6.4269535      50218.233      36.893836      36.893836      36.893836    
    674000   0.65989633    -7.4679437     -6.4781133      6.4298712      50218.233      36.893836      36.893836      36.893836    
    675000   0.6564554     -7.4684748     -6.4838058      6.4245196      50218.233      36.893836      36.893836      36.893836    
    676000   0.66013385    -7.4670634     -6.4768767      6.4313498      50218.233      36.893836      36.893836      36.893836    
    677000   0.65768502    -7.4767778     -6.4902643      6.3621695      50218.233      36.893836      36.893836      36.893836    
    678000   0.65916353    -7.4689505     -6.4802192      6.4275453      50218.233      36.893836      36.893836      36.893836    
    679000   0.65845932    -7.4722851     -6.4846101      6.3998648      50218.233      36.893836      36.893836      36.893836    
    680000   0.65523835    -7.473775      -6.4909315      6.3776584      50218.233      36.893836      36.893836      36.893836    
    681000   0.65875307    -7.4724794     -6.4843639      6.3880962      50218.233      36.893836      36.893836      36.893836    
    682000   0.65967582    -7.472734      -6.4832343      6.3904666      50218.233      36.893836      36.893836      36.893836    
    683000   0.66195234    -7.4729419     -6.4800275      6.4071732      50218.233      36.893836      36.893836      36.893836    
    684000   0.65926596    -7.4639385     -6.4750536      6.4660107      50218.233      36.893836      36.893836      36.893836    
    685000   0.66431177    -7.4705122     -6.4740587      6.4190094      50218.233      36.893836      36.893836      36.893836    
    686000   0.65985709    -7.4681368     -6.4783653      6.4348073      50218.233      36.893836      36.893836      36.893836    
    687000   0.66003769    -7.4721738     -6.4821313      6.3879324      50218.233      36.893836      36.893836      36.893836    
    688000   0.65981724    -7.4688021     -6.4790903      6.4315591      50218.233      36.893836      36.893836      36.893836    
    689000   0.66002781    -7.4676233     -6.4775957      6.4330745      50218.233      36.893836      36.893836      36.893836    
    690000   0.66011602    -7.4670032     -6.4768433      6.4285423      50218.233      36.893836      36.893836      36.893836    
    691000   0.65873685    -7.4689284     -6.4808372      6.4173686      50218.233      36.893836      36.893836      36.893836    
    692000   0.65835508    -7.4686924     -6.4811739      6.4388194      50218.233      36.893836      36.893836      36.893836    
    693000   0.65650315    -7.4761224     -6.4913817      6.3683019      50218.233      36.893836      36.893836      36.893836    
    694000   0.66065649    -7.4709948     -6.4800242      6.4014714      50218.233      36.893836      36.893836      36.893836    
    695000   0.66178344    -7.4742782     -6.4816171      6.3833072      50218.233      36.893836      36.893836      36.893836    
    696000   0.658297      -7.4732255     -6.485794       6.380958       50218.233      36.893836      36.893836      36.893836    
    697000   0.66289389    -7.4706893     -6.4763626      6.4174109      50218.233      36.893836      36.893836      36.893836    
    698000   0.65927928    -7.4655004     -6.4765956      6.4553759      50218.233      36.893836      36.893836      36.893836    
    699000   0.66071913    -7.4737079     -6.4826433      6.3949709      50218.233      36.893836      36.893836      36.893836    
    700000   0.65786111    -7.4702502     -6.4834726      6.4173745      50218.233      36.893836      36.893836      36.893836    
    701000   0.66202545    -7.4642282     -6.4712041      6.469771       50218.233      36.893836      36.893836      36.893836    
    702000   0.65788796    -7.4712056     -6.4843877      6.4027831      50218.233      36.893836      36.893836      36.893836    
    703000   0.65942124    -7.4673079     -6.4781901      6.443434       50218.233      36.893836      36.893836      36.893836    
    704000   0.66018618    -7.4675906     -6.4773254      6.4419534      50218.233      36.893836      36.893836      36.893836    
    705000   0.66206932    -7.4712837     -6.4781938      6.4135425      50218.233      36.893836      36.893836      36.893836    
    706000   0.65913424    -7.4627068     -6.4740195      6.4663179      50218.233      36.893836      36.893836      36.893836    
    707000   0.6657237     -7.4712433     -6.4726719      6.4110972      50218.233      36.893836      36.893836      36.893836    
    708000   0.66144024    -7.4673502     -6.475204       6.4454995      50218.233      36.893836      36.893836      36.893836    
    709000   0.65877616    -7.4737335     -6.4855833      6.3793601      50218.233      36.893836      36.893836      36.893836    
    710000   0.65942753    -7.4724911     -6.4833639      6.383128       50218.233      36.893836      36.893836      36.893836    
    711000   0.65884027    -7.4635805     -6.4753341      6.4632622      50218.233      36.893836      36.893836      36.893836    
    712000   0.65930556    -7.4705499     -6.4816056      6.4172527      50218.233      36.893836      36.893836      36.893836    
    713000   0.66119867    -7.4657835     -6.4739996      6.4501458      50218.233      36.893836      36.893836      36.893836    
    714000   0.65905561    -7.4687719     -6.4802025      6.4154118      50218.233      36.893836      36.893836      36.893836    
    715000   0.66052647    -7.4644756     -6.4737         6.4555679      50218.233      36.893836      36.893836      36.893836    
    716000   0.6602731     -7.4703799     -6.4799844      6.4223007      50218.233      36.893836      36.893836      36.893836    
    717000   0.65556506    -7.4715052     -6.4881716      6.3894325      50218.233      36.893836      36.893836      36.893836    
    718000   0.65944213    -7.4651528     -6.4760037      6.4423922      50218.233      36.893836      36.893836      36.893836    
    719000   0.65858148    -7.4681173     -6.4802591      6.4486674      50218.233      36.893836      36.893836      36.893836    
    720000   0.6625991     -7.4706185     -6.476734       6.4118866      50218.233      36.893836      36.893836      36.893836    
    721000   0.66239376    -7.471625      -6.4780485      6.4156574      50218.233      36.893836      36.893836      36.893836    
    722000   0.66117015    -7.465089      -6.4733479      6.4447608      50218.233      36.893836      36.893836      36.893836    
    723000   0.65567838    -7.4627149     -6.4792113      6.4565135      50218.233      36.893836      36.893836      36.893836    
    724000   0.65919827    -7.4661419     -6.4773586      6.4429198      50218.233      36.893836      36.893836      36.893836    
    725000   0.65548385    -7.4697693     -6.4865575      6.407671       50218.233      36.893836      36.893836      36.893836    
    726000   0.66145975    -7.4614354     -6.4692599      6.476784       50218.233      36.893836      36.893836      36.893836    
    727000   0.65993513    -7.4683166     -6.478428       6.4076359      50218.233      36.893836      36.893836      36.893836    
    728000   0.66121158    -7.4670057     -6.4752024      6.4427132      50218.233      36.893836      36.893836      36.893836    
    729000   0.65875807    -7.4653467     -6.4772236      6.4459844      50218.233      36.893836      36.893836      36.893836    
    730000   0.65937281    -7.4709107     -6.4818656      6.406496       50218.233      36.893836      36.893836      36.893836    
    731000   0.65927108    -7.4671511     -6.4782585      6.4396012      50218.233      36.893836      36.893836      36.893836    
    732000   0.65794989    -7.4668677     -6.4799569      6.4418114      50218.233      36.893836      36.893836      36.893836    
    733000   0.66233027    -7.4687148     -6.4752335      6.4335337      50218.233      36.893836      36.893836      36.893836    
    734000   0.65891091    -7.4689679     -6.4806156      6.4389727      50218.233      36.893836      36.893836      36.893836    
    735000   0.65906       -7.4668322     -6.4782563      6.4359235      50218.233      36.893836      36.893836      36.893836    
    736000   0.66108135    -7.4663222     -6.4747143      6.4288931      50218.233      36.893836      36.893836      36.893836    
    737000   0.66236207    -7.4697493     -6.4762203      6.4090401      50218.233      36.893836      36.893836      36.893836    
    738000   0.66067068    -7.4685781     -6.4775861      6.4183283      50218.233      36.893836      36.893836      36.893836    
    739000   0.66110116    -7.4634667     -6.4718291      6.4642956      50218.233      36.893836      36.893836      36.893836    
    740000   0.65967204    -7.4713322     -6.4818382      6.4105987      50218.233      36.893836      36.893836      36.893836    
    741000   0.66100566    -7.4671663     -6.4756719      6.4349337      50218.233      36.893836      36.893836      36.893836    
    742000   0.65758598    -7.4655803     -6.4792153      6.4344253      50218.233      36.893836      36.893836      36.893836    
    743000   0.66199604    -7.4617574     -6.4687774      6.4691716      50218.233      36.893836      36.893836      36.893836    
    744000   0.66213811    -7.4583214     -6.4651284      6.5110339      50218.233      36.893836      36.893836      36.893836    
    745000   0.65655142    -7.4643414     -6.4795282      6.4569872      50218.233      36.893836      36.893836      36.893836    
    746000   0.66218522    -7.4733519     -6.4800882      6.3847721      50218.233      36.893836      36.893836      36.893836    
    747000   0.66166011    -7.4673297     -6.4748536      6.4421151      50218.233      36.893836      36.893836      36.893836    
    748000   0.65972526    -7.4711485     -6.4815747      6.3960319      50218.233      36.893836      36.893836      36.893836    
    749000   0.65967771    -7.4688201     -6.4793176      6.4189642      50218.233      36.893836      36.893836      36.893836    
    750000   0.65871523    -7.4693468     -6.481288       6.4251389      50218.233      36.893836      36.893836      36.893836    
    751000   0.65543137    -7.4692249     -6.4860918      6.4171996      50218.233      36.893836      36.893836      36.893836    
    752000   0.65886767    -7.4674158     -6.4791283      6.4380919      50218.233      36.893836      36.893836      36.893836    
    753000   0.66470138    -7.470603      -6.4735651      6.4270889      50218.233      36.893836      36.893836      36.893836    
    754000   0.65825513    -7.4689191     -6.4815505      6.4305342      50218.233      36.893836      36.893836      36.893836    
    755000   0.66045953    -7.4671194     -6.4764442      6.4429491      50218.233      36.893836      36.893836      36.893836    
    756000   0.6579872     -7.4724907     -6.4855239      6.3829097      50218.233      36.893836      36.893836      36.893836    
    757000   0.65973082    -7.4710265     -6.4814443      6.4077957      50218.233      36.893836      36.893836      36.893836    
    758000   0.66042611    -7.463857      -6.4732319      6.4570089      50218.233      36.893836      36.893836      36.893836    
    759000   0.65970397    -7.4723762     -6.4828343      6.4059868      50218.233      36.893836      36.893836      36.893836    
    760000   0.66377134    -7.4618372     -6.4661944      6.4850491      50218.233      36.893836      36.893836      36.893836    
    761000   0.66042237    -7.4656473     -6.4750278      6.4444565      50218.233      36.893836      36.893836      36.893836    
    762000   0.65825699    -7.468305      -6.4809335      6.4263454      50218.233      36.893836      36.893836      36.893836    
    763000   0.66094245    -7.4707406     -6.4793411      6.4082459      50218.233      36.893836      36.893836      36.893836    
    764000   0.66042172    -7.4731236     -6.4825052      6.3982789      50218.233      36.893836      36.893836      36.893836    
    765000   0.65961114    -7.4658111     -6.4764084      6.454532       50218.233      36.893836      36.893836      36.893836    
    766000   0.66062179    -7.4672433     -6.4763247      6.4435488      50218.233      36.893836      36.893836      36.893836    
    767000   0.65984759    -7.4740904     -6.4843331      6.3943886      50218.233      36.893836      36.893836      36.893836    
    768000   0.65677729    -7.4693775     -6.4842256      6.4216204      50218.233      36.893836      36.893836      36.893836    
    769000   0.6574232     -7.4671879     -6.4810671      6.4249124      50218.233      36.893836      36.893836      36.893836    
    770000   0.66008537    -7.4675726     -6.4774587      6.44838        50218.233      36.893836      36.893836      36.893836    
    771000   0.65835834    -7.4709263     -6.4834028      6.4036546      50218.233      36.893836      36.893836      36.893836    
    772000   0.6596539     -7.465363      -6.4758962      6.4473646      50218.233      36.893836      36.893836      36.893836    
    773000   0.65973994    -7.4703172     -6.4807213      6.4229228      50218.233      36.893836      36.893836      36.893836    
    774000   0.65906042    -7.4664395     -6.4778629      6.4329393      50218.233      36.893836      36.893836      36.893836    
    775000   0.66073573    -7.4684693     -6.4773798      6.4262478      50218.233      36.893836      36.893836      36.893836    
    776000   0.66041086    -7.4667192     -6.476117       6.4298749      50218.233      36.893836      36.893836      36.893836    
    777000   0.66214325    -7.4734482     -6.4802474      6.3907075      50218.233      36.893836      36.893836      36.893836    
    778000   0.66094878    -7.4722233     -6.4808142      6.393055       50218.233      36.893836      36.893836      36.893836    
    779000   0.65935891    -7.4672383     -6.478214       6.4332497      50218.233      36.893836      36.893836      36.893836    
    780000   0.65827845    -7.4682268     -6.4808232      6.4288893      50218.233      36.893836      36.893836      36.893836    
    781000   0.66328824    -7.4742624     -6.4793442      6.3886202      50218.233      36.893836      36.893836      36.893836    
    782000   0.65682324    -7.4720986     -6.4868778      6.3920979      50218.233      36.893836      36.893836      36.893836    
    783000   0.65554315    -7.4700621     -6.4867614      6.4016505      50218.233      36.893836      36.893836      36.893836    
    784000   0.65880843    -7.4665421     -6.4783435      6.4297239      50218.233      36.893836      36.893836      36.893836    
    785000   0.65980162    -7.4669228     -6.4772344      6.4217389      50218.233      36.893836      36.893836      36.893836    
    786000   0.66211478    -7.4745162     -6.4813581      6.3804253      50218.233      36.893836      36.893836      36.893836    
    787000   0.65800472    -7.4712294     -6.4842364      6.4049518      50218.233      36.893836      36.893836      36.893836    
    788000   0.65976613    -7.4669721     -6.477337       6.4370022      50218.233      36.893836      36.893836      36.893836    
    789000   0.66345095    -7.4688762     -6.4737139      6.4288815      50218.233      36.893836      36.893836      36.893836    
    790000   0.66207263    -7.4663477     -6.4732528      6.4323949      50218.233      36.893836      36.893836      36.893836    
    791000   0.65745174    -7.4708297     -6.4846661      6.407973       50218.233      36.893836      36.893836      36.893836    
    792000   0.6596484     -7.4691138     -6.4796553      6.4184022      50218.233      36.893836      36.893836      36.893836    
    793000   0.65789033    -7.4727029     -6.4858815      6.39208        50218.233      36.893836      36.893836      36.893836    
    794000   0.65351482    -7.4752458     -6.4949875      6.357201       50218.233      36.893836      36.893836      36.893836    
    795000   0.66321487    -7.4668819     -6.4720738      6.4323353      50218.233      36.893836      36.893836      36.893836    
    796000   0.66187543    -7.4687125     -6.4759135      6.4213762      50218.233      36.893836      36.893836      36.893836    
    797000   0.65916539    -7.4691036     -6.4803696      6.4164874      50218.233      36.893836      36.893836      36.893836    
    798000   0.65865126    -7.4715938     -6.483631       6.400892       50218.233      36.893836      36.893836      36.893836    
    799000   0.65957049    -7.4756626     -6.4863209      6.3725979      50218.233      36.893836      36.893836      36.893836    
    800000   0.65907412    -7.4802794     -6.4916822      6.3240066      50218.233      36.893836      36.893836      36.893836    
    801000   0.66280943    -7.4754558     -6.4812558      6.3700453      50218.233      36.893836      36.893836      36.893836    
    802000   0.65742001    -7.4679363     -6.4818203      6.4242804      50218.233      36.893836      36.893836      36.893836    
    803000   0.65944556    -7.4791222     -6.4899679      6.343144       50218.233      36.893836      36.893836      36.893836    
    804000   0.66021967    -7.4741729     -6.4838575      6.3818527      50218.233      36.893836      36.893836      36.893836    
    805000   0.65997158    -7.4744802     -6.4845369      6.3776073      50218.233      36.893836      36.893836      36.893836    
    806000   0.66137801    -7.4757714     -6.4837185      6.3687862      50218.233      36.893836      36.893836      36.893836    
    807000   0.65873402    -7.473466      -6.485379       6.3962181      50218.233      36.893836      36.893836      36.893836    
    808000   0.66124938    -7.4780496     -6.4861897      6.3662961      50218.233      36.893836      36.893836      36.893836    
    809000   0.66172975    -7.4692837     -6.4767031      6.4299328      50218.233      36.893836      36.893836      36.893836    
    810000   0.66019826    -7.472969      -6.4826857      6.3950667      50218.233      36.893836      36.893836      36.893836    
    811000   0.6604576     -7.4680005     -6.4773282      6.4350803      50218.233      36.893836      36.893836      36.893836    
    812000   0.66138401    -7.4726806     -6.4806187      6.4040748      50218.233      36.893836      36.893836      36.893836    
    813000   0.662961      -7.4727904     -6.4783631      6.4016281      50218.233      36.893836      36.893836      36.893836    
    814000   0.65876166    -7.4760832     -6.4879548      6.3684369      50218.233      36.893836      36.893836      36.893836    
    815000   0.65912738    -7.4773532     -6.4886762      6.3521772      50218.233      36.893836      36.893836      36.893836    
    816000   0.65861621    -7.4725599     -6.4846497      6.3897928      50218.233      36.893836      36.893836      36.893836    
    817000   0.65676807    -7.470712      -6.4855739      6.4002327      50218.233      36.893836      36.893836      36.893836    
    818000   0.65967611    -7.471546      -6.4820459      6.416665       50218.233      36.893836      36.893836      36.893836    
    819000   0.66266778    -7.4693408     -6.4753533      6.432048       50218.233      36.893836      36.893836      36.893836    
    820000   0.66036839    -7.4685436     -6.4780051      6.4353517      50218.233      36.893836      36.893836      36.893836    
    821000   0.6637936     -7.4701157     -6.4744395      6.4180778      50218.233      36.893836      36.893836      36.893836    
    822000   0.65942558    -7.4678357     -6.4787114      6.4155786      50218.233      36.893836      36.893836      36.893836    
    823000   0.65953093    -7.471193      -6.4819107      6.4075496      50218.233      36.893836      36.893836      36.893836    
    824000   0.65893521    -7.4734743     -6.4850855      6.3807238      50218.233      36.893836      36.893836      36.893836    
    825000   0.65770824    -7.4789266     -6.4923782      6.3502361      50218.233      36.893836      36.893836      36.893836    
    826000   0.66414114    -7.4737103     -6.4775128      6.3848227      50218.233      36.893836      36.893836      36.893836    
    827000   0.66210572    -7.4719965     -6.478852       6.4030378      50218.233      36.893836      36.893836      36.893836    
    828000   0.65916648    -7.469972      -6.4812363      6.416259       50218.233      36.893836      36.893836      36.893836    
    829000   0.6593475     -7.4709363     -6.4819292      6.4036554      50218.233      36.893836      36.893836      36.893836    
    830000   0.66058185    -7.4749196     -6.484061       6.3829007      50218.233      36.893836      36.893836      36.893836    
    831000   0.66193248    -7.4695233     -6.4766387      6.4076618      50218.233      36.893836      36.893836      36.893836    
    832000   0.6609079     -7.4706087     -6.479261       6.4091913      50218.233      36.893836      36.893836      36.893836    
    833000   0.66000108    -7.472038      -6.4820505      6.3911842      50218.233      36.893836      36.893836      36.893836    
    834000   0.66226091    -7.4714708     -6.4780936      6.3959224      50218.233      36.893836      36.893836      36.893836    
    835000   0.65954511    -7.466336      -6.4770324      6.4405212      50218.233      36.893836      36.893836      36.893836    
    836000   0.65926212    -7.4702596     -6.4813805      6.4176457      50218.233      36.893836      36.893836      36.893836    
    837000   0.66261554    -7.4735731     -6.479664       6.3898406      50218.233      36.893836      36.893836      36.893836    
    838000   0.65687334    -7.4679773     -6.4826813      6.4303311      50218.233      36.893836      36.893836      36.893836    
    839000   0.65809403    -7.4670274     -6.4799004      6.4278237      50218.233      36.893836      36.893836      36.893836    
    840000   0.65773246    -7.4744988     -6.4879142      6.3782878      50218.233      36.893836      36.893836      36.893836    
    841000   0.6588342     -7.4722332     -6.483996       6.4027874      50218.233      36.893836      36.893836      36.893836    
    842000   0.66290752    -7.4722639     -6.4779167      6.3904313      50218.233      36.893836      36.893836      36.893836    
    843000   0.66098095    -7.4714923     -6.480035       6.4033529      50218.233      36.893836      36.893836      36.893836    
    844000   0.65956797    -7.469023      -6.4796851      6.4225843      50218.233      36.893836      36.893836      36.893836    
    845000   0.66064099    -7.4655551     -6.4746077      6.4435785      50218.233      36.893836      36.893836      36.893836    
    846000   0.66002505    -7.4694419     -6.4794184      6.4180169      50218.233      36.893836      36.893836      36.893836    
    847000   0.65718508    -7.4706807     -6.4849171      6.4110949      50218.233      36.893836      36.893836      36.893836    
    848000   0.6628728     -7.4613201     -6.4670251      6.4755686      50218.233      36.893836      36.893836      36.893836    
    849000   0.65817133    -7.4679349     -6.4806919      6.4207762      50218.233      36.893836      36.893836      36.893836    
    850000   0.65805758    -7.4671929     -6.4801206      6.4388659      50218.233      36.893836      36.893836      36.893836    
    851000   0.66135143    -7.4655123     -6.4734992      6.4462395      50218.233      36.893836      36.893836      36.893836    
    852000   0.661372      -7.4744587     -6.4824149      6.3827537      50218.233      36.893836      36.893836      36.893836    
    853000   0.66127386    -7.4677848     -6.4758881      6.4334414      50218.233      36.893836      36.893836      36.893836    
    854000   0.66121944    -7.4664601     -6.4746451      6.4319422      50218.233      36.893836      36.893836      36.893836    
    855000   0.66130777    -7.4683904     -6.4764429      6.4138188      50218.233      36.893836      36.893836      36.893836    
    856000   0.65934744    -7.4719815     -6.4829744      6.4010437      50218.233      36.893836      36.893836      36.893836    
    857000   0.65743224    -7.4653533     -6.479219       6.4376125      50218.233      36.893836      36.893836      36.893836    
    858000   0.6582662     -7.4711458     -6.4837606      6.4177033      50218.233      36.893836      36.893836      36.893836    
    859000   0.65837591    -7.472952      -6.4854021      6.3869963      50218.233      36.893836      36.893836      36.893836    
    860000   0.66247552    -7.4719997     -6.4783006      6.4084435      50218.233      36.893836      36.893836      36.893836    
    861000   0.66235867    -7.4757265     -6.4822026      6.3859625      50218.233      36.893836      36.893836      36.893836    
    862000   0.65912607    -7.4736637     -6.4849886      6.3954635      50218.233      36.893836      36.893836      36.893836    
    863000   0.6618032     -7.4718149     -6.4791242      6.4077321      50218.233      36.893836      36.893836      36.893836    
    864000   0.66186492    -7.4762625     -6.4834793      6.3674854      50218.233      36.893836      36.893836      36.893836    
    865000   0.65984219    -7.4796006     -6.4898514      6.3451263      50218.233      36.893836      36.893836      36.893836    
    866000   0.6617379     -7.4705087     -6.4779159      6.4232556      50218.233      36.893836      36.893836      36.893836    
    867000   0.65916052    -7.4772599     -6.4885332      6.3569446      50218.233      36.893836      36.893836      36.893836    
    868000   0.6602956     -7.4717076     -6.4812783      6.4039731      50218.233      36.893836      36.893836      36.893836    
    869000   0.65974505    -7.4692966     -6.4796931      6.4195166      50218.233      36.893836      36.893836      36.893836    
    870000   0.66021876    -7.4673165     -6.4770025      6.4326598      50218.233      36.893836      36.893836      36.893836    
    871000   0.6579305     -7.4692487     -6.4823669      6.4241853      50218.233      36.893836      36.893836      36.893836    
    872000   0.65956649    -7.4653405     -6.4760049      6.4486959      50218.233      36.893836      36.893836      36.893836    
    873000   0.66167183    -7.4644477     -6.4719541      6.4573777      50218.233      36.893836      36.893836      36.893836    
    874000   0.66235228    -7.467765      -6.4742507      6.4279743      50218.233      36.893836      36.893836      36.893836    
    875000   0.66062685    -7.4699131     -6.4789869      6.421518       50218.233      36.893836      36.893836      36.893836    
    876000   0.6560651     -7.4703417     -6.4862581      6.4207521      50218.233      36.893836      36.893836      36.893836    
    877000   0.66234415    -7.4649844     -6.4714823      6.4592697      50218.233      36.893836      36.893836      36.893836    
    878000   0.65790451    -7.4677862     -6.4809435      6.4186516      50218.233      36.893836      36.893836      36.893836    
    879000   0.65971886    -7.4654727     -6.4759085      6.4546321      50218.233      36.893836      36.893836      36.893836    
    880000   0.65699336    -7.4690052     -6.4835292      6.4232111      50218.233      36.893836      36.893836      36.893836    
    881000   0.66226964    -7.4719245     -6.4785342      6.4041546      50218.233      36.893836      36.893836      36.893836    
    882000   0.65978498    -7.4746929     -6.4850295      6.3844932      50218.233      36.893836      36.893836      36.893836    
    883000   0.65846866    -7.4671271     -6.4794382      6.4292629      50218.233      36.893836      36.893836      36.893836    
    884000   0.6584228     -7.4713162     -6.4836961      6.4057864      50218.233      36.893836      36.893836      36.893836    
    885000   0.65907083    -7.4659578     -6.4773656      6.4432054      50218.233      36.893836      36.893836      36.893836    
    886000   0.66248616    -7.4698313     -6.4761162      6.4350177      50218.233      36.893836      36.893836      36.893836    
    887000   0.65585308    -7.4699886     -6.4862229      6.3964371      50218.233      36.893836      36.893836      36.893836    
    888000   0.66009679    -7.4711229     -6.4809918      6.4025042      50218.233      36.893836      36.893836      36.893836    
    889000   0.65991285    -7.4702714     -6.4804162      6.409655       50218.233      36.893836      36.893836      36.893836    
    890000   0.66201443    -7.4730537     -6.4800461      6.4036796      50218.233      36.893836      36.893836      36.893836    
    891000   0.65487379    -7.4740014     -6.4917047      6.3806808      50218.233      36.893836      36.893836      36.893836    
    892000   0.65839753    -7.4694715     -6.4818893      6.4276497      50218.233      36.893836      36.893836      36.893836    
    893000   0.66033456    -7.4710975     -6.4806098      6.4054799      50218.233      36.893836      36.893836      36.893836    
    894000   0.65917794    -7.4682734     -6.4795205      6.4272784      50218.233      36.893836      36.893836      36.893836    
    895000   0.65956221    -7.4757895     -6.4864602      6.3857052      50218.233      36.893836      36.893836      36.893836    
    896000   0.66271657    -7.4740495     -6.4799888      6.3859223      50218.233      36.893836      36.893836      36.893836    
    897000   0.65607874    -7.4686956     -6.4845915      6.4104705      50218.233      36.893836      36.893836      36.893836    
    898000   0.66249178    -7.4752081     -6.4814846      6.3655095      50218.233      36.893836      36.893836      36.893836    
    899000   0.65589509    -7.4692888     -6.4854601      6.4218606      50218.233      36.893836      36.893836      36.893836    
    900000   0.65918328    -7.4717856     -6.4830248      6.3969821      50218.233      36.893836      36.893836      36.893836    
    901000   0.6608043     -7.4674022     -6.4762099      6.4311546      50218.233      36.893836      36.893836      36.893836    
    902000   0.65696644    -7.4701131     -6.4846774      6.4177597      50218.233      36.893836      36.893836      36.893836    
    903000   0.65920671    -7.4680755     -6.4792795      6.4190462      50218.233      36.893836      36.893836      36.893836    
    904000   0.66131477    -7.4724769     -6.4805188      6.4071084      50218.233      36.893836      36.893836      36.893836    
    905000   0.66120642    -7.4700359     -6.4782404      6.4212027      50218.233      36.893836      36.893836      36.893836    
    906000   0.65990917    -7.4661736     -6.4763239      6.4408122      50218.233      36.893836      36.893836      36.893836    
    907000   0.66285418    -7.4707614     -6.4764943      6.4083733      50218.233      36.893836      36.893836      36.893836    
    908000   0.65892868    -7.4663968     -6.4780178      6.4409847      50218.233      36.893836      36.893836      36.893836    
    909000   0.66064794    -7.4626637     -6.4717059      6.476914       50218.233      36.893836      36.893836      36.893836    
    910000   0.65572479    -7.4654102     -6.481837       6.4375409      50218.233      36.893836      36.893836      36.893836    
    911000   0.65886356    -7.4724295     -6.4841482      6.3987517      50218.233      36.893836      36.893836      36.893836    
    912000   0.66293494    -7.4636321     -6.4692439      6.4734412      50218.233      36.893836      36.893836      36.893836    
    913000   0.66075574    -7.4647467     -6.4736272      6.4618369      50218.233      36.893836      36.893836      36.893836    
    914000   0.65785347    -7.4663554     -6.4795892      6.4320216      50218.233      36.893836      36.893836      36.893836    
    915000   0.65807681    -7.4638985     -6.4767974      6.4617549      50218.233      36.893836      36.893836      36.893836    
    916000   0.66111491    -7.4706948     -6.4790366      6.4229646      50218.233      36.893836      36.893836      36.893836    
    917000   0.66195493    -7.4630974     -6.4701791      6.4724633      50218.233      36.893836      36.893836      36.893836    
    918000   0.6589507     -7.4710887     -6.4826768      6.4149742      50218.233      36.893836      36.893836      36.893836    
    919000   0.663018      -7.4710952     -6.4765824      6.4146329      50218.233      36.893836      36.893836      36.893836    
    920000   0.65795668    -7.4655622     -6.4786413      6.4304101      50218.233      36.893836      36.893836      36.893836    
    921000   0.66087597    -7.4667687     -6.4754688      6.4354751      50218.233      36.893836      36.893836      36.893836    
    922000   0.66081933    -7.4607749     -6.46956        6.4936637      50218.233      36.893836      36.893836      36.893836    
    923000   0.66200848    -7.4714829     -6.4784843      6.4137727      50218.233      36.893836      36.893836      36.893836    
    924000   0.6586564     -7.4680751     -6.4801045      6.4257508      50218.233      36.893836      36.893836      36.893836    
    925000   0.66121277    -7.4665069     -6.4747018      6.448613       50218.233      36.893836      36.893836      36.893836    
    926000   0.66010372    -7.4702978     -6.4801563      6.4085263      50218.233      36.893836      36.893836      36.893836    
    927000   0.66083868    -7.4626801     -6.4714362      6.4692673      50218.233      36.893836      36.893836      36.893836    
    928000   0.65975709    -7.4663218     -6.4767002      6.4441088      50218.233      36.893836      36.893836      36.893836    
    929000   0.65667947    -7.4664325     -6.4814273      6.429455       50218.233      36.893836      36.893836      36.893836    
    930000   0.65977898    -7.4724666     -6.4828122      6.4012553      50218.233      36.893836      36.893836      36.893836    
    931000   0.66020699    -7.4717267     -6.4814303      6.4055541      50218.233      36.893836      36.893836      36.893836    
    932000   0.65942565    -7.4669637     -6.4778393      6.4414789      50218.233      36.893836      36.893836      36.893836    
    933000   0.65935532    -7.4685805     -6.4795616      6.4168275      50218.233      36.893836      36.893836      36.893836    
    934000   0.66307911    -7.470426      -6.4758215      6.4190775      50218.233      36.893836      36.893836      36.893836    
    935000   0.6604701     -7.462057      -6.471366       6.4674341      50218.233      36.893836      36.893836      36.893836    
    936000   0.6596188     -7.4637478     -6.4743337      6.4579997      50218.233      36.893836      36.893836      36.893836    
    937000   0.66213021    -7.4638832     -6.470702       6.473715       50218.233      36.893836      36.893836      36.893836    
    938000   0.66347531    -7.4632092     -6.4680104      6.4669601      50218.233      36.893836      36.893836      36.893836    
    939000   0.66056808    -7.4672284     -6.4763904      6.429292       50218.233      36.893836      36.893836      36.893836    
    940000   0.65835372    -7.4694174     -6.4819009      6.419156       50218.233      36.893836      36.893836      36.893836    
    941000   0.66151693    -7.4688324     -6.4765711      6.4351015      50218.233      36.893836      36.893836      36.893836    
    942000   0.65742768    -7.4693417     -6.4832142      6.4185075      50218.233      36.893836      36.893836      36.893836    
    943000   0.65904517    -7.4658827     -6.4773291      6.4396041      50218.233      36.893836      36.893836      36.893836    
    944000   0.65894249    -7.4629515     -6.4745518      6.4611867      50218.233      36.893836      36.893836      36.893836    
    945000   0.66052121    -7.4673925     -6.4766248      6.4356885      50218.233      36.893836      36.893836      36.893836    
    946000   0.65974628    -7.466258      -6.4766527      6.4450173      50218.233      36.893836      36.893836      36.893836    
    947000   0.66197734    -7.4709564     -6.4780045      6.4047853      50218.233      36.893836      36.893836      36.893836    
    948000   0.65722928    -7.4679826     -6.4821527      6.4229533      50218.233      36.893836      36.893836      36.893836    
    949000   0.65814459    -7.4722405     -6.4850377      6.4002176      50218.233      36.893836      36.893836      36.893836    
    950000   0.66160855    -7.4674655     -6.4750668      6.4457157      50218.233      36.893836      36.893836      36.893836    
    951000   0.66342119    -7.4649388     -6.4698212      6.4613478      50218.233      36.893836      36.893836      36.893836    
    952000   0.65939602    -7.4730302     -6.4839502      6.3836879      50218.233      36.893836      36.893836      36.893836    
    953000   0.65973053    -7.4686711     -6.4790894      6.4269059      50218.233      36.893836      36.893836      36.893836    
    954000   0.65820028    -7.4669309     -6.4796445      6.4374296      50218.233      36.893836      36.893836      36.893836    
    955000   0.66057566    -7.4672524     -6.476403       6.4482438      50218.233      36.893836      36.893836      36.893836    
    956000   0.65954207    -7.4719662     -6.4826672      6.4029514      50218.233      36.893836      36.893836      36.893836    
    957000   0.66286904    -7.4698686     -6.4755792      6.4242198      50218.233      36.893836      36.893836      36.893836    
    958000   0.66321584    -7.4738151     -6.4790055      6.3950233      50218.233      36.893836      36.893836      36.893836    
    959000   0.65690978    -7.4626804     -6.4773298      6.4652104      50218.233      36.893836      36.893836      36.893836    
    960000   0.66116024    -7.4734566     -6.4817304      6.3884153      50218.233      36.893836      36.893836      36.893836    
    961000   0.66188324    -7.4686506     -6.4758399      6.4315262      50218.233      36.893836      36.893836      36.893836    
    962000   0.6600756     -7.4687061     -6.4786068      6.4272918      50218.233      36.893836      36.893836      36.893836    
    963000   0.66314343    -7.4776885     -6.4829875      6.3615972      50218.233      36.893836      36.893836      36.893836    
    964000   0.65973356    -7.4714199     -6.4818336      6.4150752      50218.233      36.893836      36.893836      36.893836    
    965000   0.66188844    -7.4749857     -6.4821672      6.3832731      50218.233      36.893836      36.893836      36.893836    
    966000   0.66105492    -7.4740841     -6.4825158      6.3940436      50218.233      36.893836      36.893836      36.893836    
    967000   0.66040512    -7.4695139     -6.4789203      6.4131944      50218.233      36.893836      36.893836      36.893836    
    968000   0.66178958    -7.4680274     -6.4753572      6.4285396      50218.233      36.893836      36.893836      36.893836    
    969000   0.66110773    -7.4753625     -6.4837151      6.3766093      50218.233      36.893836      36.893836      36.893836    
    970000   0.66125194    -7.4739174     -6.4820536      6.3763248      50218.233      36.893836      36.893836      36.893836    
    971000   0.65856766    -7.4727008     -6.4848633      6.3878264      50218.233      36.893836      36.893836      36.893836    
    972000   0.66179526    -7.4720978     -6.479419       6.4104708      50218.233      36.893836      36.893836      36.893836    
    973000   0.6566994     -7.4725425     -6.4875074      6.4120888      50218.233      36.893836      36.893836      36.893836    
    974000   0.66406932    -7.4748751     -6.4787853      6.3784489      50218.233      36.893836      36.893836      36.893836    
    975000   0.66098751    -7.4740024     -6.4825353      6.3942709      50218.233      36.893836      36.893836      36.893836    
    976000   0.65576707    -7.4704159     -6.4867793      6.4127665      50218.233      36.893836      36.893836      36.893836    
    977000   0.65913243    -7.4703432     -6.4816586      6.4179143      50218.233      36.893836      36.893836      36.893836    
    978000   0.66024205    -7.4672101     -6.4768611      6.4415688      50218.233      36.893836      36.893836      36.893836    
    979000   0.66064906    -7.4691238     -6.4781643      6.4178492      50218.233      36.893836      36.893836      36.893836    
    980000   0.66178827    -7.4728583     -6.48019        6.39747        50218.233      36.893836      36.893836      36.893836    
    981000   0.65904933    -7.4672529     -6.478693       6.4274867      50218.233      36.893836      36.893836      36.893836    
    982000   0.657443      -7.4717931     -6.4856426      6.4051873      50218.233      36.893836      36.893836      36.893836    
    983000   0.65384294    -7.4688656     -6.4881151      6.4091559      50218.233      36.893836      36.893836      36.893836    
    984000   0.65652683    -7.4712147     -6.4864385      6.3938894      50218.233      36.893836      36.893836      36.893836    
    985000   0.66294747    -7.474227      -6.4798199      6.3860456      50218.233      36.893836      36.893836      36.893836    
    986000   0.66239465    -7.4669667     -6.4733888      6.4402152      50218.233      36.893836      36.893836      36.893836    
    987000   0.65639106    -7.4687848     -6.4842122      6.4102275      50218.233      36.893836      36.893836      36.893836    
    988000   0.65891538    -7.471033      -6.482674       6.4155534      50218.233      36.893836      36.893836      36.893836    
    989000   0.65827563    -7.4735008     -6.4861014      6.3834653      50218.233      36.893836      36.893836      36.893836    
    990000   0.65880923    -7.4694806     -6.4812808      6.4032196      50218.233      36.893836      36.893836      36.893836    
    991000   0.65660166    -7.4647042     -6.4798157      6.4446953      50218.233      36.893836      36.893836      36.893836    
    992000   0.6619857     -7.4662696     -6.4733051      6.4456331      50218.233      36.893836      36.893836      36.893836    
    993000   0.65765249    -7.4701474     -6.4836827      6.4161484      50218.233      36.893836      36.893836      36.893836    
    994000   0.65737697    -7.4677665     -6.4817151      6.4184208      50218.233      36.893836      36.893836      36.893836    
    995000   0.65842665    -7.4718925     -6.4842665      6.3967948      50218.233      36.893836      36.893836      36.893836    
    996000   0.66037033    -7.4734365     -6.4828951      6.3709495      50218.233      36.893836      36.893836      36.893836    
    997000   0.65662552    -7.4713421     -6.4864178      6.3935361      50218.233      36.893836      36.893836      36.893836    
    998000   0.6596317     -7.4643013     -6.4748678      6.4522444      50218.233      36.893836      36.893836      36.893836    
    999000   0.65969854    -7.470902      -6.4813683      6.4140401      50218.233      36.893836      36.893836      36.893836    
   1000000   0.65930395    -7.4741638     -6.485222       6.3812365      50218.233      36.893836      36.893836      36.893836    
Loop time of 1647.9 on 5 procs for 1000000 steps with 70304 atoms

Performance: 524305.140 tau/day, 606.835 timesteps/s, 42.663 Matom-step/s
94.9% CPU use with 5 MPI tasks x 1 OpenMP threads

MPI task timing breakdown:
Section |  min time  |  avg time  |  max time  |%varavg| %total
---------------------------------------------------------------
Pair    | 593.64     | 672.45     | 710.64     | 158.6 | 40.81
Neigh   | 6.1408     | 6.2642     | 6.4282     |   4.4 |  0.38
Comm    | 248.89     | 253.15     | 256.73     |  19.5 | 15.36
Output  | 0.17924    | 0.18678    | 0.20104    |   1.8 |  0.01
Modify  | 596.9      | 630.32     | 707.45     | 158.6 | 38.25
Other   |            | 85.53      |            |       |  5.19

Nlocal:        14060.8 ave       14090 max       14030 min
Histogram: 1 1 0 0 0 0 1 0 1 1
Nghost:        18738.2 ave       18805 max       18707 min
Histogram: 2 0 1 1 0 0 0 0 0 1
Neighs:              0 ave           0 max           0 min
Histogram: 5 0 0 0 0 0 0 0 0 0

Total # of neighbors = 0
Ave neighs/atom = 0
Neighbor list builds = 248331
Dangerous builds = 0
clear
OMP_NUM_THREADS environment is not set. Defaulting to 1 thread. (src/comm.cpp:98)
  using 1 OpenMP thread(s) per MPI task
package gpu 0
jump dms640.lmp

variable T equal 640
# T = 1000* (temp in LJ unit)
variable f equal 1000
log log.${T}
log log.640
