variable TLJ equal (${T}/1000)
variable TLJ equal (635/1000)
variable NCyle equal 10
variable iStep equal (${f})
variable iStep equal (1000)
variable dumpStep equal (${f}*100)
variable dumpStep equal (1000*100)
variable runStep equal (${f}*100*${NCyle})
variable runStep equal (1000*100*${NCyle})
variable runStep equal (1000*100*10)

units       lj
atom_style  atomic
dimension 3
boundary     p p p
pair_style  lj/cut 2.5
read_data  ../data/T${T}.dat
read_data  ../data/T635.dat
Reading data file ...
  orthogonal box = (0.97250269 0.97250269 0.97250269) to (37.866338 37.866338 37.866338)
  1 by 1 by 1 MPI processor grid
  reading atoms ...
  70304 atoms
  reading velocities ...
  70304 velocities
  read_data CPU = 0.225 seconds
change_box all triclinic
Changing box ...
  triclinic box = (0.97250269 0.97250269 0.97250269) to (37.866338 37.866338 37.866338) with tilt (0 0 0)
mass 1 1
mass 2 1
pair_modify shift yes
pair_coeff  1 1 1 1
pair_coeff  1 2 1.5 0.8
pair_coeff  2 2 0.5 0.88


timestep 0.01
thermo ${iStep}
thermo 1000
reset_timestep 0
thermo_style custom step temp pe etotal press vol lx ly lz
fix             1 all nvt temp ${TLJ}  ${TLJ}  0.1
fix             1 all nvt temp 0.635  ${TLJ}  0.1
fix             1 all nvt temp 0.635  0.635  0.1
thermo_modify flush yes

fix dsf all deform 1 xy  wiggle 0.5  ${f}   units box
fix dsf all deform 1 xy  wiggle 0.5  1000   units box
fix ps1 all ave/time 1 1 ${iStep} c_thermo_press[1] c_thermo_press[2]  c_thermo_press[3] c_thermo_press[4]  c_thermo_press[5] c_thermo_press[6]  file  stress.${T}
fix ps1 all ave/time 1 1 1000 c_thermo_press[1] c_thermo_press[2]  c_thermo_press[3] c_thermo_press[4]  c_thermo_press[5] c_thermo_press[6]  file  stress.${T}
fix ps1 all ave/time 1 1 1000 c_thermo_press[1] c_thermo_press[2]  c_thermo_press[3] c_thermo_press[4]  c_thermo_press[5] c_thermo_press[6]  file  stress.635
dump            1 all custom ${dumpStep} dump.${T} id type x y z
dump            1 all custom 100000 dump.${T} id type x y z
dump            1 all custom 100000 dump.635 id type x y z
dump_modify 1 sort id
fix nodrift all momentum 1  linear 1 1 1
fix com_seed all recenter INIT INIT INIT shift all
run ${runStep}
run 1000000
Generated 0 of 1 mixed pair_coeff terms from geometric mixing rule
Per MPI rank memory allocation (min/avg/max) = 21.18 | 21.18 | 21.18 Mbytes
   Step          Temp          PotEng         TotEng         Press          Volume           Lx             Ly             Lz      
         0   0.63525914    -7.5350286     -6.5821535      5.9080625      50218.233      36.893836      36.893836      36.893836    
      1000   0.63350728    -7.5311662     -6.5809188      5.9291333      50218.233      36.893836      36.893836      36.893836    
      2000   0.63564995    -7.5235496     -6.5700882      5.9956437      50218.233      36.893836      36.893836      36.893836    
      3000   0.63341381    -7.5217295     -6.5716223      5.9972206      50218.233      36.893836      36.893836      36.893836    
      4000   0.63526087    -7.5219039     -6.5690261      5.9862452      50218.233      36.893836      36.893836      36.893836    
      5000   0.63628485    -7.5228624     -6.5684487      5.9896987      50218.233      36.893836      36.893836      36.893836    
      6000   0.630068      -7.5225186     -6.57743        5.9829888      50218.233      36.893836      36.893836      36.893836    
      7000   0.6334219     -7.520002      -6.5698827      6.0119029      50218.233      36.893836      36.893836      36.893836    
      8000   0.63584062    -7.5188335     -6.5650861      6.0146165      50218.233      36.893836      36.893836      36.893836    
      9000   0.63639563    -7.5165497     -6.5619698      6.040883       50218.233      36.893836      36.893836      36.893836    
     10000   0.63207156    -7.5197904     -6.5716966      6.0116162      50218.233      36.893836      36.893836      36.893836    
     11000   0.63233327    -7.5245076     -6.5760212      5.9669094      50218.233      36.893836      36.893836      36.893836    
     12000   0.63533778    -7.5233568     -6.5703636      5.9912639      50218.233      36.893836      36.893836      36.893836    
     13000   0.63326866    -7.5199739     -6.5700844      5.9944191      50218.233      36.893836      36.893836      36.893836    
     14000   0.63569659    -7.5237331     -6.5702018      5.9868644      50218.233      36.893836      36.893836      36.893836    
     15000   0.6341588     -7.5279208     -6.5766962      5.9563324      50218.233      36.893836      36.893836      36.893836    
     16000   0.63670492    -7.5219673     -6.5669235      6.0057304      50218.233      36.893836      36.893836      36.893836    
     17000   0.63412991    -7.5191877     -6.5680064      6.031422       50218.233      36.893836      36.893836      36.893836    
     18000   0.634368      -7.5171273     -6.5655889      6.033166       50218.233      36.893836      36.893836      36.893836    
     19000   0.63728047    -7.51767       -6.5617629      6.0376041      50218.233      36.893836      36.893836      36.893836    
     20000   0.63567617    -7.52174       -6.5682393      6.0015301      50218.233      36.893836      36.893836      36.893836    
     21000   0.63440998    -7.520653      -6.5690515      6.0008401      50218.233      36.893836      36.893836      36.893836    
     22000   0.63184039    -7.522956      -6.5752089      5.9797092      50218.233      36.893836      36.893836      36.893836    
     23000   0.63770066    -7.5236443     -6.567107       5.9836111      50218.233      36.893836      36.893836      36.893836    
     24000   0.63652158    -7.5185371     -6.5637683      6.0342427      50218.233      36.893836      36.893836      36.893836    
     25000   0.63552199    -7.5213256     -6.5680562      5.9903984      50218.233      36.893836      36.893836      36.893836    
     26000   0.63431518    -7.5208719     -6.5694126      6.0102971      50218.233      36.893836      36.893836      36.893836    
     27000   0.63481602    -7.5246481     -6.5724376      5.9741912      50218.233      36.893836      36.893836      36.893836    
     28000   0.63679609    -7.5202977     -6.5651172      6.0136571      50218.233      36.893836      36.893836      36.893836    
     29000   0.63889743    -7.5255663     -6.5672338      5.9919799      50218.233      36.893836      36.893836      36.893836    
     30000   0.63370005    -7.5269735     -6.5764369      5.9659816      50218.233      36.893836      36.893836      36.893836    
     31000   0.63586484    -7.5195082     -6.5657245      6.0314009      50218.233      36.893836      36.893836      36.893836    
     32000   0.63871484    -7.5178287     -6.5597701      6.0382585      50218.233      36.893836      36.893836      36.893836    
     33000   0.63333737    -7.520114      -6.5701215      6.009912       50218.233      36.893836      36.893836      36.893836    
     34000   0.63684413    -7.5246688     -6.5694162      5.986189       50218.233      36.893836      36.893836      36.893836    
     35000   0.63551517    -7.5182127     -6.5649535      6.0253448      50218.233      36.893836      36.893836      36.893836    
     36000   0.63360946    -7.5199426     -6.5695419      6.0149698      50218.233      36.893836      36.893836      36.893836    
     37000   0.63254243    -7.5233016     -6.5745015      5.997865       50218.233      36.893836      36.893836      36.893836    
     38000   0.63536851    -7.5166941     -6.5636549      6.0399855      50218.233      36.893836      36.893836      36.893836    
     39000   0.63251033    -7.5171992     -6.5684472      6.0349401      50218.233      36.893836      36.893836      36.893836    
     40000   0.63773231    -7.5253666     -6.5687818      5.9800031      50218.233      36.893836      36.893836      36.893836    
     41000   0.63326261    -7.5198255     -6.5699451      6.0160984      50218.233      36.893836      36.893836      36.893836    
     42000   0.63297916    -7.512898      -6.5634427      6.0595301      50218.233      36.893836      36.893836      36.893836    
     43000   0.63634161    -7.5176242     -6.5631254      6.0275367      50218.233      36.893836      36.893836      36.893836    
     44000   0.63568089    -7.5189381     -6.5654304      6.019447       50218.233      36.893836      36.893836      36.893836    
     45000   0.63666941    -7.5219366     -6.5669461      6.0014519      50218.233      36.893836      36.893836      36.893836    
     46000   0.63435445    -7.5183249     -6.5668067      6.0281263      50218.233      36.893836      36.893836      36.893836    
     47000   0.63325968    -7.518539      -6.568663       6.0204782      50218.233      36.893836      36.893836      36.893836    
     48000   0.63537448    -7.5220637     -6.5690155      5.9998746      50218.233      36.893836      36.893836      36.893836    
     49000   0.63203942    -7.520214      -6.5721683      5.9999164      50218.233      36.893836      36.893836      36.893836    
     50000   0.63291119    -7.518878      -6.5695247      6.014591       50218.233      36.893836      36.893836      36.893836    
     51000   0.63783426    -7.5220352     -6.5652974      5.9953659      50218.233      36.893836      36.893836      36.893836    
     52000   0.63710253    -7.520485      -6.5648448      6.0218213      50218.233      36.893836      36.893836      36.893836    
     53000   0.63579909    -7.5252707     -6.5715856      5.9685385      50218.233      36.893836      36.893836      36.893836    
     54000   0.63552896    -7.5228677     -6.5695878      5.9924835      50218.233      36.893836      36.893836      36.893836    
     55000   0.63176035    -7.520351      -6.572724       5.9979348      50218.233      36.893836      36.893836      36.893836    
     56000   0.6351299     -7.5157815     -6.5631002      6.0458947      50218.233      36.893836      36.893836      36.893836    
     57000   0.63178181    -7.5264306     -6.5787714      5.9478357      50218.233      36.893836      36.893836      36.893836    
     58000   0.63404644    -7.5162115     -6.5651554      6.0523203      50218.233      36.893836      36.893836      36.893836    
     59000   0.63658209    -7.5282899     -6.5734303      5.962351       50218.233      36.893836      36.893836      36.893836    
     60000   0.63284052    -7.5219453     -6.572698       5.9963263      50218.233      36.893836      36.893836      36.893836    
     61000   0.63656976    -7.5240365     -6.5691954      6.0008992      50218.233      36.893836      36.893836      36.893836    
     62000   0.63687609    -7.5200471     -6.5647466      6.0243176      50218.233      36.893836      36.893836      36.893836    
     63000   0.63609061    -7.5238214     -6.5696991      5.9850591      50218.233      36.893836      36.893836      36.893836    
     64000   0.63837664    -7.5198976     -6.5623463      6.0179441      50218.233      36.893836      36.893836      36.893836    
     65000   0.63568729    -7.5213257     -6.5678083      5.9903356      50218.233      36.893836      36.893836      36.893836    
     66000   0.63594358    -7.5292911     -6.5753893      5.9556369      50218.233      36.893836      36.893836      36.893836    
     67000   0.63368878    -7.5188279     -6.5683082      6.0275601      50218.233      36.893836      36.893836      36.893836    
     68000   0.63428561    -7.5186264     -6.5672115      6.0287784      50218.233      36.893836      36.893836      36.893836    
     69000   0.63078341    -7.5236627     -6.577501       6.0001196      50218.233      36.893836      36.893836      36.893836    
     70000   0.63475017    -7.5251923     -6.5730806      5.9767466      50218.233      36.893836      36.893836      36.893836    
     71000   0.63630945    -7.5182372     -6.5637866      6.0261169      50218.233      36.893836      36.893836      36.893836    
     72000   0.63212015    -7.5214031     -6.5732364      6.0127948      50218.233      36.893836      36.893836      36.893836    
     73000   0.63297538    -7.5279845     -6.5785349      5.9587427      50218.233      36.893836      36.893836      36.893836    
     74000   0.63577753    -7.5194545     -6.5658018      6.0156314      50218.233      36.893836      36.893836      36.893836    
     75000   0.6345712     -7.5164681     -6.5646248      6.0396058      50218.233      36.893836      36.893836      36.893836    
     76000   0.63465297    -7.5199647     -6.5679988      6.0126165      50218.233      36.893836      36.893836      36.893836    
     77000   0.63142074    -7.5181024     -6.5709847      6.0182312      50218.233      36.893836      36.893836      36.893836    
     78000   0.63486174    -7.5219542     -6.5696752      5.9911264      50218.233      36.893836      36.893836      36.893836    
     79000   0.63711847    -7.5210206     -6.5653564      6.0130454      50218.233      36.893836      36.893836      36.893836    
     80000   0.63063534    -7.5157901     -6.5698505      6.0462648      50218.233      36.893836      36.893836      36.893836    
     81000   0.63513022    -7.5206047     -6.5679229      6.0042785      50218.233      36.893836      36.893836      36.893836    
     82000   0.63523883    -7.5156495     -6.5628048      6.0413583      50218.233      36.893836      36.893836      36.893836    
     83000   0.63466709    -7.5226556     -6.5706685      5.9978084      50218.233      36.893836      36.893836      36.893836    
     84000   0.63876915    -7.5202159     -6.5620758      6.0241244      50218.233      36.893836      36.893836      36.893836    
     85000   0.63382108    -7.5247806     -6.5740625      5.9756741      50218.233      36.893836      36.893836      36.893836    
     86000   0.63868167    -7.5194599     -6.5614511      6.0226766      50218.233      36.893836      36.893836      36.893836    
     87000   0.63440928    -7.5248017     -6.5732013      5.9781086      50218.233      36.893836      36.893836      36.893836    
     88000   0.63597977    -7.5223327     -6.5683766      5.9831953      50218.233      36.893836      36.893836      36.893836    
     89000   0.63577168    -7.5264806     -6.5728366      5.9779244      50218.233      36.893836      36.893836      36.893836    
     90000   0.63274848    -7.5274604     -6.5783512      5.9559905      50218.233      36.893836      36.893836      36.893836    
     91000   0.6365883     -7.5231315     -6.5682626      5.9957403      50218.233      36.893836      36.893836      36.893836    
     92000   0.63293498    -7.5262573     -6.5768683      5.9585609      50218.233      36.893836      36.893836      36.893836    
     93000   0.63089488    -7.5215791     -6.5752503      5.9952108      50218.233      36.893836      36.893836      36.893836    
     94000   0.63564761    -7.5214921     -6.5680342      6.0071639      50218.233      36.893836      36.893836      36.893836    
     95000   0.63434462    -7.5236416     -6.5721382      5.9819307      50218.233      36.893836      36.893836      36.893836    
     96000   0.63656623    -7.519829      -6.5649932      6.0205587      50218.233      36.893836      36.893836      36.893836    
     97000   0.63512392    -7.5160701     -6.5633977      6.0439831      50218.233      36.893836      36.893836      36.893836    
     98000   0.63468515    -7.5214763     -6.5694622      6.0016731      50218.233      36.893836      36.893836      36.893836    
     99000   0.63623916    -7.5198089     -6.5654637      6.017119       50218.233      36.893836      36.893836      36.893836    
    100000   0.63211039    -7.5205553     -6.5724033      6.0202715      50218.233      36.893836      36.893836      36.893836    
    101000   0.63570435    -7.5173997     -6.5638567      6.0375801      50218.233      36.893836      36.893836      36.893836    
    102000   0.63972254    -7.5250157     -6.5654455      6.0041507      50218.233      36.893836      36.893836      36.893836    
    103000   0.63689286    -7.5159831     -6.5606574      6.0559244      50218.233      36.893836      36.893836      36.893836    
    104000   0.63367478    -7.5167139     -6.5662152      6.032858       50218.233      36.893836      36.893836      36.893836    
    105000   0.63173465    -7.5186927     -6.5711042      6.0136094      50218.233      36.893836      36.893836      36.893836    
    106000   0.63431423    -7.5181408     -6.566683       6.0216223      50218.233      36.893836      36.893836      36.893836    
    107000   0.63561365    -7.5187417     -6.5653348      6.0221878      50218.233      36.893836      36.893836      36.893836    
    108000   0.6322447     -7.5190126     -6.570659       6.0081993      50218.233      36.893836      36.893836      36.893836    
    109000   0.63496962    -7.517625      -6.5651841      6.0395888      50218.233      36.893836      36.893836      36.893836    
    110000   0.6328755     -7.5192383     -6.5699386      6.0092437      50218.233      36.893836      36.893836      36.893836    
    111000   0.63135167    -7.5190719     -6.5720579      6.0191924      50218.233      36.893836      36.893836      36.893836    
    112000   0.63724615    -7.5154171     -6.5595614      6.061841       50218.233      36.893836      36.893836      36.893836    
    113000   0.63408674    -7.5183026     -6.567186       6.0208822      50218.233      36.893836      36.893836      36.893836    
    114000   0.63614068    -7.5170985     -6.562901       6.0375923      50218.233      36.893836      36.893836      36.893836    
    115000   0.63421381    -7.5227854     -6.5714782      5.9893439      50218.233      36.893836      36.893836      36.893836    
    116000   0.63689675    -7.5231212     -6.5677897      5.9882944      50218.233      36.893836      36.893836      36.893836    
    117000   0.63369669    -7.5167542     -6.5662226      6.029763       50218.233      36.893836      36.893836      36.893836    
    118000   0.63629354    -7.5192167     -6.5647899      6.0154289      50218.233      36.893836      36.893836      36.893836    
    119000   0.63474609    -7.5196935     -6.5675879      6.0093865      50218.233      36.893836      36.893836      36.893836    
    120000   0.63545143    -7.5250526     -6.5718891      5.9817508      50218.233      36.893836      36.893836      36.893836    
    121000   0.63583149    -7.5243681     -6.5706344      5.9740927      50218.233      36.893836      36.893836      36.893836    
    122000   0.63427631    -7.5184844     -6.5670835      6.0391267      50218.233      36.893836      36.893836      36.893836    
    123000   0.6326851     -7.5205933     -6.5715792      6.001266       50218.233      36.893836      36.893836      36.893836    
    124000   0.63583798    -7.520848      -6.5671046      6.0002657      50218.233      36.893836      36.893836      36.893836    
    125000   0.63619812    -7.5208968     -6.5666132      6.0079781      50218.233      36.893836      36.893836      36.893836    
    126000   0.63545652    -7.5209806     -6.5678094      5.9993294      50218.233      36.893836      36.893836      36.893836    
    127000   0.63163589    -7.5245576     -6.5771172      5.9775187      50218.233      36.893836      36.893836      36.893836    
    128000   0.63527771    -7.5171384     -6.5642354      6.0392164      50218.233      36.893836      36.893836      36.893836    
    129000   0.63659727    -7.5212315     -6.5663492      5.9984066      50218.233      36.893836      36.893836      36.893836    
    130000   0.63704624    -7.5234557     -6.5678999      5.997925       50218.233      36.893836      36.893836      36.893836    
    131000   0.6310602     -7.5189592     -6.5723823      6.0361197      50218.233      36.893836      36.893836      36.893836    
    132000   0.6375813     -7.5237284     -6.5673701      5.9932154      50218.233      36.893836      36.893836      36.893836    
    133000   0.63233356    -7.5259868     -6.5774999      5.9637532      50218.233      36.893836      36.893836      36.893836    
    134000   0.63319553    -7.5208829     -6.5711031      5.9972253      50218.233      36.893836      36.893836      36.893836    
    135000   0.63451977    -7.5262042     -6.5744381      5.9823488      50218.233      36.893836      36.893836      36.893836    
    136000   0.63591483    -7.523156      -6.5692973      5.9902849      50218.233      36.893836      36.893836      36.893836    
    137000   0.63382939    -7.5208213     -6.5700908      6.0001754      50218.233      36.893836      36.893836      36.893836    
    138000   0.63411489    -7.5192772     -6.5681184      6.0239348      50218.233      36.893836      36.893836      36.893836    
    139000   0.63343963    -7.521303      -6.5711571      6.004156       50218.233      36.893836      36.893836      36.893836    
    140000   0.63863554    -7.5210555     -6.5631158      6.0144961      50218.233      36.893836      36.893836      36.893836    
    141000   0.63378167    -7.5232899     -6.572631       5.9872777      50218.233      36.893836      36.893836      36.893836    
    142000   0.63280975    -7.5188125     -6.5696114      6.0199321      50218.233      36.893836      36.893836      36.893836    
    143000   0.63492125    -7.5166301     -6.5642617      6.0455249      50218.233      36.893836      36.893836      36.893836    
    144000   0.63144556    -7.5181715     -6.5710166      6.017216       50218.233      36.893836      36.893836      36.893836    
    145000   0.63253791    -7.525742      -6.5769487      5.9631579      50218.233      36.893836      36.893836      36.893836    
    146000   0.63296352    -7.5148175     -6.5653858      6.0412458      50218.233      36.893836      36.893836      36.893836    
    147000   0.63471916    -7.5219176     -6.5698524      6.011982       50218.233      36.893836      36.893836      36.893836    
    148000   0.63230212    -7.5172394     -6.5687997      6.0391988      50218.233      36.893836      36.893836      36.893836    
    149000   0.63793738    -7.5194593     -6.5625668      6.0233956      50218.233      36.893836      36.893836      36.893836    
    150000   0.63395343    -7.5263145     -6.5753979      5.9591093      50218.233      36.893836      36.893836      36.893836    
    151000   0.6340466     -7.5209567     -6.5699003      6.0042527      50218.233      36.893836      36.893836      36.893836    
    152000   0.63625003    -7.5205933     -6.5662318      6.0089058      50218.233      36.893836      36.893836      36.893836    
    153000   0.63571532    -7.5227999     -6.5692405      6.0008331      50218.233      36.893836      36.893836      36.893836    
    154000   0.6338236     -7.5174067     -6.5666848      6.0296341      50218.233      36.893836      36.893836      36.893836    
    155000   0.63561037    -7.5233378     -6.5699358      6.0018951      50218.233      36.893836      36.893836      36.893836    
    156000   0.63339806    -7.5196754     -6.5695918      6.0061379      50218.233      36.893836      36.893836      36.893836    
    157000   0.63176054    -7.5179423     -6.570315       6.0292676      50218.233      36.893836      36.893836      36.893836    
    158000   0.63273355    -7.5243486     -6.5752617      5.9839565      50218.233      36.893836      36.893836      36.893836    
    159000   0.63467424    -7.525036      -6.5730382      5.9734539      50218.233      36.893836      36.893836      36.893836    
    160000   0.63480425    -7.523729      -6.5715361      5.9711655      50218.233      36.893836      36.893836      36.893836    
    161000   0.63644434    -7.5235262     -6.5688733      5.9912608      50218.233      36.893836      36.893836      36.893836    
    162000   0.6347441     -7.5207785     -6.5686759      5.9906284      50218.233      36.893836      36.893836      36.893836    
    163000   0.63276251    -7.519042      -6.5699117      6.00463        50218.233      36.893836      36.893836      36.893836    
    164000   0.63746949    -7.5209681     -6.5647775      5.9961039      50218.233      36.893836      36.893836      36.893836    
    165000   0.63477504    -7.5211565     -6.5690075      6.0219713      50218.233      36.893836      36.893836      36.893836    
    166000   0.63489921    -7.5168797     -6.5645444      6.0427064      50218.233      36.893836      36.893836      36.893836    
    167000   0.63305049    -7.5258328     -6.5762705      5.9628105      50218.233      36.893836      36.893836      36.893836    
    168000   0.63289416    -7.5181846     -6.5688568      6.0220429      50218.233      36.893836      36.893836      36.893836    
    169000   0.63844331    -7.5300547     -6.5724033      5.9416793      50218.233      36.893836      36.893836      36.893836    
    170000   0.63515753    -7.5218936     -6.5691708      5.9927322      50218.233      36.893836      36.893836      36.893836    
    171000   0.63518892    -7.5266755     -6.5739057      5.9597222      50218.233      36.893836      36.893836      36.893836    
    172000   0.63634458    -7.5125245     -6.5580212      6.0598207      50218.233      36.893836      36.893836      36.893836    
    173000   0.63364679    -7.5206326     -6.5701759      6.015817       50218.233      36.893836      36.893836      36.893836    
    174000   0.63260044    -7.5252511     -6.5763639      5.9677233      50218.233      36.893836      36.893836      36.893836    
    175000   0.63777755    -7.5261873     -6.5695346      5.9691207      50218.233      36.893836      36.893836      36.893836    
    176000   0.63570649    -7.5169004     -6.5633543      6.0485871      50218.233      36.893836      36.893836      36.893836    
    177000   0.63537638    -7.5224072     -6.5693562      6.0016996      50218.233      36.893836      36.893836      36.893836    
    178000   0.63769952    -7.5177901     -6.5612545      6.0274116      50218.233      36.893836      36.893836      36.893836    
    179000   0.63793735    -7.5231225     -6.5662301      5.992194       50218.233      36.893836      36.893836      36.893836    
    180000   0.63532814    -7.5195491     -6.5665704      6.0178118      50218.233      36.893836      36.893836      36.893836    
    181000   0.63437057    -7.5217247     -6.5701824      6.0111504      50218.233      36.893836      36.893836      36.893836    
    182000   0.63615491    -7.5171855     -6.5629667      6.0386251      50218.233      36.893836      36.893836      36.893836    
    183000   0.63527889    -7.5202126     -6.5673079      6.00744        50218.233      36.893836      36.893836      36.893836    
    184000   0.63320195    -7.5237764     -6.573987       5.9734891      50218.233      36.893836      36.893836      36.893836    
    185000   0.63333925    -7.5228805     -6.5728851      5.9908229      50218.233      36.893836      36.893836      36.893836    
    186000   0.63676697    -7.5215414     -6.5664045      5.9983698      50218.233      36.893836      36.893836      36.893836    
    187000   0.6347163     -7.520197      -6.5681361      6.0133234      50218.233      36.893836      36.893836      36.893836    
    188000   0.63622396    -7.5255437     -6.5712213      5.970293       50218.233      36.893836      36.893836      36.893836    
    189000   0.63694145    -7.5219927     -6.5665941      6.0015585      50218.233      36.893836      36.893836      36.893836    
    190000   0.6362282     -7.5281728     -6.573844       5.9434187      50218.233      36.893836      36.893836      36.893836    
    191000   0.63456718    -7.525307      -6.5734698      5.9659728      50218.233      36.893836      36.893836      36.893836    
    192000   0.63531852    -7.5208117     -6.5678475      5.9994219      50218.233      36.893836      36.893836      36.893836    
    193000   0.63736088    -7.5182907     -6.562263       6.0382391      50218.233      36.893836      36.893836      36.893836    
    194000   0.63461952    -7.5207996     -6.5688839      6.0023929      50218.233      36.893836      36.893836      36.893836    
    195000   0.637297      -7.5228978     -6.5669659      6.0063761      50218.233      36.893836      36.893836      36.893836    
    196000   0.6381497     -7.5195712     -6.5623603      6.0216061      50218.233      36.893836      36.893836      36.893836    
    197000   0.63474399    -7.5176561     -6.5655536      6.0345687      50218.233      36.893836      36.893836      36.893836    
    198000   0.63497693    -7.5162744     -6.5638226      6.0467994      50218.233      36.893836      36.893836      36.893836    
    199000   0.63419713    -7.5173925     -6.5661103      6.0172637      50218.233      36.893836      36.893836      36.893836    
    200000   0.63562146    -7.5161866     -6.562768       6.0339407      50218.233      36.893836      36.893836      36.893836    
    201000   0.6326057     -7.5117835     -6.5628884      6.0737943      50218.233      36.893836      36.893836      36.893836    
    202000   0.63528222    -7.5182194     -6.5653097      6.0317639      50218.233      36.893836      36.893836      36.893836    
    203000   0.63309535    -7.5140477     -6.5644182      6.057287       50218.233      36.893836      36.893836      36.893836    
    204000   0.6337745     -7.513611      -6.5629628      6.0515787      50218.233      36.893836      36.893836      36.893836    
    205000   0.63886731    -7.5184377     -6.5601503      6.028355       50218.233      36.893836      36.893836      36.893836    
    206000   0.63318256    -7.5200541     -6.5702937      6.0043231      50218.233      36.893836      36.893836      36.893836    
    207000   0.63721438    -7.5228296     -6.5670216      6.0009576      50218.233      36.893836      36.893836      36.893836    
    208000   0.63476033    -7.5233196     -6.5711927      5.9842564      50218.233      36.893836      36.893836      36.893836    
    209000   0.63576075    -7.5165999     -6.5629723      6.0545362      50218.233      36.893836      36.893836      36.893836    
    210000   0.63418956    -7.5142856     -6.5630147      6.0584571      50218.233      36.893836      36.893836      36.893836    
    211000   0.63187277    -7.5268023     -6.5790067      5.9629603      50218.233      36.893836      36.893836      36.893836    
    212000   0.63163296    -7.5171582     -6.5697222      6.0103346      50218.233      36.893836      36.893836      36.893836    
    213000   0.6372356     -7.520843      -6.5650032      6.0140696      50218.233      36.893836      36.893836      36.893836    
    214000   0.63617898    -7.5219717     -6.5677168      6.0058816      50218.233      36.893836      36.893836      36.893836    
    215000   0.63818003    -7.5235417     -6.5662853      5.9895308      50218.233      36.893836      36.893836      36.893836    
    216000   0.63318506    -7.5245692     -6.5748052      5.9820014      50218.233      36.893836      36.893836      36.893836    
    217000   0.63807863    -7.5193211     -6.5622168      6.0261138      50218.233      36.893836      36.893836      36.893836    
    218000   0.63660767    -7.5193107     -6.5644127      6.0245327      50218.233      36.893836      36.893836      36.893836    
    219000   0.63767987    -7.5239159     -6.5674097      5.996149       50218.233      36.893836      36.893836      36.893836    
    220000   0.6335125     -7.5181614     -6.5679061      6.0180848      50218.233      36.893836      36.893836      36.893836    
    221000   0.63583157    -7.5171891     -6.5634553      6.0324959      50218.233      36.893836      36.893836      36.893836    
    222000   0.63573777    -7.5194098     -6.5658167      6.0308789      50218.233      36.893836      36.893836      36.893836    
    223000   0.63667996    -7.5211923     -6.566186       6.0034098      50218.233      36.893836      36.893836      36.893836    
    224000   0.63473365    -7.5242311     -6.5721442      5.9854032      50218.233      36.893836      36.893836      36.893836    
    225000   0.63655493    -7.5216933     -6.5668745      5.9992906      50218.233      36.893836      36.893836      36.893836    
    226000   0.63664551    -7.5189181     -6.5639634      6.0244798      50218.233      36.893836      36.893836      36.893836    
    227000   0.63583353    -7.5167534     -6.5630166      6.0385191      50218.233      36.893836      36.893836      36.893836    
    228000   0.6324618     -7.5202733     -6.5715941      6.0004607      50218.233      36.893836      36.893836      36.893836    
    229000   0.63283299    -7.5162999     -6.567064       6.0434882      50218.233      36.893836      36.893836      36.893836    
    230000   0.63370958    -7.5176445     -6.5670936      6.0290337      50218.233      36.893836      36.893836      36.893836    
    231000   0.63479542    -7.5133148     -6.5611353      6.0472483      50218.233      36.893836      36.893836      36.893836    
    232000   0.63239903    -7.51392       -6.5653349      6.0569933      50218.233      36.893836      36.893836      36.893836    
    233000   0.6330995     -7.512463      -6.5628273      6.0721755      50218.233      36.893836      36.893836      36.893836    
    234000   0.63548021    -7.5167154     -6.5635086      6.0295131      50218.233      36.893836      36.893836      36.893836    
    235000   0.63689839    -7.5168434     -6.5615095      6.0300113      50218.233      36.893836      36.893836      36.893836    
    236000   0.63488151    -7.5193292     -6.5670205      6.0267892      50218.233      36.893836      36.893836      36.893836    
    237000   0.63459343    -7.5220693     -6.5701927      6.0023876      50218.233      36.893836      36.893836      36.893836    
    238000   0.63646094    -7.5272434     -6.5725656      5.96033        50218.233      36.893836      36.893836      36.893836    
    239000   0.63596247    -7.5159967     -6.5620666      6.0411349      50218.233      36.893836      36.893836      36.893836    
    240000   0.63482195    -7.5224744     -6.570255       5.9909628      50218.233      36.893836      36.893836      36.893836    
    241000   0.63762265    -7.521045      -6.5646247      6.0123688      50218.233      36.893836      36.893836      36.893836    
    242000   0.63082876    -7.5149663     -6.5687366      6.0474088      50218.233      36.893836      36.893836      36.893836    
    243000   0.63637826    -7.5182356     -6.5636818      6.032595       50218.233      36.893836      36.893836      36.893836    
    244000   0.63473223    -7.5221132     -6.5700284      5.9786811      50218.233      36.893836      36.893836      36.893836    
    245000   0.63300895    -7.5218005     -6.5723006      6.0034941      50218.233      36.893836      36.893836      36.893836    
    246000   0.63553948    -7.5222078     -6.5689121      5.9920125      50218.233      36.893836      36.893836      36.893836    
    247000   0.63703392    -7.52001       -6.5644727      6.0099849      50218.233      36.893836      36.893836      36.893836    
    248000   0.63610083    -7.5129029     -6.5587653      6.0642795      50218.233      36.893836      36.893836      36.893836    
    249000   0.63401031    -7.5110735     -6.5600716      6.0834937      50218.233      36.893836      36.893836      36.893836    
    250000   0.63440783    -7.5223574     -6.5707592      5.9961779      50218.233      36.893836      36.893836      36.893836    
    251000   0.63241046    -7.5179279     -6.5693257      6.0351078      50218.233      36.893836      36.893836      36.893836    
    252000   0.6333987     -7.5229126     -6.572828       5.9962874      50218.233      36.893836      36.893836      36.893836    
    253000   0.63863845    -7.5176946     -6.5597506      6.0370811      50218.233      36.893836      36.893836      36.893836    
    254000   0.6322587     -7.5212238     -6.5728493      6.0095659      50218.233      36.893836      36.893836      36.893836    
    255000   0.63668701    -7.51975       -6.5647331      6.0111541      50218.233      36.893836      36.893836      36.893836    
    256000   0.63390337    -7.5139317     -6.5630902      6.0657543      50218.233      36.893836      36.893836      36.893836    
    257000   0.63086747    -7.5236103     -6.5773226      5.9751686      50218.233      36.893836      36.893836      36.893836    
    258000   0.63433566    -7.5194433     -6.5679534      6.0136108      50218.233      36.893836      36.893836      36.893836    
    259000   0.64002474    -7.5181393     -6.5581158      6.0299202      50218.233      36.893836      36.893836      36.893836    
    260000   0.63449518    -7.5154385     -6.5637093      6.0478443      50218.233      36.893836      36.893836      36.893836    
    261000   0.63445634    -7.5129666     -6.5612956      6.0731686      50218.233      36.893836      36.893836      36.893836    
    262000   0.63874396    -7.5235392     -6.5654369      6.0008481      50218.233      36.893836      36.893836      36.893836    
    263000   0.63628363    -7.5216814     -6.5672695      5.9945542      50218.233      36.893836      36.893836      36.893836    
    264000   0.63406888    -7.5208956     -6.5698058      6.0074799      50218.233      36.893836      36.893836      36.893836    
    265000   0.6365782     -7.522326      -6.5674723      5.9959861      50218.233      36.893836      36.893836      36.893836    
    266000   0.63649243    -7.5204519     -6.5657269      6.014159       50218.233      36.893836      36.893836      36.893836    
    267000   0.63356008    -7.5205011     -6.5701745      6.0051418      50218.233      36.893836      36.893836      36.893836    
    268000   0.63114008    -7.5233616     -6.5766649      5.9900228      50218.233      36.893836      36.893836      36.893836    
    269000   0.63132912    -7.5192071     -6.5722269      6.0131112      50218.233      36.893836      36.893836      36.893836    
    270000   0.63372143    -7.5212074     -6.5706387      6.0129654      50218.233      36.893836      36.893836      36.893836    
    271000   0.63732529    -7.5175714     -6.5615971      6.0410514      50218.233      36.893836      36.893836      36.893836    
    272000   0.63410609    -7.5225846     -6.571439       5.9891919      50218.233      36.893836      36.893836      36.893836    
    273000   0.63694103    -7.5190551     -6.5636572      6.0208302      50218.233      36.893836      36.893836      36.893836    
    274000   0.63605561    -7.5229093     -6.5688395      5.9966108      50218.233      36.893836      36.893836      36.893836    
    275000   0.63889248    -7.5283882     -6.5700631      5.9604362      50218.233      36.893836      36.893836      36.893836    
    276000   0.63425351    -7.5224212     -6.5710545      6.0094696      50218.233      36.893836      36.893836      36.893836    
    277000   0.63586125    -7.5210165     -6.5672382      6.0120084      50218.233      36.893836      36.893836      36.893836    
    278000   0.63789772    -7.5168721     -6.5600391      6.0472448      50218.233      36.893836      36.893836      36.893836    
    279000   0.63349312    -7.5174166     -6.5671905      6.0465602      50218.233      36.893836      36.893836      36.893836    
    280000   0.63436761    -7.5198196     -6.5682817      6.0134042      50218.233      36.893836      36.893836      36.893836    
    281000   0.63557478    -7.5229443     -6.5695957      5.99189        50218.233      36.893836      36.893836      36.893836    
    282000   0.63378529    -7.5240361     -6.5733717      5.9864146      50218.233      36.893836      36.893836      36.893836    
    283000   0.63682893    -7.51957       -6.5643402      6.0138451      50218.233      36.893836      36.893836      36.893836    
    284000   0.63479698    -7.5246934     -6.5725115      5.9833041      50218.233      36.893836      36.893836      36.893836    
    285000   0.63807874    -7.5133263     -6.5562218      6.0603335      50218.233      36.893836      36.893836      36.893836    
    286000   0.63514589    -7.5179163     -6.565211       6.0350742      50218.233      36.893836      36.893836      36.893836    
    287000   0.63285543    -7.5192652     -6.5699956      6.0140914      50218.233      36.893836      36.893836      36.893836    
    288000   0.64017621    -7.5203228     -6.5600722      6.0235835      50218.233      36.893836      36.893836      36.893836    
    289000   0.6370304     -7.5205427     -6.5650107      6.0258403      50218.233      36.893836      36.893836      36.893836    
    290000   0.6317144     -7.5230055     -6.5754474      5.9777805      50218.233      36.893836      36.893836      36.893836    
    291000   0.6351107     -7.5215915     -6.568939       6.0141755      50218.233      36.893836      36.893836      36.893836    
    292000   0.63734242    -7.5220972     -6.5660972      6.0029944      50218.233      36.893836      36.893836      36.893836    
    293000   0.63683116    -7.5177744     -6.5625413      6.0326879      50218.233      36.893836      36.893836      36.893836    
    294000   0.63043307    -7.5183695     -6.5727333      6.0217817      50218.233      36.893836      36.893836      36.893836    
    295000   0.63383777    -7.5208831     -6.5701399      5.9936153      50218.233      36.893836      36.893836      36.893836    
    296000   0.63721556    -7.5209501     -6.5651403      6.0157321      50218.233      36.893836      36.893836      36.893836    
    297000   0.63298533    -7.5211028     -6.5716383      6.0183462      50218.233      36.893836      36.893836      36.893836    
    298000   0.63391117    -7.5248515     -6.5739983      5.9723781      50218.233      36.893836      36.893836      36.893836    
    299000   0.63087034    -7.5218148     -6.5755228      6.0048242      50218.233      36.893836      36.893836      36.893836    
    300000   0.63405514    -7.517766      -6.5666968      6.0312545      50218.233      36.893836      36.893836      36.893836    
    301000   0.63352901    -7.518386      -6.568106       6.0377009      50218.233      36.893836      36.893836      36.893836    
    302000   0.63475157    -7.5222989     -6.5701851      5.9961613      50218.233      36.893836      36.893836      36.893836    
    303000   0.63549161    -7.5225806     -6.5693567      6.0021029      50218.233      36.893836      36.893836      36.893836    
    304000   0.63723177    -7.5263212     -6.5704872      5.9752778      50218.233      36.893836      36.893836      36.893836    
    305000   0.63284443    -7.5224839     -6.5732307      5.9837328      50218.233      36.893836      36.893836      36.893836    
    306000   0.63255165    -7.5204333     -6.5716193      5.9981745      50218.233      36.893836      36.893836      36.893836    
    307000   0.63858275    -7.5199046     -6.5620442      6.0240201      50218.233      36.893836      36.893836      36.893836    
    308000   0.63652729    -7.5247681     -6.5699907      5.9893449      50218.233      36.893836      36.893836      36.893836    
    309000   0.63612285    -7.5158498     -6.5616791      6.0461929      50218.233      36.893836      36.893836      36.893836    
    310000   0.6369802     -7.5275741     -6.5721174      5.9656672      50218.233      36.893836      36.893836      36.893836    
    311000   0.63231074    -7.5304089     -6.5819563      5.9358146      50218.233      36.893836      36.893836      36.893836    
    312000   0.63466976    -7.5234975     -6.5715064      5.9907565      50218.233      36.893836      36.893836      36.893836    
    313000   0.63853991    -7.5252118     -6.5674156      5.9709877      50218.233      36.893836      36.893836      36.893836    
    314000   0.63472038    -7.52402       -6.571953       5.9761673      50218.233      36.893836      36.893836      36.893836    
    315000   0.63828667    -7.5220473     -6.5646309      6.0125825      50218.233      36.893836      36.893836      36.893836    
    316000   0.63416633    -7.5242765     -6.5730406      5.9779872      50218.233      36.893836      36.893836      36.893836    
    317000   0.63776577    -7.5257934     -6.5691584      5.9913876      50218.233      36.893836      36.893836      36.893836    
    318000   0.63308293    -7.5222965     -6.5726856      5.9813593      50218.233      36.893836      36.893836      36.893836    
    319000   0.63361013    -7.5218377     -6.571436       5.995378       50218.233      36.893836      36.893836      36.893836    
    320000   0.63396027    -7.5230607     -6.5721338      5.9919148      50218.233      36.893836      36.893836      36.893836    
    321000   0.63629056    -7.5226104     -6.5681881      6.008466       50218.233      36.893836      36.893836      36.893836    
    322000   0.63231606    -7.5218199     -6.5733593      5.9884923      50218.233      36.893836      36.893836      36.893836    
    323000   0.63859681    -7.5231723     -6.5652907      5.9979387      50218.233      36.893836      36.893836      36.893836    
    324000   0.63690982    -7.5258424     -6.5704913      5.97292        50218.233      36.893836      36.893836      36.893836    
    325000   0.63902709    -7.5204673     -6.5619403      6.0147337      50218.233      36.893836      36.893836      36.893836    
    326000   0.63668933    -7.5276269     -6.5726065      5.9599005      50218.233      36.893836      36.893836      36.893836    
    327000   0.63235975    -7.5221086     -6.5735825      6.0018543      50218.233      36.893836      36.893836      36.893836    
    328000   0.6353914     -7.5179467     -6.5648732      6.0311014      50218.233      36.893836      36.893836      36.893836    
    329000   0.63635686    -7.5238014     -6.5692797      5.9939445      50218.233      36.893836      36.893836      36.893836    
    330000   0.63446041    -7.5234105     -6.5717334      5.9984583      50218.233      36.893836      36.893836      36.893836    
    331000   0.63576658    -7.5221058     -6.5684695      6.0058432      50218.233      36.893836      36.893836      36.893836    
    332000   0.63222169    -7.5196038     -6.5712847      6.0166692      50218.233      36.893836      36.893836      36.893836    
    333000   0.637858      -7.5131609     -6.5563875      6.0671907      50218.233      36.893836      36.893836      36.893836    
    334000   0.63409606    -7.5229316     -6.5718011      5.9794813      50218.233      36.893836      36.893836      36.893836    
    335000   0.63310338    -7.5235614     -6.5739198      5.9910856      50218.233      36.893836      36.893836      36.893836    
    336000   0.63467492    -7.5206467     -6.5686478      5.9957427      50218.233      36.893836      36.893836      36.893836    
    337000   0.63258737    -7.5216064     -6.5727388      5.9850837      50218.233      36.893836      36.893836      36.893836    
    338000   0.63449958    -7.5213239     -6.569588       6.0141952      50218.233      36.893836      36.893836      36.893836    
    339000   0.63598263    -7.524014      -6.5700536      5.9929158      50218.233      36.893836      36.893836      36.893836    
    340000   0.63212038    -7.5245626     -6.5763955      5.9767047      50218.233      36.893836      36.893836      36.893836    
    341000   0.63549238    -7.5220163     -6.5687913      5.9873703      50218.233      36.893836      36.893836      36.893836    
    342000   0.63516116    -7.5230427     -6.5703145      5.979415       50218.233      36.893836      36.893836      36.893836    
    343000   0.63418667    -7.5156481     -6.5643817      6.0362387      50218.233      36.893836      36.893836      36.893836    
    344000   0.638277      -7.5278386     -6.5704367      5.9562006      50218.233      36.893836      36.893836      36.893836    
    345000   0.63602489    -7.5244736     -6.5704498      5.9866971      50218.233      36.893836      36.893836      36.893836    
    346000   0.63696347    -7.5231307     -6.5676991      6.000948       50218.233      36.893836      36.893836      36.893836    
    347000   0.63479992    -7.5236809     -6.5714946      5.9883865      50218.233      36.893836      36.893836      36.893836    
    348000   0.63427416    -7.5276449     -6.5762472      5.9528548      50218.233      36.893836      36.893836      36.893836    
    349000   0.63393246    -7.5262625     -6.5753774      5.9562769      50218.233      36.893836      36.893836      36.893836    
    350000   0.6367404     -7.5235382     -6.5684412      5.9890208      50218.233      36.893836      36.893836      36.893836    
    351000   0.63649182    -7.5260633     -6.5713391      5.9746462      50218.233      36.893836      36.893836      36.893836    
    352000   0.63777621    -7.5254723     -6.5688216      5.9715455      50218.233      36.893836      36.893836      36.893836    
    353000   0.63237293    -7.5211989     -6.572653       5.9972201      50218.233      36.893836      36.893836      36.893836    
    354000   0.63491276    -7.519633      -6.5672775      6.0135039      50218.233      36.893836      36.893836      36.893836    
    355000   0.63774277    -7.5222812     -6.5656807      5.9903387      50218.233      36.893836      36.893836      36.893836    
    356000   0.63199621    -7.519687      -6.5717061      6.0106586      50218.233      36.893836      36.893836      36.893836    
    357000   0.63317027    -7.5208349     -6.571093       6.0054876      50218.233      36.893836      36.893836      36.893836    
    358000   0.63519199    -7.5180628     -6.5652883      6.0208891      50218.233      36.893836      36.893836      36.893836    
    359000   0.63718035    -7.5231156     -6.5673586      5.9996343      50218.233      36.893836      36.893836      36.893836    
    360000   0.63897164    -7.5191972     -6.5607534      6.0238448      50218.233      36.893836      36.893836      36.893836    
    361000   0.63854769    -7.5200359     -6.562228       6.0144451      50218.233      36.893836      36.893836      36.893836    
    362000   0.63459327    -7.5166479     -6.5647715      6.0297369      50218.233      36.893836      36.893836      36.893836    
    363000   0.63442226    -7.5204747     -6.5688548      6.0024592      50218.233      36.893836      36.893836      36.893836    
    364000   0.6335245     -7.522176      -6.5719028      5.9970482      50218.233      36.893836      36.893836      36.893836    
    365000   0.63761928    -7.5233003     -6.566885       5.9955326      50218.233      36.893836      36.893836      36.893836    
    366000   0.63605109    -7.5192281     -6.565165       6.0261396      50218.233      36.893836      36.893836      36.893836    
    367000   0.6361378     -7.5166501     -6.562457       6.0297669      50218.233      36.893836      36.893836      36.893836    
    368000   0.63263354    -7.5193226     -6.5703858      6.0160025      50218.233      36.893836      36.893836      36.893836    
    369000   0.63300651    -7.5245546     -6.5750583      5.9811068      50218.233      36.893836      36.893836      36.893836    
    370000   0.63376194    -7.5225461     -6.5719167      6.0053851      50218.233      36.893836      36.893836      36.893836    
    371000   0.63503601    -7.5167997     -6.5642593      6.0271126      50218.233      36.893836      36.893836      36.893836    
    372000   0.63727267    -7.5234449     -6.5675495      5.9953039      50218.233      36.893836      36.893836      36.893836    
    373000   0.6380426     -7.5271404     -6.5700901      5.9613563      50218.233      36.893836      36.893836      36.893836    
    374000   0.63813131    -7.5254612     -6.5682779      5.9863604      50218.233      36.893836      36.893836      36.893836    
    375000   0.63863593    -7.5246414     -6.5667012      5.9927397      50218.233      36.893836      36.893836      36.893836    
    376000   0.63665465    -7.5264363     -6.5714679      5.959412       50218.233      36.893836      36.893836      36.893836    
    377000   0.63504932    -7.5279586     -6.5753981      5.9574955      50218.233      36.893836      36.893836      36.893836    
    378000   0.63714702    -7.5258048     -6.5700979      5.9709781      50218.233      36.893836      36.893836      36.893836    
    379000   0.63472363    -7.519643      -6.5675711      6.0273157      50218.233      36.893836      36.893836      36.893836    
    380000   0.63625681    -7.5189978     -6.5646262      6.0207407      50218.233      36.893836      36.893836      36.893836    
    381000   0.6374348     -7.5223861     -6.5662475      6.0040009      50218.233      36.893836      36.893836      36.893836    
    382000   0.63404317    -7.5165571     -6.5655059      6.0458866      50218.233      36.893836      36.893836      36.893836    
    383000   0.63614348    -7.5153851     -6.5611835      6.0568188      50218.233      36.893836      36.893836      36.893836    
    384000   0.63668107    -7.5205047     -6.5654967      6.0074079      50218.233      36.893836      36.893836      36.893836    
    385000   0.63536294    -7.5174967     -6.5644659      6.0313821      50218.233      36.893836      36.893836      36.893836    
    386000   0.63564251    -7.5274468     -6.5739966      5.9612939      50218.233      36.893836      36.893836      36.893836    
    387000   0.63712326    -7.5179693     -6.562298       6.031435       50218.233      36.893836      36.893836      36.893836    
    388000   0.63455485    -7.5206532     -6.5688345      6.0093272      50218.233      36.893836      36.893836      36.893836    
    389000   0.63620874    -7.5229583     -6.5686588      5.9946403      50218.233      36.893836      36.893836      36.893836    
    390000   0.63514556    -7.5229011     -6.5701963      5.9917979      50218.233      36.893836      36.893836      36.893836    
    391000   0.63492281    -7.520565      -6.5681943      6.0042004      50218.233      36.893836      36.893836      36.893836    
    392000   0.6340759     -7.5188755     -6.5677752      6.0143937      50218.233      36.893836      36.893836      36.893836    
    393000   0.634837      -7.5208193     -6.5685774      6.004656       50218.233      36.893836      36.893836      36.893836    
    394000   0.63726025    -7.5218836     -6.5660068      6.0065457      50218.233      36.893836      36.893836      36.893836    
    395000   0.63339556    -7.5269526     -6.5768728      5.9550524      50218.233      36.893836      36.893836      36.893836    
    396000   0.63577694    -7.5188273     -6.5651755      6.0164083      50218.233      36.893836      36.893836      36.893836    
    397000   0.63734653    -7.5224837     -6.5664775      5.9922597      50218.233      36.893836      36.893836      36.893836    
    398000   0.63379084    -7.5189741     -6.5683014      6.0113649      50218.233      36.893836      36.893836      36.893836    
    399000   0.63466021    -7.5235933     -6.5716165      5.989937       50218.233      36.893836      36.893836      36.893836    
    400000   0.6329782     -7.5225599     -6.5731061      5.9927858      50218.233      36.893836      36.893836      36.893836    
    401000   0.63594563    -7.5190065     -6.5651016      6.0184542      50218.233      36.893836      36.893836      36.893836    
    402000   0.63410904    -7.5218034     -6.5706533      6.0037593      50218.233      36.893836      36.893836      36.893836    
    403000   0.63159763    -7.5242816     -6.5768986      5.9729098      50218.233      36.893836      36.893836      36.893836    
    404000   0.63506313    -7.5219244     -6.5693433      6.0180677      50218.233      36.893836      36.893836      36.893836    
    405000   0.63360972    -7.5245606     -6.5741596      5.9677259      50218.233      36.893836      36.893836      36.893836    
    406000   0.63332989    -7.5211308     -6.5711495      5.9971991      50218.233      36.893836      36.893836      36.893836    
    407000   0.63474286    -7.5232789     -6.5711782      5.9886471      50218.233      36.893836      36.893836      36.893836    
    408000   0.63626694    -7.5244332     -6.5700464      5.9840577      50218.233      36.893836      36.893836      36.893836    
    409000   0.63270287    -7.5214766     -6.5724358      5.9984966      50218.233      36.893836      36.893836      36.893836    
    410000   0.63190783    -7.5249891     -6.5771408      5.9841947      50218.233      36.893836      36.893836      36.893836    
    411000   0.63528604    -7.5216586     -6.5687431      5.9993229      50218.233      36.893836      36.893836      36.893836    
    412000   0.63563465    -7.5241825     -6.5707441      5.9720602      50218.233      36.893836      36.893836      36.893836    
    413000   0.63234779    -7.5237854     -6.5752772      5.9825138      50218.233      36.893836      36.893836      36.893836    
    414000   0.63399443    -7.5200462     -6.5690681      6.0182396      50218.233      36.893836      36.893836      36.893836    
    415000   0.63193486    -7.5215974     -6.5737086      5.9976496      50218.233      36.893836      36.893836      36.893836    
    416000   0.63526026    -7.5247943     -6.5719175      5.9704073      50218.233      36.893836      36.893836      36.893836    
    417000   0.63564489    -7.5248031     -6.5713494      5.9844366      50218.233      36.893836      36.893836      36.893836    
    418000   0.63547113    -7.5230472     -6.569854       5.9998407      50218.233      36.893836      36.893836      36.893836    
    419000   0.64027121    -7.5264354     -6.5660423      5.9702417      50218.233      36.893836      36.893836      36.893836    
    420000   0.63298213    -7.5238084     -6.5743487      5.9851738      50218.233      36.893836      36.893836      36.893836    
    421000   0.63728166    -7.520541      -6.5646321      6.008198       50218.233      36.893836      36.893836      36.893836    
    422000   0.63189725    -7.525111      -6.5772786      5.9666214      50218.233      36.893836      36.893836      36.893836    
    423000   0.63812767    -7.5191915     -6.5620136      6.021924       50218.233      36.893836      36.893836      36.893836    
    424000   0.63396879    -7.5174234     -6.5664837      6.0228555      50218.233      36.893836      36.893836      36.893836    
    425000   0.63377441    -7.5216221     -6.570974       6.0021837      50218.233      36.893836      36.893836      36.893836    
    426000   0.63406958    -7.5242762     -6.5731854      5.9877758      50218.233      36.893836      36.893836      36.893836    
    427000   0.63199119    -7.5175935     -6.5696202      6.0200256      50218.233      36.893836      36.893836      36.893836    
    428000   0.63469097    -7.5223187     -6.5702957      5.9984534      50218.233      36.893836      36.893836      36.893836    
    429000   0.6291616     -7.5231353     -6.5794063      5.9903613      50218.233      36.893836      36.893836      36.893836    
    430000   0.6346279     -7.523555      -6.5716266      5.9881457      50218.233      36.893836      36.893836      36.893836    
    431000   0.63438483    -7.5224314     -6.5708677      5.9954765      50218.233      36.893836      36.893836      36.893836    
    432000   0.63815203    -7.5239584     -6.566744       5.9803778      50218.233      36.893836      36.893836      36.893836    
    433000   0.63555722    -7.5219237     -6.5686015      5.997402       50218.233      36.893836      36.893836      36.893836    
    434000   0.6363086     -7.5213141     -6.5668648      6.0123427      50218.233      36.893836      36.893836      36.893836    
    435000   0.63882767    -7.5294033     -6.5711755      5.945687       50218.233      36.893836      36.893836      36.893836    
    436000   0.63663193    -7.5218026     -6.5668683      6.0100459      50218.233      36.893836      36.893836      36.893836    
    437000   0.63475192    -7.5257573     -6.573643       5.9828403      50218.233      36.893836      36.893836      36.893836    
    438000   0.63524244    -7.5267887     -6.5739386      5.9570562      50218.233      36.893836      36.893836      36.893836    
    439000   0.63045204    -7.5227748     -6.5771102      5.9709289      50218.233      36.893836      36.893836      36.893836    
    440000   0.63428622    -7.5211858     -6.56977        6.0025049      50218.233      36.893836      36.893836      36.893836    
    441000   0.63052673    -7.5176699     -6.5718932      6.0201347      50218.233      36.893836      36.893836      36.893836    
    442000   0.63488149    -7.5159379     -6.5636292      6.0328536      50218.233      36.893836      36.893836      36.893836    
    443000   0.63416265    -7.5238593     -6.5726289      5.982981       50218.233      36.893836      36.893836      36.893836    
    444000   0.63632792    -7.525305      -6.5708267      5.9673009      50218.233      36.893836      36.893836      36.893836    
    445000   0.63680417    -7.5126421     -6.5574495      6.0644934      50218.233      36.893836      36.893836      36.893836    
    446000   0.63652881    -7.515587      -6.5608074      6.046421       50218.233      36.893836      36.893836      36.893836    
    447000   0.63651997    -7.5266795     -6.5719131      5.9608598      50218.233      36.893836      36.893836      36.893836    
    448000   0.63466845    -7.5225056     -6.5705165      5.9906785      50218.233      36.893836      36.893836      36.893836    
    449000   0.6411144     -7.5218226     -6.5601647      6.0102572      50218.233      36.893836      36.893836      36.893836    
    450000   0.63641839    -7.5173507     -6.5627367      6.0494474      50218.233      36.893836      36.893836      36.893836    
    451000   0.63071789    -7.5203074     -6.574244       5.9997606      50218.233      36.893836      36.893836      36.893836    
    452000   0.63494814    -7.5253004     -6.5728917      5.9719284      50218.233      36.893836      36.893836      36.893836    
    453000   0.63591835    -7.5204515     -6.5665875      6.0116619      50218.233      36.893836      36.893836      36.893836    
    454000   0.63716228    -7.5226287     -6.5668988      5.99781        50218.233      36.893836      36.893836      36.893836    
    455000   0.63344871    -7.5230025     -6.572843       5.9835842      50218.233      36.893836      36.893836      36.893836    
    456000   0.63670546    -7.5149644     -6.5599198      6.0429259      50218.233      36.893836      36.893836      36.893836    
    457000   0.63160841    -7.5184858     -6.5710866      6.022577       50218.233      36.893836      36.893836      36.893836    
    458000   0.63630378    -7.5225488     -6.5681067      6.0017267      50218.233      36.893836      36.893836      36.893836    
    459000   0.63398319    -7.5216737     -6.5707124      5.9896812      50218.233      36.893836      36.893836      36.893836    
    460000   0.63433951    -7.5226547     -6.571159       5.996929       50218.233      36.893836      36.893836      36.893836    
    461000   0.63656947    -7.5168527     -6.562012       6.0451078      50218.233      36.893836      36.893836      36.893836    
    462000   0.63732638    -7.5165093     -6.5605333      6.0358488      50218.233      36.893836      36.893836      36.893836    
    463000   0.63950612    -7.5206121     -6.5613665      6.0154126      50218.233      36.893836      36.893836      36.893836    
    464000   0.63746074    -7.5195637     -6.5633862      6.0131628      50218.233      36.893836      36.893836      36.893836    
    465000   0.63733062    -7.51924       -6.5632576      6.0175561      50218.233      36.893836      36.893836      36.893836    
    466000   0.634367      -7.5251923     -6.5736554      5.9713668      50218.233      36.893836      36.893836      36.893836    
    467000   0.63622391    -7.5219609     -6.5676386      5.9951074      50218.233      36.893836      36.893836      36.893836    
    468000   0.63476887    -7.5249782     -6.5728384      5.9611721      50218.233      36.893836      36.893836      36.893836    
    469000   0.63649633    -7.5236705     -6.5689396      6.0016413      50218.233      36.893836      36.893836      36.893836    
    470000   0.63317021    -7.5196794     -6.5699376      5.9997775      50218.233      36.893836      36.893836      36.893836    
    471000   0.6374085     -7.5226072     -6.5665081      5.9913179      50218.233      36.893836      36.893836      36.893836    
    472000   0.63643754    -7.5235765     -6.5689337      5.9785636      50218.233      36.893836      36.893836      36.893836    
    473000   0.63375256    -7.5210579     -6.5704426      6.0097474      50218.233      36.893836      36.893836      36.893836    
    474000   0.63402476    -7.5242222     -6.5731986      5.9889351      50218.233      36.893836      36.893836      36.893836    
    475000   0.63892337    -7.5225401     -6.5641687      6.0095947      50218.233      36.893836      36.893836      36.893836    
    476000   0.63118988    -7.5214539     -6.5746826      6.0015842      50218.233      36.893836      36.893836      36.893836    
    477000   0.6344419     -7.5284771     -6.5768278      5.9475863      50218.233      36.893836      36.893836      36.893836    
    478000   0.63186324    -7.5249228     -6.5771414      5.9659888      50218.233      36.893836      36.893836      36.893836    
    479000   0.63693876    -7.5271539     -6.5717593      5.954951       50218.233      36.893836      36.893836      36.893836    
    480000   0.63054995    -7.5186197     -6.5728083      6.0211506      50218.233      36.893836      36.893836      36.893836    
    481000   0.63434513    -7.5235153     -6.5720111      5.9729889      50218.233      36.893836      36.893836      36.893836    
    482000   0.6357136     -7.5195839     -6.5660271      6.0120324      50218.233      36.893836      36.893836      36.893836    
    483000   0.63428243    -7.5210264     -6.5696163      6.003272       50218.233      36.893836      36.893836      36.893836    
    484000   0.63456037    -7.5220957     -6.5702686      5.9871401      50218.233      36.893836      36.893836      36.893836    
    485000   0.63843979    -7.5232023     -6.5655563      6.0044221      50218.233      36.893836      36.893836      36.893836    
    486000   0.63596948    -7.5209397     -6.566999       6.0087876      50218.233      36.893836      36.893836      36.893836    
    487000   0.6335382     -7.516797      -6.5665032      6.0279849      50218.233      36.893836      36.893836      36.893836    
    488000   0.63267063    -7.5195509     -6.5705585      6.0125504      50218.233      36.893836      36.893836      36.893836    
    489000   0.63508995    -7.521355      -6.5687336      6.0030626      50218.233      36.893836      36.893836      36.893836    
    490000   0.63444154    -7.5220952     -6.5704464      6.005898       50218.233      36.893836      36.893836      36.893836    
    491000   0.63291678    -7.5229216     -6.57356        5.9756777      50218.233      36.893836      36.893836      36.893836    
    492000   0.63089809    -7.5192683     -6.5729347      6.0342898      50218.233      36.893836      36.893836      36.893836    
    493000   0.63536205    -7.5283502     -6.5753207      5.946502       50218.233      36.893836      36.893836      36.893836    
    494000   0.6381132     -7.5198553     -6.5626991      6.0097556      50218.233      36.893836      36.893836      36.893836    
    495000   0.63558131    -7.5167965     -6.5634381      6.0376847      50218.233      36.893836      36.893836      36.893836    
    496000   0.63944903    -7.5284458     -6.5692859      5.9631164      50218.233      36.893836      36.893836      36.893836    
    497000   0.63457653    -7.5246048     -6.5727536      5.9809539      50218.233      36.893836      36.893836      36.893836    
    498000   0.63480932    -7.52157       -6.5693696      5.9891063      50218.233      36.893836      36.893836      36.893836    
    499000   0.63336678    -7.5258438     -6.5758072      5.9569234      50218.233      36.893836      36.893836      36.893836    
    500000   0.636651      -7.521861      -6.5668981      5.9955855      50218.233      36.893836      36.893836      36.893836    
    501000   0.63464212    -7.5162216     -6.564272       6.0430364      50218.233      36.893836      36.893836      36.893836    
    502000   0.63656162    -7.5183414     -6.5635126      6.029797       50218.233      36.893836      36.893836      36.893836    
    503000   0.63618796    -7.5223737     -6.5681053      5.9883621      50218.233      36.893836      36.893836      36.893836    
    504000   0.63430193    -7.5135746     -6.5621353      6.0635935      50218.233      36.893836      36.893836      36.893836    
    505000   0.63161458    -7.5208025     -6.5733941      6.0089432      50218.233      36.893836      36.893836      36.893836    
    506000   0.63329658    -7.5234379     -6.5735066      5.976085       50218.233      36.893836      36.893836      36.893836    
    507000   0.63809179    -7.5250119     -6.5678879      5.9852584      50218.233      36.893836      36.893836      36.893836    
    508000   0.63673457    -7.5197287     -6.5646404      6.009481       50218.233      36.893836      36.893836      36.893836    
    509000   0.6332511     -7.5185747     -6.5687116      6.0189166      50218.233      36.893836      36.893836      36.893836    
    510000   0.63593253    -7.5239972     -6.570112       5.9896838      50218.233      36.893836      36.893836      36.893836    
    511000   0.63537357    -7.521062      -6.5680152      6.0042417      50218.233      36.893836      36.893836      36.893836    
    512000   0.6354278     -7.5166817     -6.5635536      6.0317571      50218.233      36.893836      36.893836      36.893836    
    513000   0.63154431    -7.5252797     -6.5779768      5.9662183      50218.233      36.893836      36.893836      36.893836    
    514000   0.63166578    -7.5162694     -6.5687842      6.0372533      50218.233      36.893836      36.893836      36.893836    
    515000   0.63661172    -7.5217822     -6.5668783      6.0131204      50218.233      36.893836      36.893836      36.893836    
    516000   0.63196222    -7.5231982     -6.5752684      5.9792796      50218.233      36.893836      36.893836      36.893836    
    517000   0.63261549    -7.5148288     -6.5659191      6.0394152      50218.233      36.893836      36.893836      36.893836    
    518000   0.63201907    -7.5138911     -6.565876       6.0599095      50218.233      36.893836      36.893836      36.893836    
    519000   0.63640523    -7.5204772     -6.565883       6.0057352      50218.233      36.893836      36.893836      36.893836    
    520000   0.63448005    -7.5172199     -6.5655133      6.0254228      50218.233      36.893836      36.893836      36.893836    
    521000   0.63290623    -7.512237      -6.5628912      6.0682425      50218.233      36.893836      36.893836      36.893836    
    522000   0.63247004    -7.5190663     -6.5703747      6.0116108      50218.233      36.893836      36.893836      36.893836    
    523000   0.6358821     -7.5159966     -6.562187       6.0426504      50218.233      36.893836      36.893836      36.893836    
    524000   0.63338685    -7.5185994     -6.5685326      6.0263125      50218.233      36.893836      36.893836      36.893836    
    525000   0.63496299    -7.5216422     -6.5692113      6.0015985      50218.233      36.893836      36.893836      36.893836    
    526000   0.63488482    -7.5205465     -6.5682328      5.9975999      50218.233      36.893836      36.893836      36.893836    
    527000   0.63779479    -7.5210081     -6.5643296      6.0180531      50218.233      36.893836      36.893836      36.893836    
    528000   0.63420887    -7.5215436     -6.5702438      5.9880612      50218.233      36.893836      36.893836      36.893836    
    529000   0.63402238    -7.5202468     -6.5692268      6.0186671      50218.233      36.893836      36.893836      36.893836    
    530000   0.6324925     -7.5275787     -6.5788534      5.9735883      50218.233      36.893836      36.893836      36.893836    
    531000   0.6349111     -7.5182606     -6.5659075      6.0309633      50218.233      36.893836      36.893836      36.893836    
    532000   0.63913516    -7.5265365     -6.5678474      5.976225       50218.233      36.893836      36.893836      36.893836    
    533000   0.63732069    -7.5167675     -6.5608         6.0454218      50218.233      36.893836      36.893836      36.893836    
    534000   0.6354464     -7.5290074     -6.5758514      5.9540584      50218.233      36.893836      36.893836      36.893836    
    535000   0.63383129    -7.5167882     -6.5660548      6.0432457      50218.233      36.893836      36.893836      36.893836    
    536000   0.63499634    -7.5226332     -6.5701523      5.9860736      50218.233      36.893836      36.893836      36.893836    
    537000   0.63659882    -7.5268088     -6.5719242      5.9686988      50218.233      36.893836      36.893836      36.893836    
    538000   0.63708578    -7.5192089     -6.5635938      6.0197129      50218.233      36.893836      36.893836      36.893836    
    539000   0.63801472    -7.5206408     -6.5636323      6.0155903      50218.233      36.893836      36.893836      36.893836    
    540000   0.6355278     -7.5220147     -6.5687365      5.9946296      50218.233      36.893836      36.893836      36.893836    
    541000   0.63394638    -7.5237012     -6.5727951      5.9833901      50218.233      36.893836      36.893836      36.893836    
    542000   0.63610073    -7.5187202     -6.5645827      6.0230885      50218.233      36.893836      36.893836      36.893836    
    543000   0.63564325    -7.5197526     -6.5663013      6.0208654      50218.233      36.893836      36.893836      36.893836    
    544000   0.63643516    -7.5184598     -6.5638207      6.0199162      50218.233      36.893836      36.893836      36.893836    
    545000   0.63456816    -7.5192494     -6.5674107      6.0227116      50218.233      36.893836      36.893836      36.893836    
    546000   0.63248116    -7.5212239     -6.5725157      5.9988998      50218.233      36.893836      36.893836      36.893836    
    547000   0.63780191    -7.5221883     -6.5654991      6.0084852      50218.233      36.893836      36.893836      36.893836    
    548000   0.63471213    -7.5267432     -6.5746885      5.9503933      50218.233      36.893836      36.893836      36.893836    
    549000   0.64079502    -7.5222565     -6.5610776      5.9972467      50218.233      36.893836      36.893836      36.893836    
    550000   0.63140147    -7.5220065     -6.5749177      5.9970004      50218.233      36.893836      36.893836      36.893836    
    551000   0.6356228     -7.5207586     -6.567338       6.0015129      50218.233      36.893836      36.893836      36.893836    
    552000   0.63701672    -7.5162574     -6.5607459      6.0447146      50218.233      36.893836      36.893836      36.893836    
    553000   0.63895156    -7.5176006     -6.5591869      6.0311559      50218.233      36.893836      36.893836      36.893836    
    554000   0.63573223    -7.5143969     -6.5608121      6.0510142      50218.233      36.893836      36.893836      36.893836    
    555000   0.63200218    -7.5201323     -6.5721425      6.0100175      50218.233      36.893836      36.893836      36.893836    
    556000   0.63796345    -7.5147141     -6.5577826      6.053396       50218.233      36.893836      36.893836      36.893836    
    557000   0.6357376     -7.5191804     -6.5655876      6.0127676      50218.233      36.893836      36.893836      36.893836    
    558000   0.63076084    -7.5183229     -6.5721951      6.0104224      50218.233      36.893836      36.893836      36.893836    
    559000   0.63309719    -7.5148524     -6.5652202      6.0437692      50218.233      36.893836      36.893836      36.893836    
    560000   0.63872474    -7.5206826     -6.5626091      6.0018726      50218.233      36.893836      36.893836      36.893836    
    561000   0.63447013    -7.5216741     -6.5699824      6.0053887      50218.233      36.893836      36.893836      36.893836    
    562000   0.63262298    -7.5229286     -6.5740076      5.9962798      50218.233      36.893836      36.893836      36.893836    
    563000   0.63613168    -7.5226288     -6.5684449      6.0054036      50218.233      36.893836      36.893836      36.893836    
    564000   0.63122386    -7.5245747     -6.5777524      5.9811354      50218.233      36.893836      36.893836      36.893836    
    565000   0.63713286    -7.5263673     -6.5706816      5.9716481      50218.233      36.893836      36.893836      36.893836    
    566000   0.63641648    -7.5236232     -6.5690121      5.9692045      50218.233      36.893836      36.893836      36.893836    
    567000   0.63839495    -7.5187747     -6.5611959      6.014343       50218.233      36.893836      36.893836      36.893836    
    568000   0.63724866    -7.5202248     -6.5643654      6.0076455      50218.233      36.893836      36.893836      36.893836    
    569000   0.63432109    -7.5213985     -6.5699304      6.0007593      50218.233      36.893836      36.893836      36.893836    
    570000   0.63524138    -7.5249194     -6.5720708      5.9868575      50218.233      36.893836      36.893836      36.893836    
    571000   0.63608847    -7.5212336     -6.5671145      5.9888207      50218.233      36.893836      36.893836      36.893836    
    572000   0.63706868    -7.5201536     -6.5645642      6.0164952      50218.233      36.893836      36.893836      36.893836    
    573000   0.63215407    -7.5286216     -6.5804039      5.9582716      50218.233      36.893836      36.893836      36.893836    
    574000   0.63455512    -7.520779      -6.5689598      6.0154908      50218.233      36.893836      36.893836      36.893836    
    575000   0.63741616    -7.520396      -6.5642853      6.0121968      50218.233      36.893836      36.893836      36.893836    
    576000   0.63664806    -7.5260704     -6.5711119      5.986269       50218.233      36.893836      36.893836      36.893836    
    577000   0.63536666    -7.5285701     -6.5755336      5.9428276      50218.233      36.893836      36.893836      36.893836    
    578000   0.63159772    -7.5237725     -6.5763894      5.9896725      50218.233      36.893836      36.893836      36.893836    
    579000   0.63803437    -7.5256139     -6.568576       5.9806308      50218.233      36.893836      36.893836      36.893836    
    580000   0.63691768    -7.5261621     -6.5707992      5.9778015      50218.233      36.893836      36.893836      36.893836    
    581000   0.63255551    -7.5252378     -6.5764181      5.9662036      50218.233      36.893836      36.893836      36.893836    
    582000   0.6347819     -7.525521      -6.5733617      5.9804302      50218.233      36.893836      36.893836      36.893836    
    583000   0.63527405    -7.5218053     -6.5689078      5.9992365      50218.233      36.893836      36.893836      36.893836    
    584000   0.63671667    -7.5214509     -6.5663894      6.0039566      50218.233      36.893836      36.893836      36.893836    
    585000   0.63335134    -7.5206331     -6.5706197      5.9922498      50218.233      36.893836      36.893836      36.893836    
    586000   0.63380461    -7.5183127     -6.5676193      6.0257367      50218.233      36.893836      36.893836      36.893836    
    587000   0.63375413    -7.5222944     -6.5716768      5.9911636      50218.233      36.893836      36.893836      36.893836    
    588000   0.63715405    -7.5217249     -6.5660074      6.0001528      50218.233      36.893836      36.893836      36.893836    
    589000   0.63393003    -7.5156518     -6.5647703      6.0489284      50218.233      36.893836      36.893836      36.893836    
    590000   0.63589304    -7.5232068     -6.5693809      5.9890709      50218.233      36.893836      36.893836      36.893836    
    591000   0.63436875    -7.5170349     -6.5654953      6.0292626      50218.233      36.893836      36.893836      36.893836    
    592000   0.63418624    -7.5222133     -6.5709474      5.996534       50218.233      36.893836      36.893836      36.893836    
    593000   0.63083601    -7.5215296     -6.5752891      5.9779983      50218.233      36.893836      36.893836      36.893836    
    594000   0.63518457    -7.5170372     -6.5642739      6.0280258      50218.233      36.893836      36.893836      36.893836    
    595000   0.63677343    -7.5192351     -6.5640885      6.0155807      50218.233      36.893836      36.893836      36.893836    
    596000   0.63340796    -7.5190407     -6.5689423      6.0107321      50218.233      36.893836      36.893836      36.893836    
    597000   0.63634095    -7.5217646     -6.5672668      5.9895918      50218.233      36.893836      36.893836      36.893836    
    598000   0.63422387    -7.5118268     -6.5605045      6.076807       50218.233      36.893836      36.893836      36.893836    
    599000   0.63505033    -7.5137703     -6.5612084      6.0637118      50218.233      36.893836      36.893836      36.893836    
    600000   0.63181327    -7.5159102     -6.5682038      6.0395207      50218.233      36.893836      36.893836      36.893836    
    601000   0.63333811    -7.517817      -6.5678234      6.0413567      50218.233      36.893836      36.893836      36.893836    
    602000   0.63746364    -7.5173095     -6.5611276      6.0469486      50218.233      36.893836      36.893836      36.893836    
    603000   0.63454952    -7.5143312     -6.5625205      6.0553446      50218.233      36.893836      36.893836      36.893836    
    604000   0.63359661    -7.5114683     -6.5610869      6.0766449      50218.233      36.893836      36.893836      36.893836    
    605000   0.63380839    -7.5183256     -6.5676265      6.0349656      50218.233      36.893836      36.893836      36.893836    
    606000   0.63603641    -7.5171107     -6.5630697      6.0303189      50218.233      36.893836      36.893836      36.893836    
    607000   0.63436012    -7.5286353     -6.5771087      5.954785       50218.233      36.893836      36.893836      36.893836    
    608000   0.63694071    -7.5223046     -6.5669071      6.0152125      50218.233      36.893836      36.893836      36.893836    
    609000   0.63526445    -7.5188383     -6.5659551      6.0167504      50218.233      36.893836      36.893836      36.893836    
    610000   0.63484477    -7.5206009     -6.5683473      6.0099652      50218.233      36.893836      36.893836      36.893836    
    611000   0.6343097     -7.5212978     -6.5698468      6.0138929      50218.233      36.893836      36.893836      36.893836    
    612000   0.63422394    -7.5209778     -6.5696554      6.0140278      50218.233      36.893836      36.893836      36.893836    
    613000   0.63447843    -7.5210868     -6.5693827      6.0124659      50218.233      36.893836      36.893836      36.893836    
    614000   0.63394546    -7.522453      -6.5715483      5.9814574      50218.233      36.893836      36.893836      36.893836    
    615000   0.6354471     -7.5203174     -6.5671603      6.0062387      50218.233      36.893836      36.893836      36.893836    
    616000   0.63501379    -7.5281256     -6.5756185      5.9513232      50218.233      36.893836      36.893836      36.893836    
    617000   0.6366233     -7.523176      -6.5682546      5.9874862      50218.233      36.893836      36.893836      36.893836    
    618000   0.63464731    -7.5190185     -6.567061       6.0164807      50218.233      36.893836      36.893836      36.893836    
    619000   0.63344267    -7.520398      -6.5702475      6.0173417      50218.233      36.893836      36.893836      36.893836    
    620000   0.63518295    -7.5199578     -6.5671969      6.0244193      50218.233      36.893836      36.893836      36.893836    
    621000   0.63779579    -7.5143956     -6.5577156      6.0625602      50218.233      36.893836      36.893836      36.893836    
    622000   0.63450182    -7.521577      -6.5698378      6.0028786      50218.233      36.893836      36.893836      36.893836    
    623000   0.63419837    -7.5188815     -6.5675975      6.0325339      50218.233      36.893836      36.893836      36.893836    
    624000   0.63461353    -7.5178861     -6.5659794      6.0193059      50218.233      36.893836      36.893836      36.893836    
    625000   0.63653508    -7.5250709     -6.5702819      5.9689632      50218.233      36.893836      36.893836      36.893836    
    626000   0.63525462    -7.5189914     -6.566123       6.0096066      50218.233      36.893836      36.893836      36.893836    
    627000   0.63582621    -7.5258422     -6.5721164      5.9810161      50218.233      36.893836      36.893836      36.893836    
    628000   0.63733949    -7.5124216     -6.556426       6.0719116      50218.233      36.893836      36.893836      36.893836    
    629000   0.63341687    -7.5149371     -6.5648253      6.0587876      50218.233      36.893836      36.893836      36.893836    
    630000   0.63453292    -7.5223245     -6.5705386      6.0006983      50218.233      36.893836      36.893836      36.893836    
    631000   0.63329374    -7.5239868     -6.5740597      5.9779088      50218.233      36.893836      36.893836      36.893836    
    632000   0.63392893    -7.522404      -6.5715241      5.9993588      50218.233      36.893836      36.893836      36.893836    
    633000   0.63425239    -7.5218048     -6.5704397      6.0025681      50218.233      36.893836      36.893836      36.893836    
    634000   0.63511334    -7.519847      -6.5671905      6.0268389      50218.233      36.893836      36.893836      36.893836    
    635000   0.63354001    -7.5202888     -6.5699923      6.0191896      50218.233      36.893836      36.893836      36.893836    
    636000   0.63791887    -7.5189746     -6.5621099      6.0211414      50218.233      36.893836      36.893836      36.893836    
    637000   0.63602119    -7.5224886     -6.5684704      6.00826        50218.233      36.893836      36.893836      36.893836    
    638000   0.63744552    -7.5214574     -6.5653027      6.0102343      50218.233      36.893836      36.893836      36.893836    
    639000   0.63472928    -7.5261242     -6.5740438      5.9693544      50218.233      36.893836      36.893836      36.893836    
    640000   0.63642888    -7.5277196     -6.5730899      5.9549284      50218.233      36.893836      36.893836      36.893836    
    641000   0.63056541    -7.5231527     -6.577318       5.9881493      50218.233      36.893836      36.893836      36.893836    
    642000   0.63511702    -7.5223974     -6.5697354      6.0034724      50218.233      36.893836      36.893836      36.893836    
    643000   0.63442803    -7.5231465     -6.571518       5.9934893      50218.233      36.893836      36.893836      36.893836    
    644000   0.63524838    -7.5225602     -6.5697012      5.9987215      50218.233      36.893836      36.893836      36.893836    
    645000   0.63561751    -7.5194781     -6.5660654      6.034036       50218.233      36.893836      36.893836      36.893836    
    646000   0.63241038    -7.5200792     -6.5714771      6.0172686      50218.233      36.893836      36.893836      36.893836    
    647000   0.63448828    -7.5195964     -6.5678775      6.0117844      50218.233      36.893836      36.893836      36.893836    
    648000   0.63422337    -7.524721      -6.5733995      5.9702965      50218.233      36.893836      36.893836      36.893836    
    649000   0.63639396    -7.5203936     -6.5658162      6.0074209      50218.233      36.893836      36.893836      36.893836    
    650000   0.63697644    -7.5258052     -6.5703541      5.9783153      50218.233      36.893836      36.893836      36.893836    
    651000   0.63580437    -7.5216079     -6.5679149      5.9886974      50218.233      36.893836      36.893836      36.893836    
    652000   0.63510872    -7.5184734     -6.5658238      6.0109437      50218.233      36.893836      36.893836      36.893836    
    653000   0.6333982     -7.5211482     -6.5710645      6.0002559      50218.233      36.893836      36.893836      36.893836    
    654000   0.63417636    -7.520485      -6.569234       6.0072531      50218.233      36.893836      36.893836      36.893836    
    655000   0.63669934    -7.5208321     -6.5657967      6.0061732      50218.233      36.893836      36.893836      36.893836    
    656000   0.63551411    -7.5207276     -6.56747        6.008907       50218.233      36.893836      36.893836      36.893836    
    657000   0.63261844    -7.5097899     -6.5608758      6.0781823      50218.233      36.893836      36.893836      36.893836    
    658000   0.63380766    -7.5139138     -6.5632158      6.0486385      50218.233      36.893836      36.893836      36.893836    
    659000   0.63355866    -7.5185329     -6.5682084      6.0276547      50218.233      36.893836      36.893836      36.893836    
    660000   0.6348591     -7.5181875     -6.5659123      6.0237283      50218.233      36.893836      36.893836      36.893836    
    661000   0.63584586    -7.5182257     -6.5644704      6.0282021      50218.233      36.893836      36.893836      36.893836    
    662000   0.6352893     -7.5120388     -6.5591184      6.0738785      50218.233      36.893836      36.893836      36.893836    
    663000   0.6344468     -7.5195505     -6.5678938      6.003455       50218.233      36.893836      36.893836      36.893836    
    664000   0.63501409    -7.5166681     -6.5641605      6.0236516      50218.233      36.893836      36.893836      36.893836    
    665000   0.63735606    -7.5176068     -6.5615863      6.0320833      50218.233      36.893836      36.893836      36.893836    
    666000   0.63031313    -7.5210829     -6.5756266      5.997228       50218.233      36.893836      36.893836      36.893836    
    667000   0.63424511    -7.522769      -6.5714148      5.9891118      50218.233      36.893836      36.893836      36.893836    
    668000   0.63413136    -7.518315      -6.5671314      6.0046428      50218.233      36.893836      36.893836      36.893836    
    669000   0.63531781    -7.5170168     -6.5640536      6.031745       50218.233      36.893836      36.893836      36.893836    
    670000   0.63467005    -7.5186202     -6.5666287      6.0174231      50218.233      36.893836      36.893836      36.893836    
    671000   0.63773964    -7.5257234     -6.5691275      5.9863055      50218.233      36.893836      36.893836      36.893836    
    672000   0.63541492    -7.5228309     -6.5697221      5.9835791      50218.233      36.893836      36.893836      36.893836    
    673000   0.63744668    -7.5231836     -6.5670271      5.9871739      50218.233      36.893836      36.893836      36.893836    
    674000   0.63523697    -7.5214327     -6.5685908      6.0084609      50218.233      36.893836      36.893836      36.893836    
    675000   0.6324798     -7.5278144     -6.5791082      5.9470688      50218.233      36.893836      36.893836      36.893836    
    676000   0.63562514    -7.5189155     -6.5654914      6.0186293      50218.233      36.893836      36.893836      36.893836    
    677000   0.63249841    -7.5341767     -6.5854426      5.9135534      50218.233      36.893836      36.893836      36.893836    
    678000   0.63530098    -7.5232429     -6.570305       5.9814101      50218.233      36.893836      36.893836      36.893836    
    679000   0.63569824    -7.5187299     -6.5651961      6.0150521      50218.233      36.893836      36.893836      36.893836    
    680000   0.6366048     -7.5171045     -6.5622109      6.0385024      50218.233      36.893836      36.893836      36.893836    
    681000   0.63644965    -7.5201891     -6.5655282      6.0073389      50218.233      36.893836      36.893836      36.893836    
    682000   0.63683887    -7.5232886     -6.5680439      5.9955377      50218.233      36.893836      36.893836      36.893836    
    683000   0.63608789    -7.5235193     -6.569401       5.9992189      50218.233      36.893836      36.893836      36.893836    
    684000   0.63341735    -7.5229428     -6.5728303      5.9816214      50218.233      36.893836      36.893836      36.893836    
    685000   0.63450347    -7.5244056     -6.5726639      5.9797012      50218.233      36.893836      36.893836      36.893836    
    686000   0.63646355    -7.5215237     -6.5668419      6.0083852      50218.233      36.893836      36.893836      36.893836    
    687000   0.63371921    -7.5172901     -6.5667248      6.0343758      50218.233      36.893836      36.893836      36.893836    
    688000   0.63530728    -7.5191332     -6.5661858      6.0061554      50218.233      36.893836      36.893836      36.893836    
    689000   0.63626071    -7.5187996     -6.5644221      6.0163958      50218.233      36.893836      36.893836      36.893836    
    690000   0.63699552    -7.5155324     -6.5600527      6.0499776      50218.233      36.893836      36.893836      36.893836    
    691000   0.63619623    -7.5251935     -6.5709127      5.9772866      50218.233      36.893836      36.893836      36.893836    
    692000   0.63459709    -7.5177477     -6.5658656      6.0147936      50218.233      36.893836      36.893836      36.893836    
    693000   0.6338912     -7.5171616     -6.5663383      6.0343173      50218.233      36.893836      36.893836      36.893836    
    694000   0.63107353    -7.5198853     -6.5732885      6.0207511      50218.233      36.893836      36.893836      36.893836    
    695000   0.63628044    -7.5176825     -6.5632754      6.0402901      50218.233      36.893836      36.893836      36.893836    
    696000   0.63298723    -7.5166029     -6.5671356      6.0349012      50218.233      36.893836      36.893836      36.893836    
    697000   0.63460121    -7.5198333     -6.567945       6.0206933      50218.233      36.893836      36.893836      36.893836    
    698000   0.63459634    -7.5202966     -6.5684156      6.0194062      50218.233      36.893836      36.893836      36.893836    
    699000   0.63351267    -7.5223779     -6.5721224      5.9926914      50218.233      36.893836      36.893836      36.893836    
    700000   0.63535028    -7.5203751     -6.5673632      6.0215931      50218.233      36.893836      36.893836      36.893836    
    701000   0.63291478    -7.5222152     -6.5728566      5.995096       50218.233      36.893836      36.893836      36.893836    
    702000   0.63324003    -7.5192033     -6.5693567      6.0164885      50218.233      36.893836      36.893836      36.893836    
    703000   0.63673254    -7.5272422     -6.572157       5.9703044      50218.233      36.893836      36.893836      36.893836    
    704000   0.63654856    -7.5211072     -6.566298       6.0022233      50218.233      36.893836      36.893836      36.893836    
    705000   0.63283958    -7.5206826     -6.5714368      5.9994017      50218.233      36.893836      36.893836      36.893836    
    706000   0.63762859    -7.5211348     -6.5647055      6.0065072      50218.233      36.893836      36.893836      36.893836    
    707000   0.63571093    -7.5179732     -6.5644203      6.0183755      50218.233      36.893836      36.893836      36.893836    
    708000   0.63586787    -7.5249557     -6.5711674      5.9804292      50218.233      36.893836      36.893836      36.893836    
    709000   0.63490033    -7.5230493     -6.5707123      5.999148       50218.233      36.893836      36.893836      36.893836    
    710000   0.63167226    -7.5202842     -6.5727893      6.0190706      50218.233      36.893836      36.893836      36.893836    
    711000   0.636326      -7.5258688     -6.5713934      5.9689853      50218.233      36.893836      36.893836      36.893836    
    712000   0.63362004    -7.5184735     -6.5680569      6.014047       50218.233      36.893836      36.893836      36.893836    
    713000   0.63555337    -7.5210529     -6.5677364      6.0071024      50218.233      36.893836      36.893836      36.893836    
    714000   0.63459376    -7.522198      -6.5703209      5.9909505      50218.233      36.893836      36.893836      36.893836    
    715000   0.63521316    -7.5183428     -6.5655367      6.0268481      50218.233      36.893836      36.893836      36.893836    
    716000   0.63455335    -7.5180715     -6.566255       6.0159804      50218.233      36.893836      36.893836      36.893836    
    717000   0.63205227    -7.5243813     -6.5763163      5.973458       50218.233      36.893836      36.893836      36.893836    
    718000   0.63408332    -7.5269142     -6.5758028      5.9599265      50218.233      36.893836      36.893836      36.893836    
    719000   0.63524156    -7.5222923     -6.5694435      5.9880824      50218.233      36.893836      36.893836      36.893836    
    720000   0.63287553    -7.5190088     -6.569709       6.0151726      50218.233      36.893836      36.893836      36.893836    
    721000   0.63757656    -7.5178617     -6.5615104      6.0286378      50218.233      36.893836      36.893836      36.893836    
    722000   0.63690379    -7.5162521     -6.56091        6.0552506      50218.233      36.893836      36.893836      36.893836    
    723000   0.63737875    -7.5177237     -6.5616692      6.0424916      50218.233      36.893836      36.893836      36.893836    
    724000   0.63528169    -7.5152176     -6.5623086      6.0507918      50218.233      36.893836      36.893836      36.893836    
    725000   0.63151747    -7.5179188     -6.570656       6.0416474      50218.233      36.893836      36.893836      36.893836    
    726000   0.63260036    -7.5221311     -6.5732441      5.9980903      50218.233      36.893836      36.893836      36.893836    
    727000   0.63154977    -7.5232623     -6.5759511      5.9843373      50218.233      36.893836      36.893836      36.893836    
    728000   0.63606608    -7.5204544     -6.5663688      6.0074265      50218.233      36.893836      36.893836      36.893836    
    729000   0.63617511    -7.5225082     -6.5682591      5.9928231      50218.233      36.893836      36.893836      36.893836    
    730000   0.63829407    -7.5223221     -6.5648946      5.9932846      50218.233      36.893836      36.893836      36.893836    
    731000   0.63431159    -7.5275062     -6.5760524      5.9533036      50218.233      36.893836      36.893836      36.893836    
    732000   0.63437652    -7.5252208     -6.5736695      5.9766412      50218.233      36.893836      36.893836      36.893836    
    733000   0.63696161    -7.5124669     -6.5570381      6.0723889      50218.233      36.893836      36.893836      36.893836    
    734000   0.6374423     -7.5252791     -6.5691293      5.9721098      50218.233      36.893836      36.893836      36.893836    
    735000   0.63937194    -7.522294      -6.5632498      5.991103       50218.233      36.893836      36.893836      36.893836    
    736000   0.63265574    -7.5204849     -6.5715148      6.0066585      50218.233      36.893836      36.893836      36.893836    
    737000   0.63477769    -7.5293566     -6.5772036      5.9505912      50218.233      36.893836      36.893836      36.893836    
    738000   0.63549263    -7.524413      -6.5711876      5.9889409      50218.233      36.893836      36.893836      36.893836    
    739000   0.63814104    -7.5242349     -6.5670369      5.9787033      50218.233      36.893836      36.893836      36.893836    
    740000   0.6339741     -7.5218866     -6.570939       6.0009415      50218.233      36.893836      36.893836      36.893836    
    741000   0.63701331    -7.5235289     -6.5680225      5.9978327      50218.233      36.893836      36.893836      36.893836    
    742000   0.63825002    -7.5286478     -6.5712864      5.9447913      50218.233      36.893836      36.893836      36.893836    
    743000   0.63550742    -7.5205764     -6.5673288      6.0073392      50218.233      36.893836      36.893836      36.893836    
    744000   0.63446567    -7.5257718     -6.5740869      5.9733839      50218.233      36.893836      36.893836      36.893836    
    745000   0.63812797    -7.5239149     -6.5667365      5.9944434      50218.233      36.893836      36.893836      36.893836    
    746000   0.6360416     -7.5196162     -6.5655674      6.0235099      50218.233      36.893836      36.893836      36.893836    
    747000   0.63306148    -7.5201049     -6.5705262      6.0067663      50218.233      36.893836      36.893836      36.893836    
    748000   0.63443583    -7.524179      -6.5725388      5.9839098      50218.233      36.893836      36.893836      36.893836    
    749000   0.63683824    -7.5210093     -6.5657655      6.0157198      50218.233      36.893836      36.893836      36.893836    
    750000   0.63716417    -7.5246018     -6.5688692      5.9748393      50218.233      36.893836      36.893836      36.893836    
    751000   0.63593779    -7.5229754     -6.5690822      5.9935939      50218.233      36.893836      36.893836      36.893836    
    752000   0.63372106    -7.5195648     -6.5689967      6.0378554      50218.233      36.893836      36.893836      36.893836    
    753000   0.63388108    -7.5223453     -6.5715372      5.9919665      50218.233      36.893836      36.893836      36.893836    
    754000   0.63683227    -7.5230575     -6.5678227      5.988594       50218.233      36.893836      36.893836      36.893836    
    755000   0.63041032    -7.5170175     -6.5714155      6.0300332      50218.233      36.893836      36.893836      36.893836    
    756000   0.63161069    -7.5169922     -6.5695897      6.0305682      50218.233      36.893836      36.893836      36.893836    
    757000   0.63618891    -7.5210068     -6.566737       6.00179        50218.233      36.893836      36.893836      36.893836    
    758000   0.63448158    -7.5155763     -6.5638674      6.041091       50218.233      36.893836      36.893836      36.893836    
    759000   0.63460888    -7.5178019     -6.5659022      6.0352824      50218.233      36.893836      36.893836      36.893836    
    760000   0.63709985    -7.5236469     -6.5680107      5.967558       50218.233      36.893836      36.893836      36.893836    
    761000   0.63336103    -7.5207761     -6.570748       6.0101713      50218.233      36.893836      36.893836      36.893836    
    762000   0.63521663    -7.5146277     -6.5618163      6.0682176      50218.233      36.893836      36.893836      36.893836    
    763000   0.63352637    -7.5165769     -6.5663009      6.0444474      50218.233      36.893836      36.893836      36.893836    
    764000   0.63399424    -7.5242        -6.5732221      5.994077       50218.233      36.893836      36.893836      36.893836    
    765000   0.63363487    -7.5214835     -6.5710447      6.0030851      50218.233      36.893836      36.893836      36.893836    
    766000   0.63586273    -7.5266193     -6.5728388      5.9686832      50218.233      36.893836      36.893836      36.893836    
    767000   0.63227918    -7.5185603     -6.5701551      6.0206466      50218.233      36.893836      36.893836      36.893836    
    768000   0.63473235    -7.5183147     -6.5662297      6.0182694      50218.233      36.893836      36.893836      36.893836    
    769000   0.63528108    -7.518663      -6.5657549      6.0128708      50218.233      36.893836      36.893836      36.893836    
    770000   0.63615646    -7.5178238     -6.5636027      6.0282981      50218.233      36.893836      36.893836      36.893836    
    771000   0.63429066    -7.5207161     -6.5692936      6.000951       50218.233      36.893836      36.893836      36.893836    
    772000   0.63045263    -7.5188766     -6.5732111      6.0143102      50218.233      36.893836      36.893836      36.893836    
    773000   0.631834      -7.5147098     -6.5669722      6.0375173      50218.233      36.893836      36.893836      36.893836    
    774000   0.63393875    -7.5169726     -6.566078       6.0544468      50218.233      36.893836      36.893836      36.893836    
    775000   0.63513695    -7.5194884     -6.5667965      6.01502        50218.233      36.893836      36.893836      36.893836    
    776000   0.63324124    -7.5177792     -6.5679309      6.0222199      50218.233      36.893836      36.893836      36.893836    
    777000   0.63577071    -7.523929      -6.5702865      5.970973       50218.233      36.893836      36.893836      36.893836    
    778000   0.636818      -7.5211344     -6.565921       6.0068943      50218.233      36.893836      36.893836      36.893836    
    779000   0.63500123    -7.5197842     -6.5672959      6.021563       50218.233      36.893836      36.893836      36.893836    
    780000   0.63798335    -7.5188382     -6.5618768      6.0300052      50218.233      36.893836      36.893836      36.893836    
    781000   0.63326783    -7.5208359     -6.5709477      6.0218974      50218.233      36.893836      36.893836      36.893836    
    782000   0.63511913    -7.5165364     -6.5638713      6.0525486      50218.233      36.893836      36.893836      36.893836    
    783000   0.63400296    -7.5161205     -6.5651296      6.0492195      50218.233      36.893836      36.893836      36.893836    
    784000   0.63219969    -7.520009      -6.571723       6.0218095      50218.233      36.893836      36.893836      36.893836    
    785000   0.63134482    -7.5178401     -6.5708363      6.0286918      50218.233      36.893836      36.893836      36.893836    
    786000   0.63366538    -7.5245976     -6.574113       5.9860927      50218.233      36.893836      36.893836      36.893836    
    787000   0.63808431    -7.5263277     -6.5692149      5.9872748      50218.233      36.893836      36.893836      36.893836    
    788000   0.63389366    -7.5214548     -6.5706279      5.9906167      50218.233      36.893836      36.893836      36.893836    
    789000   0.6386246     -7.5159245     -6.5580012      6.059736       50218.233      36.893836      36.893836      36.893836    
    790000   0.63232197    -7.5203195     -6.57185        5.9946704      50218.233      36.893836      36.893836      36.893836    
    791000   0.63277531    -7.5155534     -6.566404       6.0490755      50218.233      36.893836      36.893836      36.893836    
    792000   0.63456344    -7.5160765     -6.5642448      6.0591096      50218.233      36.893836      36.893836      36.893836    
    793000   0.63292825    -7.5239424     -6.5745635      5.9758294      50218.233      36.893836      36.893836      36.893836    
    794000   0.63489014    -7.5166214     -6.5642998      6.0333076      50218.233      36.893836      36.893836      36.893836    
    795000   0.63469137    -7.5279792     -6.5759557      5.9688715      50218.233      36.893836      36.893836      36.893836    
    796000   0.6337527     -7.5166752     -6.5660597      6.0196731      50218.233      36.893836      36.893836      36.893836    
    797000   0.63541469    -7.5208901     -6.5677816      6.0131659      50218.233      36.893836      36.893836      36.893836    
    798000   0.63204048    -7.526857      -6.5788098      5.9642927      50218.233      36.893836      36.893836      36.893836    
    799000   0.63627182    -7.5206473     -6.5662531      6.0141178      50218.233      36.893836      36.893836      36.893836    
    800000   0.63721052    -7.5179044     -6.5621022      6.0269736      50218.233      36.893836      36.893836      36.893836    
    801000   0.63632809    -7.5258049     -6.5713263      5.9724994      50218.233      36.893836      36.893836      36.893836    
    802000   0.63843077    -7.5169145     -6.559282       6.0396606      50218.233      36.893836      36.893836      36.893836    
    803000   0.63141723    -7.5224706     -6.5753582      5.9912567      50218.233      36.893836      36.893836      36.893836    
    804000   0.63546285    -7.5156581     -6.5624774      6.0492818      50218.233      36.893836      36.893836      36.893836    
    805000   0.6359689     -7.522842      -6.5689022      6.0018579      50218.233      36.893836      36.893836      36.893836    
    806000   0.63611484    -7.5220961     -6.5679374      6.0040157      50218.233      36.893836      36.893836      36.893836    
    807000   0.63301798    -7.5186125     -6.5690991      6.0074664      50218.233      36.893836      36.893836      36.893836    
    808000   0.6345549     -7.5197686     -6.5679498      6.0066889      50218.233      36.893836      36.893836      36.893836    
    809000   0.63156304    -7.5262606     -6.5789295      5.9625675      50218.233      36.893836      36.893836      36.893836    
    810000   0.63630759    -7.5204617     -6.5660139      6.0105237      50218.233      36.893836      36.893836      36.893836    
    811000   0.63438244    -7.5161547     -6.5645946      6.0355705      50218.233      36.893836      36.893836      36.893836    
    812000   0.63626098    -7.5194544     -6.5650765      6.0164719      50218.233      36.893836      36.893836      36.893836    
    813000   0.63151008    -7.5186727     -6.5714211      6.0144158      50218.233      36.893836      36.893836      36.893836    
    814000   0.6393339     -7.5195559     -6.5605687      6.0245341      50218.233      36.893836      36.893836      36.893836    
    815000   0.63590159    -7.5168521     -6.5630132      6.039002       50218.233      36.893836      36.893836      36.893836    
    816000   0.63377022    -7.5234589     -6.5728171      5.9747216      50218.233      36.893836      36.893836      36.893836    
    817000   0.6364245     -7.51165       -6.5570269      6.0740792      50218.233      36.893836      36.893836      36.893836    
    818000   0.63462895    -7.5168097     -6.5648799      6.0336369      50218.233      36.893836      36.893836      36.893836    
    819000   0.63218912    -7.513403      -6.5651328      6.0736235      50218.233      36.893836      36.893836      36.893836    
    820000   0.63403009    -7.5147909     -6.5637593      6.0563704      50218.233      36.893836      36.893836      36.893836    
    821000   0.63713658    -7.5157526     -6.5600613      6.0477318      50218.233      36.893836      36.893836      36.893836    
    822000   0.63430976    -7.5214481     -6.569997       6.001843       50218.233      36.893836      36.893836      36.893836    
    823000   0.63431777    -7.5208967     -6.5694336      6.0094076      50218.233      36.893836      36.893836      36.893836    
    824000   0.63945926    -7.5218809     -6.5627057      6.009647       50218.233      36.893836      36.893836      36.893836    
    825000   0.63367651    -7.5160539     -6.5655527      6.0448472      50218.233      36.893836      36.893836      36.893836    
    826000   0.63298792    -7.5198936     -6.5704253      6.0038452      50218.233      36.893836      36.893836      36.893836    
    827000   0.63353468    -7.5162665     -6.565978       6.0295951      50218.233      36.893836      36.893836      36.893836    
    828000   0.63629837    -7.5210059     -6.5665719      6.0034443      50218.233      36.893836      36.893836      36.893836    
    829000   0.63495315    -7.52034       -6.5679238      6.0073166      50218.233      36.893836      36.893836      36.893836    
    830000   0.63087876    -7.5233423     -6.5770376      5.9786508      50218.233      36.893836      36.893836      36.893836    
    831000   0.63308193    -7.5238865     -6.5742772      6.0000666      50218.233      36.893836      36.893836      36.893836    
    832000   0.63698794    -7.5282819     -6.5728136      5.952454       50218.233      36.893836      36.893836      36.893836    
    833000   0.63275659    -7.5202907     -6.5711693      5.9933679      50218.233      36.893836      36.893836      36.893836    
    834000   0.63542115    -7.5187858     -6.5656677      6.0272172      50218.233      36.893836      36.893836      36.893836    
    835000   0.63332146    -7.5184414     -6.5684728      6.0220435      50218.233      36.893836      36.893836      36.893836    
    836000   0.63641912    -7.516487      -6.5618719      6.0314804      50218.233      36.893836      36.893836      36.893836    
    837000   0.63489761    -7.5221195     -6.5697866      5.9992595      50218.233      36.893836      36.893836      36.893836    
    838000   0.63608902    -7.518318      -6.564198       6.0291998      50218.233      36.893836      36.893836      36.893836    
    839000   0.63473306    -7.5162011     -6.564115       6.0455457      50218.233      36.893836      36.893836      36.893836    
    840000   0.63548325    -7.5221166     -6.5689053      6.0018544      50218.233      36.893836      36.893836      36.893836    
    841000   0.63607478    -7.5203033     -6.5662047      6.0211578      50218.233      36.893836      36.893836      36.893836    
    842000   0.63626373    -7.5224547     -6.5680727      6.000492       50218.233      36.893836      36.893836      36.893836    
    843000   0.63749573    -7.5203708     -6.5641408      6.0260216      50218.233      36.893836      36.893836      36.893836    
    844000   0.63493718    -7.5244816     -6.5720893      5.9922724      50218.233      36.893836      36.893836      36.893836    
    845000   0.6347503     -7.5274947     -6.5753828      5.9585524      50218.233      36.893836      36.893836      36.893836    
    846000   0.63506346    -7.5243437     -6.571762       5.988976       50218.233      36.893836      36.893836      36.893836    
    847000   0.63714908    -7.5224642     -6.5667542      6.0077221      50218.233      36.893836      36.893836      36.893836    
    848000   0.63608421    -7.5220491     -6.5679364      6.001786       50218.233      36.893836      36.893836      36.893836    
    849000   0.63620779    -7.5234021     -6.569104       5.9895832      50218.233      36.893836      36.893836      36.893836    
    850000   0.63524642    -7.5205906     -6.5677345      6.0178566      50218.233      36.893836      36.893836      36.893836    
    851000   0.63280033    -7.5202111     -6.5710241      6.0159945      50218.233      36.893836      36.893836      36.893836    
    852000   0.63532792    -7.519651      -6.5666727      6.011469       50218.233      36.893836      36.893836      36.893836    
    853000   0.63489045    -7.5190234     -6.5667013      6.0206991      50218.233      36.893836      36.893836      36.893836    
    854000   0.63366244    -7.519469      -6.5689889      6.0148445      50218.233      36.893836      36.893836      36.893836    
    855000   0.63452439    -7.5231278     -6.5713548      5.9892716      50218.233      36.893836      36.893836      36.893836    
    856000   0.63629728    -7.518788      -6.5643557      6.0163345      50218.233      36.893836      36.893836      36.893836    
    857000   0.6380188     -7.5256332     -6.5686186      5.9811621      50218.233      36.893836      36.893836      36.893836    
    858000   0.6336178     -7.5216326     -6.5712194      6.0056709      50218.233      36.893836      36.893836      36.893836    
    859000   0.63503809    -7.5183322     -6.5657887      6.0261839      50218.233      36.893836      36.893836      36.893836    
    860000   0.63644632    -7.5218499     -6.567194       6.0002036      50218.233      36.893836      36.893836      36.893836    
    861000   0.6311491     -7.5225041     -6.5757939      5.9847794      50218.233      36.893836      36.893836      36.893836    
    862000   0.63499031    -7.5225498     -6.5700778      5.991418       50218.233      36.893836      36.893836      36.893836    
    863000   0.63854087    -7.5234631     -6.5656654      5.9913014      50218.233      36.893836      36.893836      36.893836    
    864000   0.6357718     -7.5176626     -6.5640184      6.0282887      50218.233      36.893836      36.893836      36.893836    
    865000   0.63428008    -7.5172428     -6.5658362      6.0245809      50218.233      36.893836      36.893836      36.893836    
    866000   0.63745853    -7.5237823     -6.5676081      5.9763919      50218.233      36.893836      36.893836      36.893836    
    867000   0.63820139    -7.5214545     -6.564166       6.0042909      50218.233      36.893836      36.893836      36.893836    
    868000   0.63297145    -7.5229855     -6.5735419      5.985985       50218.233      36.893836      36.893836      36.893836    
    869000   0.63493353    -7.5212446     -6.5688579      6.0010662      50218.233      36.893836      36.893836      36.893836    
    870000   0.63734538    -7.5255656     -6.5695612      5.9762284      50218.233      36.893836      36.893836      36.893836    
    871000   0.63257009    -7.5263602     -6.5775186      5.9588762      50218.233      36.893836      36.893836      36.893836    
    872000   0.63528578    -7.5231816     -6.5702665      5.989075       50218.233      36.893836      36.893836      36.893836    
    873000   0.63518892    -7.5239447     -6.5711749      5.9899782      50218.233      36.893836      36.893836      36.893836    
    874000   0.63478293    -7.5226779     -6.5705171      5.9977501      50218.233      36.893836      36.893836      36.893836    
    875000   0.63332931    -7.524464      -6.5744836      5.9664891      50218.233      36.893836      36.893836      36.893836    
    876000   0.63327077    -7.5210141     -6.5711215      6.0039117      50218.233      36.893836      36.893836      36.893836    
    877000   0.63469725    -7.5254095     -6.5733772      5.9714568      50218.233      36.893836      36.893836      36.893836    
    878000   0.63656276    -7.5118394     -6.5570088      6.079977       50218.233      36.893836      36.893836      36.893836    
    879000   0.63710633    -7.5212201     -6.5655741      6.0064052      50218.233      36.893836      36.893836      36.893836    
    880000   0.63456887    -7.5220947     -6.570255       6.005092       50218.233      36.893836      36.893836      36.893836    
    881000   0.63376367    -7.5198904     -6.5692584      6.0036274      50218.233      36.893836      36.893836      36.893836    
    882000   0.63408435    -7.5227488     -6.5716359      5.9868403      50218.233      36.893836      36.893836      36.893836    
    883000   0.63851963    -7.5243364     -6.5665706      5.992499       50218.233      36.893836      36.893836      36.893836    
    884000   0.6346648     -7.5247188     -6.5727351      5.9814707      50218.233      36.893836      36.893836      36.893836    
    885000   0.63574208    -7.5268137     -6.5732141      5.9758022      50218.233      36.893836      36.893836      36.893836    
    886000   0.63319292    -7.5165034     -6.5667276      6.0476741      50218.233      36.893836      36.893836      36.893836    
    887000   0.63534898    -7.5179959     -6.564986       6.0350269      50218.233      36.893836      36.893836      36.893836    
    888000   0.63054596    -7.5200967     -6.5742912      6.0045426      50218.233      36.893836      36.893836      36.893836    
    889000   0.6339647     -7.5131296     -6.5621961      6.0585575      50218.233      36.893836      36.893836      36.893836    
    890000   0.63298542    -7.5261569     -6.5766923      5.9695827      50218.233      36.893836      36.893836      36.893836    
    891000   0.63693708    -7.5219344     -6.5665424      6.0035258      50218.233      36.893836      36.893836      36.893836    
    892000   0.63250353    -7.5240337     -6.5752919      5.975919       50218.233      36.893836      36.893836      36.893836    
    893000   0.63437865    -7.521152      -6.5695976      6.008487       50218.233      36.893836      36.893836      36.893836    
    894000   0.63676505    -7.5183579     -6.5632239      6.0287341      50218.233      36.893836      36.893836      36.893836    
    895000   0.63480364    -7.5258898     -6.5736979      5.9676951      50218.233      36.893836      36.893836      36.893836    
    896000   0.63508378    -7.5186966     -6.5660845      6.0309136      50218.233      36.893836      36.893836      36.893836    
    897000   0.63778299    -7.517618      -6.5609572      6.0442304      50218.233      36.893836      36.893836      36.893836    
    898000   0.63670082    -7.5196334     -6.5645958      6.0131468      50218.233      36.893836      36.893836      36.893836    
    899000   0.63429484    -7.5169551     -6.5655264      6.0361131      50218.233      36.893836      36.893836      36.893836    
    900000   0.63422077    -7.5175005     -6.5661829      6.0259696      50218.233      36.893836      36.893836      36.893836    
    901000   0.63291823    -7.5222016     -6.5728377      5.9893137      50218.233      36.893836      36.893836      36.893836    
    902000   0.63475801    -7.5135685     -6.561445       6.0667836      50218.233      36.893836      36.893836      36.893836    
    903000   0.6377003     -7.5156285     -6.5590916      6.0469399      50218.233      36.893836      36.893836      36.893836    
    904000   0.6344614     -7.5219182     -6.5702396      5.994288       50218.233      36.893836      36.893836      36.893836    
    905000   0.63198497    -7.5235827     -6.5756187      5.9810374      50218.233      36.893836      36.893836      36.893836    
    906000   0.63477629    -7.5235293     -6.5713784      5.9938309      50218.233      36.893836      36.893836      36.893836    
    907000   0.63512026    -7.5236339     -6.5709671      5.9837607      50218.233      36.893836      36.893836      36.893836    
    908000   0.63746959    -7.5257686     -6.5695778      5.9803941      50218.233      36.893836      36.893836      36.893836    
    909000   0.63470241    -7.5259632     -6.5739232      5.9593181      50218.233      36.893836      36.893836      36.893836    
    910000   0.63687431    -7.5235471     -6.5682492      5.9962407      50218.233      36.893836      36.893836      36.893836    
    911000   0.63664547    -7.5214926     -6.566538       6.0087549      50218.233      36.893836      36.893836      36.893836    
    912000   0.63809778    -7.5308791     -6.5737461      5.927487       50218.233      36.893836      36.893836      36.893836    
    913000   0.63295907    -7.5224645     -6.5730394      5.9962407      50218.233      36.893836      36.893836      36.893836    
    914000   0.63640424    -7.5248282     -6.5702355      5.9886901      50218.233      36.893836      36.893836      36.893836    
    915000   0.63638844    -7.5249864     -6.5704173      5.9841659      50218.233      36.893836      36.893836      36.893836    
    916000   0.63517934    -7.5172051     -6.5644497      6.0343106      50218.233      36.893836      36.893836      36.893836    
    917000   0.63586861    -7.5203078     -6.5665185      6.0250372      50218.233      36.893836      36.893836      36.893836    
    918000   0.63597648    -7.5154126     -6.5614614      6.0696258      50218.233      36.893836      36.893836      36.893836    
    919000   0.63398298    -7.5185167     -6.5675558      6.0284431      50218.233      36.893836      36.893836      36.893836    
    920000   0.63756564    -7.5202058     -6.5638709      6.0070291      50218.233      36.893836      36.893836      36.893836    
    921000   0.6359523     -7.5254372     -6.5715223      5.974668       50218.233      36.893836      36.893836      36.893836    
    922000   0.63044429    -7.5237817     -6.5781287      5.9687764      50218.233      36.893836      36.893836      36.893836    
    923000   0.6340211     -7.5178396     -6.5668215      6.0321193      50218.233      36.893836      36.893836      36.893836    
    924000   0.63749573    -7.5175382     -6.5613082      6.0371445      50218.233      36.893836      36.893836      36.893836    
    925000   0.63682438    -7.5214166     -6.5661936      5.9997154      50218.233      36.893836      36.893836      36.893836    
    926000   0.63509725    -7.5211285     -6.5684962      5.9938876      50218.233      36.893836      36.893836      36.893836    
    927000   0.63364065    -7.5197043     -6.5692569      6.0153899      50218.233      36.893836      36.893836      36.893836    
    928000   0.63326519    -7.5229522     -6.5730679      5.9809659      50218.233      36.893836      36.893836      36.893836    
    929000   0.62968238    -7.5241925     -6.5796823      5.9838667      50218.233      36.893836      36.893836      36.893836    
    930000   0.63096239    -7.5164854     -6.5700553      6.0420373      50218.233      36.893836      36.893836      36.893836    
    931000   0.63611706    -7.5160002     -6.5618381      6.0285181      50218.233      36.893836      36.893836      36.893836    
    932000   0.63478382    -7.5214515     -6.5692893      6.0148686      50218.233      36.893836      36.893836      36.893836    
    933000   0.63320643    -7.5228246     -6.5730284      5.9948657      50218.233      36.893836      36.893836      36.893836    
    934000   0.63403602    -7.5216287     -6.5705882      5.989476       50218.233      36.893836      36.893836      36.893836    
    935000   0.63665734    -7.5127131     -6.5577406      6.0823293      50218.233      36.893836      36.893836      36.893836    
    936000   0.63705577    -7.5246648     -6.5690947      5.9833707      50218.233      36.893836      36.893836      36.893836    
    937000   0.63148321    -7.5205998     -6.5733885      6.0027544      50218.233      36.893836      36.893836      36.893836    
    938000   0.63301614    -7.5231163     -6.5736056      6.0031407      50218.233      36.893836      36.893836      36.893836    
    939000   0.63657669    -7.5232587     -6.5684072      6.0059532      50218.233      36.893836      36.893836      36.893836    
    940000   0.63525948    -7.524241      -6.5713654      5.9676228      50218.233      36.893836      36.893836      36.893836    
    941000   0.63717234    -7.5213589     -6.565614       6.0099566      50218.233      36.893836      36.893836      36.893836    
    942000   0.63496619    -7.5149791     -6.5625434      6.0555674      50218.233      36.893836      36.893836      36.893836    
    943000   0.6378933     -7.5203796     -6.5635532      6.0220423      50218.233      36.893836      36.893836      36.893836    
    944000   0.63386794    -7.5243932     -6.5736048      5.9938646      50218.233      36.893836      36.893836      36.893836    
    945000   0.63509494    -7.5181292     -6.5655004      6.0292182      50218.233      36.893836      36.893836      36.893836    
    946000   0.63332171    -7.5180632     -6.5680941      6.0233454      50218.233      36.893836      36.893836      36.893836    
    947000   0.63466821    -7.5212082     -6.5692194      5.9993604      50218.233      36.893836      36.893836      36.893836    
    948000   0.63986572    -7.5207516     -6.5609667      6.0089488      50218.233      36.893836      36.893836      36.893836    
    949000   0.63582404    -7.5230052     -6.5692827      5.9958004      50218.233      36.893836      36.893836      36.893836    
    950000   0.63151855    -7.5175428     -6.5702784      6.0197664      50218.233      36.893836      36.893836      36.893836    
    951000   0.63075289    -7.5203862     -6.5742703      6.0129191      50218.233      36.893836      36.893836      36.893836    
    952000   0.6335477     -7.5195327     -6.5692247      6.0178171      50218.233      36.893836      36.893836      36.893836    
    953000   0.6364609     -7.5190554     -6.5643777      6.0251286      50218.233      36.893836      36.893836      36.893836    
    954000   0.63660578    -7.5216699     -6.5667748      6.0042558      50218.233      36.893836      36.893836      36.893836    
    955000   0.63444236    -7.5198216     -6.5681716      6.0092739      50218.233      36.893836      36.893836      36.893836    
    956000   0.63409038    -7.5206747     -6.5695527      6.0061473      50218.233      36.893836      36.893836      36.893836    
    957000   0.63356373    -7.5221422     -6.5718102      5.9916829      50218.233      36.893836      36.893836      36.893836    
    958000   0.63293633    -7.5167285     -6.5673375      6.0335892      50218.233      36.893836      36.893836      36.893836    
    959000   0.63939822    -7.5212651     -6.5621814      6.0042259      50218.233      36.893836      36.893836      36.893836    
    960000   0.63669493    -7.5189618     -6.563933       6.0219514      50218.233      36.893836      36.893836      36.893836    
    961000   0.63544012    -7.5189388     -6.5657922      6.0245986      50218.233      36.893836      36.893836      36.893836    
    962000   0.6364914     -7.5200241     -6.5653006      6.0145282      50218.233      36.893836      36.893836      36.893836    
    963000   0.63583335    -7.5213271     -6.5675906      5.9986575      50218.233      36.893836      36.893836      36.893836    
    964000   0.63118839    -7.5218863     -6.5751172      5.9964044      50218.233      36.893836      36.893836      36.893836    
    965000   0.63709443    -7.5182506     -6.5626226      6.0373871      50218.233      36.893836      36.893836      36.893836    
    966000   0.63806324    -7.5244599     -6.5673787      5.975489       50218.233      36.893836      36.893836      36.893836    
    967000   0.63297876    -7.520906      -6.5714514      6.004042       50218.233      36.893836      36.893836      36.893836    
    968000   0.63722364    -7.5194654     -6.5636436      6.0219272      50218.233      36.893836      36.893836      36.893836    
    969000   0.63468629    -7.5175724     -6.5655565      6.022425       50218.233      36.893836      36.893836      36.893836    
    970000   0.63191719    -7.5249329     -6.5770706      5.9595735      50218.233      36.893836      36.893836      36.893836    
    971000   0.63641056    -7.5195379     -6.5649357      6.0265595      50218.233      36.893836      36.893836      36.893836    
    972000   0.63239323    -7.5214327     -6.5728564      5.9889885      50218.233      36.893836      36.893836      36.893836    
    973000   0.63512481    -7.5199669     -6.5672932      6.0031383      50218.233      36.893836      36.893836      36.893836    
    974000   0.63298942    -7.5165113     -6.5670407      6.0184456      50218.233      36.893836      36.893836      36.893836    
    975000   0.63696415    -7.5212421     -6.5658095      6.0071124      50218.233      36.893836      36.893836      36.893836    
    976000   0.63413351    -7.5205117     -6.5693249      6.0100767      50218.233      36.893836      36.893836      36.893836    
    977000   0.63386934    -7.5180037     -6.5672132      6.0230999      50218.233      36.893836      36.893836      36.893836    
    978000   0.63569442    -7.5238231     -6.570295       5.9678233      50218.233      36.893836      36.893836      36.893836    
    979000   0.63353599    -7.5261803     -6.5758898      5.970856       50218.233      36.893836      36.893836      36.893836    
    980000   0.63394645    -7.5263917     -6.5754856      5.9578061      50218.233      36.893836      36.893836      36.893836    
    981000   0.63656522    -7.5223289     -6.5674946      6.0025221      50218.233      36.893836      36.893836      36.893836    
    982000   0.63599744    -7.5255859     -6.5716034      5.9590908      50218.233      36.893836      36.893836      36.893836    
    983000   0.63454351    -7.5229084     -6.5711067      5.9764987      50218.233      36.893836      36.893836      36.893836    
    984000   0.63705547    -7.5186892     -6.5631196      6.0230707      50218.233      36.893836      36.893836      36.893836    
    985000   0.63457263    -7.5250585     -6.5732131      5.9810692      50218.233      36.893836      36.893836      36.893836    
    986000   0.63622912    -7.5251983     -6.5708682      5.9856063      50218.233      36.893836      36.893836      36.893836    
    987000   0.63628604    -7.5175702     -6.5631547      6.0313225      50218.233      36.893836      36.893836      36.893836    
    988000   0.63666883    -7.5191881     -6.5641985      6.0350455      50218.233      36.893836      36.893836      36.893836    
    989000   0.63217591    -7.5205633     -6.572313       6.0034892      50218.233      36.893836      36.893836      36.893836    
    990000   0.63348493    -7.5210514     -6.5708375      6.0071195      50218.233      36.893836      36.893836      36.893836    
    991000   0.63278351    -7.5240999     -6.5749382      5.9737591      50218.233      36.893836      36.893836      36.893836    
    992000   0.6338514     -7.5227805     -6.5720169      5.9803131      50218.233      36.893836      36.893836      36.893836    
    993000   0.63403112    -7.5181948     -6.5671617      6.0356511      50218.233      36.893836      36.893836      36.893836    
    994000   0.63285891    -7.5208451     -6.5715702      6.0004302      50218.233      36.893836      36.893836      36.893836    
    995000   0.63569156    -7.5203921     -6.5668683      6.0157684      50218.233      36.893836      36.893836      36.893836    
    996000   0.63705368    -7.5255444     -6.5699775      5.9796187      50218.233      36.893836      36.893836      36.893836    
    997000   0.63477407    -7.5227718     -6.5706242      5.9850412      50218.233      36.893836      36.893836      36.893836    
    998000   0.63626995    -7.5230017     -6.5686103      5.9946141      50218.233      36.893836      36.893836      36.893836    
    999000   0.6330811     -7.5154554     -6.5658473      6.0426326      50218.233      36.893836      36.893836      36.893836    
   1000000   0.63392926    -7.5179744     -6.5670941      6.0226894      50218.233      36.893836      36.893836      36.893836    
Loop time of 4398.82 on 1 procs for 1000000 steps with 70304 atoms

Performance: 196416.228 tau/day, 227.334 timesteps/s, 15.982 Matom-step/s
100.0% CPU use with 1 MPI tasks x 1 OpenMP threads

MPI task timing breakdown:
Section |  min time  |  avg time  |  max time  |%varavg| %total
---------------------------------------------------------------
Pair    | 1079.5     | 1079.5     | 1079.5     |   0.0 | 24.54
Neigh   | 46.197     | 46.197     | 46.197     |   0.0 |  1.05
Comm    | 553.89     | 553.89     | 553.89     |   0.0 | 12.59
Output  | 0.74882    | 0.74882    | 0.74882    |   0.0 |  0.02
Modify  | 2276.9     | 2276.9     | 2276.9     |   0.0 | 51.76
Other   |            | 441.6      |            |       | 10.04

Nlocal:          70304 ave       70304 max       70304 min
Histogram: 1 0 0 0 0 0 0 0 0 0
Nghost:          37132 ave       37132 max       37132 min
Histogram: 1 0 0 0 0 0 0 0 0 0
Neighs:              0 ave           0 max           0 min
Histogram: 1 0 0 0 0 0 0 0 0 0

Total # of neighbors = 0
Ave neighs/atom = 0
Neighbor list builds = 244193
Dangerous builds = 0
clear
OMP_NUM_THREADS environment is not set. Defaulting to 1 thread. (src/comm.cpp:98)
  using 1 OpenMP thread(s) per MPI task
package gpu 0
jump dms630.lmp

variable T equal 630
# T = 1000* (temp in LJ unit)
variable f equal 1000
log log.${T}
log log.630
