variable TLJ equal (${T}/1000)
variable TLJ equal (400/1000)
variable NCyle equal 10
variable iStep equal (${f})
variable iStep equal (1000)
variable dumpStep equal (${f}*100)
variable dumpStep equal (1000*100)
variable runStep equal (${f}*100*${NCyle})
variable runStep equal (1000*100*${NCyle})
variable runStep equal (1000*100*10)

units       lj
atom_style  atomic
dimension 3
boundary     p p p
pair_style  lj/cut 2.5
read_data  ../data/T${T}.dat
read_data  ../data/T400.dat
Reading data file ...
  orthogonal box = (0.97250269 0.97250269 0.97250269) to (37.866338 37.866338 37.866338)
  1 by 2 by 2 MPI processor grid
  reading atoms ...
  70304 atoms
  reading velocities ...
  70304 velocities
  read_data CPU = 0.189 seconds
change_box all triclinic
Changing box ...
  triclinic box = (0.97250269 0.97250269 0.97250269) to (37.866338 37.866338 37.866338) with tilt (0 0 0)
mass 1 1
mass 2 1
pair_modify shift yes
pair_coeff  1 1 1 1
pair_coeff  1 2 1.5 0.8
pair_coeff  2 2 0.5 0.88


timestep 0.01
thermo ${iStep}
thermo 1000
reset_timestep 0
thermo_style custom step temp pe etotal press vol lx ly lz
fix             1 all nvt temp ${TLJ}  ${TLJ}  0.1
fix             1 all nvt temp 0.4  ${TLJ}  0.1
fix             1 all nvt temp 0.4  0.4  0.1
thermo_modify flush yes

fix dsf all deform 1 xy  wiggle 0.5  ${f}   units box
fix dsf all deform 1 xy  wiggle 0.5  1000   units box
fix ps1 all ave/time 1 1 ${iStep} c_thermo_press[1] c_thermo_press[2]  c_thermo_press[3] c_thermo_press[4]  c_thermo_press[5] c_thermo_press[6]  file  stress.${T}
fix ps1 all ave/time 1 1 1000 c_thermo_press[1] c_thermo_press[2]  c_thermo_press[3] c_thermo_press[4]  c_thermo_press[5] c_thermo_press[6]  file  stress.${T}
fix ps1 all ave/time 1 1 1000 c_thermo_press[1] c_thermo_press[2]  c_thermo_press[3] c_thermo_press[4]  c_thermo_press[5] c_thermo_press[6]  file  stress.400
dump            1 all custom ${dumpStep} dump.${T} id type x y z
dump            1 all custom 100000 dump.${T} id type x y z
dump            1 all custom 100000 dump.400 id type x y z
dump_modify 1 sort id
fix nodrift all momentum 1  linear 1 1 1
fix com_seed all recenter INIT INIT INIT shift all
run ${runStep}
run 1000000
Generated 0 of 1 mixed pair_coeff terms from geometric mixing rule
Per MPI rank memory allocation (min/avg/max) = 8.612 | 8.613 | 8.616 Mbytes
   Step          Temp          PotEng         TotEng         Press          Volume           Lx             Ly             Lz      
         0   0.39834578    -7.9990818     -7.4015716      2.1561044      50218.233      36.893836      36.893836      36.893836    
      1000   0.39966771    -7.9882365     -7.3887435      2.2341378      50218.233      36.893836      36.893836      36.893836    
      2000   0.39913939    -7.9877324     -7.3890319      2.2327465      50218.233      36.893836      36.893836      36.893836    
      3000   0.40026108    -7.986032      -7.3856489      2.2519365      50218.233      36.893836      36.893836      36.893836    
      4000   0.39868483    -7.9861588     -7.38814        2.2492369      50218.233      36.893836      36.893836      36.893836    
      5000   0.39947595    -7.9886719     -7.3894665      2.237281       50218.233      36.893836      36.893836      36.893836    
      6000   0.39946954    -7.9893611     -7.3901653      2.2211445      50218.233      36.893836      36.893836      36.893836    
      7000   0.40120605    -7.986         -7.3841995      2.2533417      50218.233      36.893836      36.893836      36.893836    
      8000   0.39947923    -7.9875682     -7.3883579      2.2430595      50218.233      36.893836      36.893836      36.893836    
      9000   0.39999961    -7.9883473     -7.3883564      2.2268695      50218.233      36.893836      36.893836      36.893836    
     10000   0.40020468    -7.9927082     -7.3924097      2.2082316      50218.233      36.893836      36.893836      36.893836    
     11000   0.40212756    -7.9850707     -7.381888       2.2640392      50218.233      36.893836      36.893836      36.893836    
     12000   0.40116172    -7.9872119     -7.3854779      2.2407413      50218.233      36.893836      36.893836      36.893836    
     13000   0.40116079    -7.9879466     -7.3862139      2.2283889      50218.233      36.893836      36.893836      36.893836    
     14000   0.40095861    -7.9891452     -7.3877158      2.24034        50218.233      36.893836      36.893836      36.893836    
     15000   0.39924418    -7.991403      -7.3925453      2.2073809      50218.233      36.893836      36.893836      36.893836    
     16000   0.40167175    -7.9887965     -7.3862975      2.230454       50218.233      36.893836      36.893836      36.893836    
     17000   0.39857483    -7.9863179     -7.3884641      2.2473339      50218.233      36.893836      36.893836      36.893836    
     18000   0.39897946    -7.9893023     -7.3908416      2.2294017      50218.233      36.893836      36.893836      36.893836    
     19000   0.40027242    -7.9851692     -7.3847691      2.2564119      50218.233      36.893836      36.893836      36.893836    
     20000   0.3994749     -7.9869358     -7.3877319      2.2457622      50218.233      36.893836      36.893836      36.893836    
     21000   0.39786372    -7.9877342     -7.3909471      2.2447897      50218.233      36.893836      36.893836      36.893836    
     22000   0.39996203    -7.9912089     -7.3912744      2.2108037      50218.233      36.893836      36.893836      36.893836    
     23000   0.39934121    -7.9863978     -7.3873945      2.2496181      50218.233      36.893836      36.893836      36.893836    
     24000   0.40274849    -7.9859347     -7.3818206      2.2570815      50218.233      36.893836      36.893836      36.893836    
     25000   0.39914049    -7.9860136     -7.3873114      2.2551738      50218.233      36.893836      36.893836      36.893836    
     26000   0.4012053     -7.9873847     -7.3855853      2.2427919      50218.233      36.893836      36.893836      36.893836    
     27000   0.40157492    -7.9871698     -7.384816       2.2467096      50218.233      36.893836      36.893836      36.893836    
     28000   0.40065668    -7.9853852     -7.3844088      2.2654194      50218.233      36.893836      36.893836      36.893836    
     29000   0.3994601     -7.9887191     -7.3895375      2.2179344      50218.233      36.893836      36.893836      36.893836    
     30000   0.40035957    -7.9874138     -7.386883       2.2468621      50218.233      36.893836      36.893836      36.893836    
     31000   0.39926036    -7.9907309     -7.3918489      2.2191289      50218.233      36.893836      36.893836      36.893836    
     32000   0.40020432    -7.989801      -7.3895031      2.2312616      50218.233      36.893836      36.893836      36.893836    
     33000   0.40086437    -7.9868266     -7.3855386      2.2422947      50218.233      36.893836      36.893836      36.893836    
     34000   0.40210588    -7.9874963     -7.384346       2.2439628      50218.233      36.893836      36.893836      36.893836    
     35000   0.39808477    -7.9860239     -7.3889052      2.2475588      50218.233      36.893836      36.893836      36.893836    
     36000   0.39983904    -7.9894971     -7.3897471      2.2221583      50218.233      36.893836      36.893836      36.893836    
     37000   0.39824175    -7.9892472     -7.391893       2.2294669      50218.233      36.893836      36.893836      36.893836    
     38000   0.40070374    -7.9898651     -7.388818       2.2176521      50218.233      36.893836      36.893836      36.893836    
     39000   0.39975534    -7.9891372     -7.3895127      2.2263266      50218.233      36.893836      36.893836      36.893836    
     40000   0.39869698    -7.985005      -7.386968       2.253288       50218.233      36.893836      36.893836      36.893836    
     41000   0.40091319    -7.9867741     -7.3854129      2.2393836      50218.233      36.893836      36.893836      36.893836    
     42000   0.40153066    -7.9895664     -7.387279       2.230228       50218.233      36.893836      36.893836      36.893836    
     43000   0.39900238    -7.9886132     -7.3901182      2.2289108      50218.233      36.893836      36.893836      36.893836    
     44000   0.39885622    -7.9888042     -7.3905284      2.2314541      50218.233      36.893836      36.893836      36.893836    
     45000   0.39753956    -7.988663      -7.3923622      2.2275879      50218.233      36.893836      36.893836      36.893836    
     46000   0.4011954     -7.9911772     -7.3893927      2.2142341      50218.233      36.893836      36.893836      36.893836    
     47000   0.40012248    -7.9887755     -7.3886004      2.2290314      50218.233      36.893836      36.893836      36.893836    
     48000   0.40153613    -7.9867288     -7.3844332      2.2493154      50218.233      36.893836      36.893836      36.893836    
     49000   0.40089372    -7.986417      -7.385085       2.2440985      50218.233      36.893836      36.893836      36.893836    
     50000   0.39965532    -7.9879974     -7.388523       2.2344037      50218.233      36.893836      36.893836      36.893836    
     51000   0.40162657    -7.9895782     -7.3871469      2.2344432      50218.233      36.893836      36.893836      36.893836    
     52000   0.39949521    -7.9897029     -7.3904686      2.216431       50218.233      36.893836      36.893836      36.893836    
     53000   0.39949486    -7.988875      -7.3896413      2.233511       50218.233      36.893836      36.893836      36.893836    
     54000   0.39771741    -7.9905522     -7.3939846      2.2193418      50218.233      36.893836      36.893836      36.893836    
     55000   0.40165367    -7.9916518     -7.3891798      2.2101297      50218.233      36.893836      36.893836      36.893836    
     56000   0.39953105    -7.9848322     -7.3855441      2.2615088      50218.233      36.893836      36.893836      36.893836    
     57000   0.4014003     -7.9914328     -7.3893409      2.2104975      50218.233      36.893836      36.893836      36.893836    
     58000   0.40045869    -7.9886334     -7.3879539      2.2263746      50218.233      36.893836      36.893836      36.893836    
     59000   0.40088173    -7.988415      -7.3871009      2.2350166      50218.233      36.893836      36.893836      36.893836    
     60000   0.39801827    -7.9867439     -7.389725       2.2392662      50218.233      36.893836      36.893836      36.893836    
     61000   0.39942411    -7.9869261     -7.3877984      2.251949       50218.233      36.893836      36.893836      36.893836    
     62000   0.39815784    -7.987408      -7.3901798      2.2388558      50218.233      36.893836      36.893836      36.893836    
     63000   0.40187953    -7.9881123     -7.3853016      2.2319215      50218.233      36.893836      36.893836      36.893836    
     64000   0.3996393     -7.9867347     -7.3872843      2.2414689      50218.233      36.893836      36.893836      36.893836    
     65000   0.39810693    -7.9913321     -7.3941801      2.2119367      50218.233      36.893836      36.893836      36.893836    
     66000   0.40073833    -7.9869483     -7.3858493      2.2380403      50218.233      36.893836      36.893836      36.893836    
     67000   0.39990512    -7.9879903     -7.3881412      2.2388998      50218.233      36.893836      36.893836      36.893836    
     68000   0.39929697    -7.9844208     -7.3854839      2.2583015      50218.233      36.893836      36.893836      36.893836    
     69000   0.4001588     -7.9856673     -7.3854376      2.2541166      50218.233      36.893836      36.893836      36.893836    
     70000   0.39754694    -7.9863983     -7.3900864      2.2392377      50218.233      36.893836      36.893836      36.893836    
     71000   0.40284374    -7.9862283     -7.3819713      2.2453529      50218.233      36.893836      36.893836      36.893836    
     72000   0.40044853    -7.9854242     -7.38476        2.2592176      50218.233      36.893836      36.893836      36.893836    
     73000   0.39691491    -7.9900174     -7.3946535      2.2114077      50218.233      36.893836      36.893836      36.893836    
     74000   0.39925399    -7.9878993     -7.3890269      2.2294861      50218.233      36.893836      36.893836      36.893836    
     75000   0.3998442     -7.9901072     -7.3903495      2.2224412      50218.233      36.893836      36.893836      36.893836    
     76000   0.40130256    -7.9859889     -7.3840437      2.258743       50218.233      36.893836      36.893836      36.893836    
     77000   0.40167446    -7.9883543     -7.3858511      2.2341244      50218.233      36.893836      36.893836      36.893836    
     78000   0.39956993    -7.9890296     -7.3896832      2.2206223      50218.233      36.893836      36.893836      36.893836    
     79000   0.39860282    -7.9846024     -7.3867067      2.2543971      50218.233      36.893836      36.893836      36.893836    
     80000   0.39964527    -7.9850401     -7.3855807      2.2589636      50218.233      36.893836      36.893836      36.893836    
     81000   0.40145853    -7.9890377     -7.3868584      2.229412       50218.233      36.893836      36.893836      36.893836    
     82000   0.40141365    -7.9843368     -7.3822249      2.2675984      50218.233      36.893836      36.893836      36.893836    
     83000   0.40057398    -7.9857401     -7.3848877      2.2538075      50218.233      36.893836      36.893836      36.893836    
     84000   0.39944211    -7.9853468     -7.3861921      2.250295       50218.233      36.893836      36.893836      36.893836    
     85000   0.39857024    -7.986769      -7.3889222      2.2401412      50218.233      36.893836      36.893836      36.893836    
     86000   0.40139343    -7.9866654     -7.3845838      2.2489081      50218.233      36.893836      36.893836      36.893836    
     87000   0.40063025    -7.9882031     -7.3872663      2.2343711      50218.233      36.893836      36.893836      36.893836    
     88000   0.4006949     -7.9904226     -7.3893887      2.2131367      50218.233      36.893836      36.893836      36.893836    
     89000   0.39983573    -7.9880275     -7.3882825      2.2350618      50218.233      36.893836      36.893836      36.893836    
     90000   0.40171867    -7.987859      -7.3852895      2.2452757      50218.233      36.893836      36.893836      36.893836    
     91000   0.39948399    -7.9869468     -7.3877293      2.2442871      50218.233      36.893836      36.893836      36.893836    
     92000   0.4001314     -7.9888574     -7.3886689      2.2303306      50218.233      36.893836      36.893836      36.893836    
     93000   0.40149973    -7.9877812     -7.3855402      2.2417403      50218.233      36.893836      36.893836      36.893836    
     94000   0.39934096    -7.9896333     -7.3906304      2.2248425      50218.233      36.893836      36.893836      36.893836    
     95000   0.40166088    -7.9869262     -7.3844435      2.2495203      50218.233      36.893836      36.893836      36.893836    
     96000   0.40059837    -7.989028      -7.388139       2.2281508      50218.233      36.893836      36.893836      36.893836    
     97000   0.39933198    -7.9892632     -7.3902737      2.2371472      50218.233      36.893836      36.893836      36.893836    
     98000   0.40140509    -7.9888671     -7.386768       2.2263313      50218.233      36.893836      36.893836      36.893836    
     99000   0.40014117    -7.990491      -7.3902878      2.2273978      50218.233      36.893836      36.893836      36.893836    
    100000   0.40139049    -7.9883219     -7.3862447      2.2355572      50218.233      36.893836      36.893836      36.893836    
    101000   0.3976726     -7.988129      -7.3916286      2.2373722      50218.233      36.893836      36.893836      36.893836    
    102000   0.40190344    -7.9880585     -7.3852119      2.2300296      50218.233      36.893836      36.893836      36.893836    
    103000   0.40033856    -7.9882404     -7.3877411      2.2385058      50218.233      36.893836      36.893836      36.893836    
    104000   0.39871179    -7.9881948     -7.3901356      2.234737       50218.233      36.893836      36.893836      36.893836    
    105000   0.39866608    -7.9856155     -7.3876248      2.2527316      50218.233      36.893836      36.893836      36.893836    
    106000   0.39938754    -7.9863425     -7.3872697      2.2450471      50218.233      36.893836      36.893836      36.893836    
    107000   0.39662947    -7.9908493     -7.3959136      2.2035448      50218.233      36.893836      36.893836      36.893836    
    108000   0.40100192    -7.9843837     -7.3828894      2.2680726      50218.233      36.893836      36.893836      36.893836    
    109000   0.40263094    -7.9862195     -7.3822817      2.2527837      50218.233      36.893836      36.893836      36.893836    
    110000   0.40174172    -7.9858801     -7.383276       2.2573907      50218.233      36.893836      36.893836      36.893836    
    111000   0.40086631    -7.9899388     -7.3886479      2.2230806      50218.233      36.893836      36.893836      36.893836    
    112000   0.39884552    -7.9879977     -7.389738       2.2388576      50218.233      36.893836      36.893836      36.893836    
    113000   0.39840132    -7.9868149     -7.3892214      2.2371585      50218.233      36.893836      36.893836      36.893836    
    114000   0.39883399    -7.9842541     -7.3860116      2.2601353      50218.233      36.893836      36.893836      36.893836    
    115000   0.39872658    -7.9879852     -7.3899038      2.2322164      50218.233      36.893836      36.893836      36.893836    
    116000   0.39898225    -7.9879285     -7.3894637      2.2348834      50218.233      36.893836      36.893836      36.893836    
    117000   0.39975077    -7.9899913     -7.3903737      2.2220408      50218.233      36.893836      36.893836      36.893836    
    118000   0.39864013    -7.9852894     -7.3873377      2.2584596      50218.233      36.893836      36.893836      36.893836    
    119000   0.40083369    -7.988446      -7.387204       2.2309204      50218.233      36.893836      36.893836      36.893836    
    120000   0.40128451    -7.987034      -7.3851158      2.255435       50218.233      36.893836      36.893836      36.893836    
    121000   0.40246456    -7.9864846     -7.3827964      2.2495307      50218.233      36.893836      36.893836      36.893836    
    122000   0.40006453    -7.9864931     -7.3864048      2.2442644      50218.233      36.893836      36.893836      36.893836    
    123000   0.3994844     -7.9866918     -7.3874737      2.2396299      50218.233      36.893836      36.893836      36.893836    
    124000   0.39736549    -7.9878465     -7.3918068      2.2331403      50218.233      36.893836      36.893836      36.893836    
    125000   0.39921369    -7.9866543     -7.3878423      2.2556364      50218.233      36.893836      36.893836      36.893836    
    126000   0.3979203     -7.9863756     -7.3895036      2.2449574      50218.233      36.893836      36.893836      36.893836    
    127000   0.39873181    -7.986981      -7.3888918      2.2465473      50218.233      36.893836      36.893836      36.893836    
    128000   0.39878801    -7.9887361     -7.3905626      2.2294951      50218.233      36.893836      36.893836      36.893836    
    129000   0.40013135    -7.9851545     -7.3849661      2.255424       50218.233      36.893836      36.893836      36.893836    
    130000   0.40099554    -7.9867111     -7.3852264      2.247911       50218.233      36.893836      36.893836      36.893836    
    131000   0.40104094    -7.9876872     -7.3861343      2.2327256      50218.233      36.893836      36.893836      36.893836    
    132000   0.4003949     -7.9877946     -7.3872108      2.2373858      50218.233      36.893836      36.893836      36.893836    
    133000   0.40005927    -7.9866581     -7.3865777      2.2387221      50218.233      36.893836      36.893836      36.893836    
    134000   0.40096872    -7.9894274     -7.3879829      2.2306438      50218.233      36.893836      36.893836      36.893836    
    135000   0.40084313    -7.9864208     -7.3851647      2.2489962      50218.233      36.893836      36.893836      36.893836    
    136000   0.39816224    -7.990639      -7.3934041      2.2122396      50218.233      36.893836      36.893836      36.893836    
    137000   0.39824701    -7.9850071     -7.3876451      2.256861       50218.233      36.893836      36.893836      36.893836    
    138000   0.39870391    -7.9859961     -7.3879488      2.2482434      50218.233      36.893836      36.893836      36.893836    
    139000   0.39747699    -7.9854027     -7.3891957      2.2477919      50218.233      36.893836      36.893836      36.893836    
    140000   0.40023152    -7.9885018     -7.388163       2.2390662      50218.233      36.893836      36.893836      36.893836    
    141000   0.39836686    -7.9868086     -7.3892668      2.2456022      50218.233      36.893836      36.893836      36.893836    
    142000   0.39960749    -7.9855326     -7.3861299      2.2547073      50218.233      36.893836      36.893836      36.893836    
    143000   0.39893242    -7.9875489     -7.3891588      2.2342756      50218.233      36.893836      36.893836      36.893836    
    144000   0.39849831    -7.9876389     -7.3899         2.2379532      50218.233      36.893836      36.893836      36.893836    
    145000   0.39961467    -7.9892436     -7.3898301      2.2236814      50218.233      36.893836      36.893836      36.893836    
    146000   0.39784317    -7.9893474     -7.3925912      2.2313348      50218.233      36.893836      36.893836      36.893836    
    147000   0.39989018    -7.9905154     -7.3906887      2.2272943      50218.233      36.893836      36.893836      36.893836    
    148000   0.3982817     -7.9891742     -7.3917602      2.2188159      50218.233      36.893836      36.893836      36.893836    
    149000   0.401745      -7.987324      -7.384715       2.2448496      50218.233      36.893836      36.893836      36.893836    
    150000   0.39988124    -7.9849886     -7.3851752      2.2518004      50218.233      36.893836      36.893836      36.893836    
    151000   0.40075659    -7.990629      -7.3895027      2.21487        50218.233      36.893836      36.893836      36.893836    
    152000   0.39794146    -7.9906063     -7.3937026      2.2107855      50218.233      36.893836      36.893836      36.893836    
    153000   0.39848074    -7.9887019     -7.3909893      2.235559       50218.233      36.893836      36.893836      36.893836    
    154000   0.40024833    -7.9860823     -7.3857183      2.2542786      50218.233      36.893836      36.893836      36.893836    
    155000   0.39903204    -7.9860936     -7.3875541      2.2542499      50218.233      36.893836      36.893836      36.893836    
    156000   0.40093289    -7.9877971     -7.3864063      2.233796       50218.233      36.893836      36.893836      36.893836    
    157000   0.40142553    -7.9900547     -7.387925       2.2338439      50218.233      36.893836      36.893836      36.893836    
    158000   0.40119347    -7.9864413     -7.3846597      2.249757       50218.233      36.893836      36.893836      36.893836    
    159000   0.40026709    -7.9867714     -7.3863793      2.233666       50218.233      36.893836      36.893836      36.893836    
    160000   0.40200661    -7.9894642     -7.3864628      2.2269829      50218.233      36.893836      36.893836      36.893836    
    161000   0.39933389    -7.9853368     -7.3863444      2.2505764      50218.233      36.893836      36.893836      36.893836    
    162000   0.40017972    -7.9869353     -7.3866742      2.2410143      50218.233      36.893836      36.893836      36.893836    
    163000   0.39912925    -7.9876718     -7.3889864      2.23114        50218.233      36.893836      36.893836      36.893836    
    164000   0.40153916    -7.9896412     -7.387341       2.2224323      50218.233      36.893836      36.893836      36.893836    
    165000   0.39981981    -7.9867849     -7.3870637      2.2484201      50218.233      36.893836      36.893836      36.893836    
    166000   0.40067583    -7.9877839     -7.3867788      2.2455784      50218.233      36.893836      36.893836      36.893836    
    167000   0.40171132    -7.9877332     -7.3851748      2.2411184      50218.233      36.893836      36.893836      36.893836    
    168000   0.3998416     -7.9862183     -7.3864644      2.2473023      50218.233      36.893836      36.893836      36.893836    
    169000   0.4005518     -7.9848875     -7.3840683      2.2576499      50218.233      36.893836      36.893836      36.893836    
    170000   0.40318891    -7.9818374     -7.3770627      2.2801697      50218.233      36.893836      36.893836      36.893836    
    171000   0.40041994    -7.9871688     -7.3865474      2.2366908      50218.233      36.893836      36.893836      36.893836    
    172000   0.39792417    -7.987948      -7.3910703      2.2357766      50218.233      36.893836      36.893836      36.893836    
    173000   0.40037597    -7.9870033     -7.3864479      2.2385929      50218.233      36.893836      36.893836      36.893836    
    174000   0.39991885    -7.984163      -7.3842933      2.262928       50218.233      36.893836      36.893836      36.893836    
    175000   0.39862583    -7.9859942     -7.388064       2.2484495      50218.233      36.893836      36.893836      36.893836    
    176000   0.40055476    -7.9880121     -7.3871885      2.2362481      50218.233      36.893836      36.893836      36.893836    
    177000   0.40002239    -7.9854924     -7.3854673      2.2582347      50218.233      36.893836      36.893836      36.893836    
    178000   0.39975455    -7.9850156     -7.3853923      2.2602703      50218.233      36.893836      36.893836      36.893836    
    179000   0.39961053    -7.9866375     -7.3872303      2.2457081      50218.233      36.893836      36.893836      36.893836    
    180000   0.40071271    -7.9888109     -7.3877504      2.2278554      50218.233      36.893836      36.893836      36.893836    
    181000   0.39959424    -7.985889      -7.3865061      2.2604744      50218.233      36.893836      36.893836      36.893836    
    182000   0.40026325    -7.9869847     -7.3865984      2.2447398      50218.233      36.893836      36.893836      36.893836    
    183000   0.40270073    -7.9878923     -7.3838498      2.2406335      50218.233      36.893836      36.893836      36.893836    
    184000   0.39976902    -7.9855192     -7.3858742      2.2565711      50218.233      36.893836      36.893836      36.893836    
    185000   0.40102896    -7.9873744     -7.3858396      2.2473771      50218.233      36.893836      36.893836      36.893836    
    186000   0.4001672     -7.9883892     -7.388147       2.2401475      50218.233      36.893836      36.893836      36.893836    
    187000   0.40161882    -7.9874825     -7.3850628      2.2465387      50218.233      36.893836      36.893836      36.893836    
    188000   0.39958407    -7.9868981     -7.3875305      2.2450676      50218.233      36.893836      36.893836      36.893836    
    189000   0.40141123    -7.9883752     -7.3862669      2.2360824      50218.233      36.893836      36.893836      36.893836    
    190000   0.39985641    -7.9889863     -7.3892102      2.2245151      50218.233      36.893836      36.893836      36.893836    
    191000   0.39837656    -7.9870299     -7.3894736      2.2388988      50218.233      36.893836      36.893836      36.893836    
    192000   0.40025807    -7.9894069     -7.3890283      2.2267284      50218.233      36.893836      36.893836      36.893836    
    193000   0.39986712    -7.9915955     -7.3918034      2.2071336      50218.233      36.893836      36.893836      36.893836    
    194000   0.40001721    -7.9880192     -7.388002       2.2414018      50218.233      36.893836      36.893836      36.893836    
    195000   0.39827563    -7.9910596     -7.3936546      2.2077231      50218.233      36.893836      36.893836      36.893836    
    196000   0.3978916     -7.9915722     -7.3947433      2.2053061      50218.233      36.893836      36.893836      36.893836    
    197000   0.40010974    -7.9874732     -7.3873171      2.2322284      50218.233      36.893836      36.893836      36.893836    
    198000   0.39990974    -7.9846795     -7.3848235      2.2648987      50218.233      36.893836      36.893836      36.893836    
    199000   0.39760265    -7.9857117     -7.3893162      2.2459515      50218.233      36.893836      36.893836      36.893836    
    200000   0.40043952    -7.9886747     -7.388024       2.2311001      50218.233      36.893836      36.893836      36.893836    
    201000   0.39861515    -7.9897154     -7.3918012      2.2240311      50218.233      36.893836      36.893836      36.893836    
    202000   0.40209543    -7.9891912     -7.3860567      2.2312279      50218.233      36.893836      36.893836      36.893836    
    203000   0.40067387    -7.9906813     -7.389679       2.2195231      50218.233      36.893836      36.893836      36.893836    
    204000   0.40001694    -7.9809884     -7.3809715      2.2932954      50218.233      36.893836      36.893836      36.893836    
    205000   0.40055762    -7.9890718     -7.3882439      2.2297845      50218.233      36.893836      36.893836      36.893836    
    206000   0.4010845     -7.9878524     -7.3862342      2.2270226      50218.233      36.893836      36.893836      36.893836    
    207000   0.39767595    -7.9830751     -7.3865697      2.2646237      50218.233      36.893836      36.893836      36.893836    
    208000   0.39918234    -7.9892467     -7.3904817      2.2230015      50218.233      36.893836      36.893836      36.893836    
    209000   0.40070051    -7.9893634     -7.3883211      2.2087007      50218.233      36.893836      36.893836      36.893836    
    210000   0.40002196    -7.989177      -7.3891526      2.2374948      50218.233      36.893836      36.893836      36.893836    
    211000   0.39966839    -7.9861028     -7.3866087      2.2508179      50218.233      36.893836      36.893836      36.893836    
    212000   0.4014453     -7.9897327     -7.3875734      2.2238012      50218.233      36.893836      36.893836      36.893836    
    213000   0.3994091     -7.9897021     -7.390597       2.2233057      50218.233      36.893836      36.893836      36.893836    
    214000   0.39927592    -7.990561      -7.3916557      2.2246026      50218.233      36.893836      36.893836      36.893836    
    215000   0.39831305    -7.9878505     -7.3903895      2.252843       50218.233      36.893836      36.893836      36.893836    
    216000   0.398541      -7.9889826     -7.3911796      2.2297038      50218.233      36.893836      36.893836      36.893836    
    217000   0.39772857    -7.9883045     -7.3917201      2.24323        50218.233      36.893836      36.893836      36.893836    
    218000   0.40072674    -7.9891292     -7.3880477      2.2222817      50218.233      36.893836      36.893836      36.893836    
    219000   0.40124087    -7.9872886     -7.3854358      2.2421168      50218.233      36.893836      36.893836      36.893836    
    220000   0.39912816    -7.9881687     -7.389485       2.2377089      50218.233      36.893836      36.893836      36.893836    
    221000   0.39953654    -7.9903721     -7.3910758      2.2152991      50218.233      36.893836      36.893836      36.893836    
    222000   0.39940065    -7.9897522     -7.3906597      2.2265208      50218.233      36.893836      36.893836      36.893836    
    223000   0.4006525     -7.9880844     -7.3871142      2.2357744      50218.233      36.893836      36.893836      36.893836    
    224000   0.40021698    -7.9869213     -7.3866044      2.2431999      50218.233      36.893836      36.893836      36.893836    
    225000   0.40008629    -7.9858852     -7.3857643      2.2542088      50218.233      36.893836      36.893836      36.893836    
    226000   0.39598062    -7.9820517     -7.3880892      2.2771217      50218.233      36.893836      36.893836      36.893836    
    227000   0.40091712    -7.9895029     -7.3881358      2.2293769      50218.233      36.893836      36.893836      36.893836    
    228000   0.39908192    -7.9856755     -7.3870611      2.2556407      50218.233      36.893836      36.893836      36.893836    
    229000   0.39891049    -7.9887205     -7.3903633      2.2306979      50218.233      36.893836      36.893836      36.893836    
    230000   0.4008689     -7.9857557     -7.3844609      2.2557324      50218.233      36.893836      36.893836      36.893836    
    231000   0.40057952    -7.9865018     -7.3856411      2.2494651      50218.233      36.893836      36.893836      36.893836    
    232000   0.39995826    -7.9895054     -7.3895765      2.2247547      50218.233      36.893836      36.893836      36.893836    
    233000   0.40195348    -7.985471      -7.3825494      2.2644872      50218.233      36.893836      36.893836      36.893836    
    234000   0.40050213    -7.9878605     -7.3871159      2.2409254      50218.233      36.893836      36.893836      36.893836    
    235000   0.39933951    -7.9892494     -7.3902487      2.2292602      50218.233      36.893836      36.893836      36.893836    
    236000   0.39933035    -7.9882387     -7.3892517      2.2373048      50218.233      36.893836      36.893836      36.893836    
    237000   0.39880467    -7.9881274     -7.3899289      2.2440124      50218.233      36.893836      36.893836      36.893836    
    238000   0.40213858    -7.989005      -7.3858057      2.23668        50218.233      36.893836      36.893836      36.893836    
    239000   0.40077749    -7.9862147     -7.3850571      2.2552135      50218.233      36.893836      36.893836      36.893836    
    240000   0.39852788    -7.9831139     -7.3853306      2.2718954      50218.233      36.893836      36.893836      36.893836    
    241000   0.39858551    -7.9854153     -7.3875456      2.2490921      50218.233      36.893836      36.893836      36.893836    
    242000   0.39855932    -7.9864826     -7.3886521      2.2437684      50218.233      36.893836      36.893836      36.893836    
    243000   0.40057493    -7.9834612     -7.3826074      2.2709371      50218.233      36.893836      36.893836      36.893836    
    244000   0.40055533    -7.990258      -7.3894336      2.2176981      50218.233      36.893836      36.893836      36.893836    
    245000   0.40007261    -7.9892788     -7.3891784      2.2244855      50218.233      36.893836      36.893836      36.893836    
    246000   0.40036854    -7.9902731     -7.3897288      2.2252108      50218.233      36.893836      36.893836      36.893836    
    247000   0.39835105    -7.9886191     -7.391101       2.2337913      50218.233      36.893836      36.893836      36.893836    
    248000   0.39873582    -7.9894201     -7.3913248      2.2206153      50218.233      36.893836      36.893836      36.893836    
    249000   0.39899592    -7.9897978     -7.3913124      2.2248149      50218.233      36.893836      36.893836      36.893836    
    250000   0.39833903    -7.9891553     -7.3916552      2.222239       50218.233      36.893836      36.893836      36.893836    
    251000   0.39937967    -7.9897532     -7.3906922      2.2165799      50218.233      36.893836      36.893836      36.893836    
    252000   0.39901232    -7.9885432     -7.3900333      2.2215866      50218.233      36.893836      36.893836      36.893836    
    253000   0.40037766    -7.986813      -7.386255       2.2563072      50218.233      36.893836      36.893836      36.893836    
    254000   0.39775809    -7.9888322     -7.3922036      2.2268485      50218.233      36.893836      36.893836      36.893836    
    255000   0.39965449    -7.9889398     -7.3894666      2.2335515      50218.233      36.893836      36.893836      36.893836    
    256000   0.3994897     -7.9882636     -7.3890376      2.228927       50218.233      36.893836      36.893836      36.893836    
    257000   0.39991908    -7.991208      -7.3913379      2.2134564      50218.233      36.893836      36.893836      36.893836    
    258000   0.39805144    -7.9889097     -7.391841       2.2303786      50218.233      36.893836      36.893836      36.893836    
    259000   0.39862227    -7.9869494     -7.3890245      2.2414553      50218.233      36.893836      36.893836      36.893836    
    260000   0.39871774    -7.9879155     -7.3898474      2.2400901      50218.233      36.893836      36.893836      36.893836    
    261000   0.39936644    -7.987661      -7.3886199      2.2327817      50218.233      36.893836      36.893836      36.893836    
    262000   0.40018922    -7.9885984     -7.3883232      2.2216038      50218.233      36.893836      36.893836      36.893836    
    263000   0.40019594    -7.9881115     -7.3878262      2.2375647      50218.233      36.893836      36.893836      36.893836    
    264000   0.39976968    -7.9880137     -7.3883677      2.2389379      50218.233      36.893836      36.893836      36.893836    
    265000   0.39890301    -7.9887199     -7.3903739      2.2282856      50218.233      36.893836      36.893836      36.893836    
    266000   0.39889323    -7.9863572     -7.3880259      2.2509014      50218.233      36.893836      36.893836      36.893836    
    267000   0.40032959    -7.9890911     -7.3886052      2.2303203      50218.233      36.893836      36.893836      36.893836    
    268000   0.40136099    -7.9872547     -7.3852218      2.2440547      50218.233      36.893836      36.893836      36.893836    
    269000   0.39905139    -7.9883967     -7.3898282      2.2328559      50218.233      36.893836      36.893836      36.893836    
    270000   0.39951819    -7.9847279     -7.3854592      2.2622654      50218.233      36.893836      36.893836      36.893836    
    271000   0.39837353    -7.9883777     -7.3908259      2.2167734      50218.233      36.893836      36.893836      36.893836    
    272000   0.39773809    -7.9881227     -7.391524       2.2286414      50218.233      36.893836      36.893836      36.893836    
    273000   0.40038678    -7.9874741     -7.3869024      2.2457615      50218.233      36.893836      36.893836      36.893836    
    274000   0.40242873    -7.9871356     -7.3835011      2.2396055      50218.233      36.893836      36.893836      36.893836    
    275000   0.39954906    -7.986538      -7.3872229      2.2469546      50218.233      36.893836      36.893836      36.893836    
    276000   0.39794034    -7.9871979     -7.3902959      2.232201       50218.233      36.893836      36.893836      36.893836    
    277000   0.40056405    -7.9864238     -7.3855863      2.2545353      50218.233      36.893836      36.893836      36.893836    
    278000   0.40065023    -7.9872524     -7.3862856      2.2432021      50218.233      36.893836      36.893836      36.893836    
    279000   0.39984703    -7.9852016     -7.3854396      2.251486       50218.233      36.893836      36.893836      36.893836    
    280000   0.39988518    -7.9881691     -7.3883498      2.2259438      50218.233      36.893836      36.893836      36.893836    
    281000   0.39856043    -7.9882951     -7.390463       2.2345077      50218.233      36.893836      36.893836      36.893836    
    282000   0.39943073    -7.9869659     -7.3878283      2.2427932      50218.233      36.893836      36.893836      36.893836    
    283000   0.39924528    -7.9866133     -7.3877539      2.2428983      50218.233      36.893836      36.893836      36.893836    
    284000   0.4000599     -7.9889892     -7.3889079      2.2353006      50218.233      36.893836      36.893836      36.893836    
    285000   0.39885154    -7.9904443     -7.3921755      2.2231388      50218.233      36.893836      36.893836      36.893836    
    286000   0.40198481    -7.9899395     -7.3869708      2.225277       50218.233      36.893836      36.893836      36.893836    
    287000   0.40028927    -7.9840836     -7.3836583      2.263519       50218.233      36.893836      36.893836      36.893836    
    288000   0.39782749    -7.9870056     -7.3902728      2.2334127      50218.233      36.893836      36.893836      36.893836    
    289000   0.39914659    -7.9877024     -7.388991       2.2517476      50218.233      36.893836      36.893836      36.893836    
    290000   0.40176114    -7.9903394     -7.3877063      2.2271502      50218.233      36.893836      36.893836      36.893836    
    291000   0.39973627    -7.9898402     -7.3902444      2.2175375      50218.233      36.893836      36.893836      36.893836    
    292000   0.39897718    -7.98859       -7.3901327      2.2255327      50218.233      36.893836      36.893836      36.893836    
    293000   0.40065886    -7.9890804     -7.3881007      2.2291433      50218.233      36.893836      36.893836      36.893836    
    294000   0.40007484    -7.9878796     -7.3877759      2.2382955      50218.233      36.893836      36.893836      36.893836    
    295000   0.39939163    -7.9885579     -7.389479       2.2307129      50218.233      36.893836      36.893836      36.893836    
    296000   0.39990755    -7.9886338     -7.3887811      2.2381068      50218.233      36.893836      36.893836      36.893836    
    297000   0.40035275    -7.9875554     -7.3870348      2.2419322      50218.233      36.893836      36.893836      36.893836    
    298000   0.39970862    -7.9890356     -7.3894812      2.235524       50218.233      36.893836      36.893836      36.893836    
    299000   0.40028847    -7.9893954     -7.3889712      2.2293676      50218.233      36.893836      36.893836      36.893836    
    300000   0.39998517    -7.9892521     -7.3892829      2.2253903      50218.233      36.893836      36.893836      36.893836    
    301000   0.4024744     -7.9870194     -7.3833164      2.2462765      50218.233      36.893836      36.893836      36.893836    
    302000   0.39941448    -7.9898896     -7.3907765      2.2288046      50218.233      36.893836      36.893836      36.893836    
    303000   0.40255753    -7.9850713     -7.3812436      2.2613623      50218.233      36.893836      36.893836      36.893836    
    304000   0.39989167    -7.990653      -7.3908241      2.2129238      50218.233      36.893836      36.893836      36.893836    
    305000   0.39849283    -7.9866325     -7.3889018      2.2443408      50218.233      36.893836      36.893836      36.893836    
    306000   0.40039249    -7.9886656     -7.3880854      2.2364727      50218.233      36.893836      36.893836      36.893836    
    307000   0.39566971    -7.9872198     -7.3937236      2.2367214      50218.233      36.893836      36.893836      36.893836    
    308000   0.3998143     -7.986628      -7.3869151      2.2553765      50218.233      36.893836      36.893836      36.893836    
    309000   0.4034436     -7.9863696     -7.3812128      2.2579468      50218.233      36.893836      36.893836      36.893836    
    310000   0.39741421    -7.9871002     -7.3909874      2.2417012      50218.233      36.893836      36.893836      36.893836    
    311000   0.39824076    -7.987615      -7.3902623      2.240337       50218.233      36.893836      36.893836      36.893836    
    312000   0.40109317    -7.9874208     -7.3857896      2.2438789      50218.233      36.893836      36.893836      36.893836    
    313000   0.40151091    -7.9881327     -7.3858749      2.2348981      50218.233      36.893836      36.893836      36.893836    
    314000   0.40170445    -7.9889127     -7.3863646      2.2232797      50218.233      36.893836      36.893836      36.893836    
    315000   0.39993272    -7.9869873     -7.3870968      2.2446685      50218.233      36.893836      36.893836      36.893836    
    316000   0.39795093    -7.9865141     -7.3895962      2.2353028      50218.233      36.893836      36.893836      36.893836    
    317000   0.40128896    -7.9902137     -7.3882889      2.2358833      50218.233      36.893836      36.893836      36.893836    
    318000   0.39947866    -7.9868595     -7.3876501      2.2411888      50218.233      36.893836      36.893836      36.893836    
    319000   0.39867497    -7.9895753     -7.3915714      2.2241507      50218.233      36.893836      36.893836      36.893836    
    320000   0.40145191    -7.9867484     -7.384579       2.2419209      50218.233      36.893836      36.893836      36.893836    
    321000   0.40057234    -7.9887242     -7.3878742      2.2319306      50218.233      36.893836      36.893836      36.893836    
    322000   0.39979031    -7.9857598     -7.3860829      2.2548074      50218.233      36.893836      36.893836      36.893836    
    323000   0.39972092    -7.9892966     -7.3897238      2.2293158      50218.233      36.893836      36.893836      36.893836    
    324000   0.39977264    -7.9882249     -7.3885745      2.2367413      50218.233      36.893836      36.893836      36.893836    
    325000   0.39799529    -7.9870715     -7.390087       2.2344167      50218.233      36.893836      36.893836      36.893836    
    326000   0.40092146    -7.9834456     -7.382072       2.276615       50218.233      36.893836      36.893836      36.893836    
    327000   0.39645136    -7.9911703     -7.3965017      2.2065954      50218.233      36.893836      36.893836      36.893836    
    328000   0.39996128    -7.9878192     -7.3878859      2.2334767      50218.233      36.893836      36.893836      36.893836    
    329000   0.40277172    -7.9861712     -7.3820223      2.251349       50218.233      36.893836      36.893836      36.893836    
    330000   0.40131315    -7.9902318     -7.3882706      2.225907       50218.233      36.893836      36.893836      36.893836    
    331000   0.3990055     -7.9858421     -7.3873424      2.2479733      50218.233      36.893836      36.893836      36.893836    
    332000   0.3993766     -7.9877551     -7.3886987      2.2387251      50218.233      36.893836      36.893836      36.893836    
    333000   0.40081955    -7.9879785     -7.3867577      2.2301217      50218.233      36.893836      36.893836      36.893836    
    334000   0.4000671     -7.99031       -7.3902179      2.2127378      50218.233      36.893836      36.893836      36.893836    
    335000   0.40126551    -7.9870463     -7.3851566      2.2390912      50218.233      36.893836      36.893836      36.893836    
    336000   0.40085858    -7.9903264     -7.3890471      2.2092463      50218.233      36.893836      36.893836      36.893836    
    337000   0.39884006    -7.9913651     -7.3931136      2.2103577      50218.233      36.893836      36.893836      36.893836    
    338000   0.40171329    -7.9895835     -7.3870221      2.232739       50218.233      36.893836      36.893836      36.893836    
    339000   0.40007893    -7.9899882     -7.3898783      2.2238427      50218.233      36.893836      36.893836      36.893836    
    340000   0.39757329    -7.9880894     -7.391738       2.239969       50218.233      36.893836      36.893836      36.893836    
    341000   0.39860035    -7.9875851     -7.3896931      2.2313904      50218.233      36.893836      36.893836      36.893836    
    342000   0.40018971    -7.9882411     -7.3879651      2.2459694      50218.233      36.893836      36.893836      36.893836    
    343000   0.39954397    -7.9890988     -7.3897913      2.2295356      50218.233      36.893836      36.893836      36.893836    
    344000   0.40030739    -7.9872904     -7.3868379      2.2427043      50218.233      36.893836      36.893836      36.893836    
    345000   0.39907025    -7.9852172     -7.3866204      2.2571664      50218.233      36.893836      36.893836      36.893836    
    346000   0.40036703    -7.9880108     -7.3874688      2.2295075      50218.233      36.893836      36.893836      36.893836    
    347000   0.40089877    -7.9876848     -7.3863452      2.235701       50218.233      36.893836      36.893836      36.893836    
    348000   0.40048349    -7.9898353     -7.3891186      2.220747       50218.233      36.893836      36.893836      36.893836    
    349000   0.40039742    -7.9879405     -7.3873529      2.2394487      50218.233      36.893836      36.893836      36.893836    
    350000   0.40057886    -7.986091      -7.3852312      2.2507351      50218.233      36.893836      36.893836      36.893836    
    351000   0.40043441    -7.9893222     -7.3886791      2.2344026      50218.233      36.893836      36.893836      36.893836    
    352000   0.40012224    -7.9909718     -7.390797       2.2173752      50218.233      36.893836      36.893836      36.893836    
    353000   0.39919536    -7.9879353     -7.3891507      2.237019       50218.233      36.893836      36.893836      36.893836    
    354000   0.4005463     -7.9905766     -7.3897657      2.219919       50218.233      36.893836      36.893836      36.893836    
    355000   0.40096989    -7.9863068     -7.3848606      2.2443493      50218.233      36.893836      36.893836      36.893836    
    356000   0.39870948    -7.9903819     -7.3923261      2.2153114      50218.233      36.893836      36.893836      36.893836    
    357000   0.39966128    -7.9872792     -7.3877958      2.2377654      50218.233      36.893836      36.893836      36.893836    
    358000   0.40205134    -7.9872057     -7.3841373      2.2397181      50218.233      36.893836      36.893836      36.893836    
    359000   0.39929464    -7.988266      -7.3893325      2.243939       50218.233      36.893836      36.893836      36.893836    
    360000   0.401691      -7.9861367     -7.3836088      2.265019       50218.233      36.893836      36.893836      36.893836    
    361000   0.3991601     -7.9862981     -7.3875664      2.245449       50218.233      36.893836      36.893836      36.893836    
    362000   0.39909354    -7.9896976     -7.3910658      2.2216958      50218.233      36.893836      36.893836      36.893836    
    363000   0.39827934    -7.9857271     -7.3883165      2.2515071      50218.233      36.893836      36.893836      36.893836    
    364000   0.40112188    -7.9850414     -7.3833671      2.2535802      50218.233      36.893836      36.893836      36.893836    
    365000   0.40007589    -7.9874164     -7.3873111      2.2424769      50218.233      36.893836      36.893836      36.893836    
    366000   0.40021743    -7.9858121     -7.3854945      2.2565909      50218.233      36.893836      36.893836      36.893836    
    367000   0.39888994    -7.9881002     -7.3897738      2.232316       50218.233      36.893836      36.893836      36.893836    
    368000   0.39812802    -7.9944582     -7.3972747      2.1834264      50218.233      36.893836      36.893836      36.893836    
    369000   0.401906      -7.9885982     -7.3857478      2.2335976      50218.233      36.893836      36.893836      36.893836    
    370000   0.40020269    -7.9915562     -7.3912607      2.210618       50218.233      36.893836      36.893836      36.893836    
    371000   0.39848451    -7.9875458     -7.3898275      2.2444437      50218.233      36.893836      36.893836      36.893836    
    372000   0.40019072    -7.9879204     -7.3876429      2.2365588      50218.233      36.893836      36.893836      36.893836    
    373000   0.39963632    -7.9845393     -7.3850933      2.2645674      50218.233      36.893836      36.893836      36.893836    
    374000   0.39888152    -7.988523      -7.3902093      2.2301815      50218.233      36.893836      36.893836      36.893836    
    375000   0.40186277    -7.990117      -7.3873314      2.217801       50218.233      36.893836      36.893836      36.893836    
    376000   0.39878356    -7.9841049     -7.3859381      2.2509104      50218.233      36.893836      36.893836      36.893836    
    377000   0.4003659     -7.9845732     -7.3840329      2.2612987      50218.233      36.893836      36.893836      36.893836    
    378000   0.39938383    -7.9842427     -7.3851755      2.2611138      50218.233      36.893836      36.893836      36.893836    
    379000   0.39969408    -7.9885831     -7.3890505      2.2217536      50218.233      36.893836      36.893836      36.893836    
    380000   0.4002811     -7.9886783     -7.3882652      2.2276741      50218.233      36.893836      36.893836      36.893836    
    381000   0.39928226    -7.9866422     -7.3877273      2.2497632      50218.233      36.893836      36.893836      36.893836    
    382000   0.40247634    -7.9867283     -7.3830224      2.2594013      50218.233      36.893836      36.893836      36.893836    
    383000   0.39841165    -7.9882726     -7.3906636      2.2358365      50218.233      36.893836      36.893836      36.893836    
    384000   0.40004859    -7.9828505     -7.3827862      2.2767416      50218.233      36.893836      36.893836      36.893836    
    385000   0.39871092    -7.9870348     -7.3889769      2.237939       50218.233      36.893836      36.893836      36.893836    
    386000   0.4011223     -7.9884076     -7.3867327      2.2444997      50218.233      36.893836      36.893836      36.893836    
    387000   0.39664068    -7.9879592     -7.3930067      2.2374338      50218.233      36.893836      36.893836      36.893836    
    388000   0.40088298    -7.9882587     -7.3869428      2.2335817      50218.233      36.893836      36.893836      36.893836    
    389000   0.39917957    -7.9873379     -7.3885771      2.2279457      50218.233      36.893836      36.893836      36.893836    
    390000   0.39857503    -7.9903024     -7.3924484      2.219477       50218.233      36.893836      36.893836      36.893836    
    391000   0.39992505    -7.9865683     -7.3866892      2.2483457      50218.233      36.893836      36.893836      36.893836    
    392000   0.40023875    -7.9905207     -7.3901711      2.2190627      50218.233      36.893836      36.893836      36.893836    
    393000   0.40223349    -7.990657      -7.3873154      2.2196661      50218.233      36.893836      36.893836      36.893836    
    394000   0.4008569     -7.9863129     -7.3850362      2.2571941      50218.233      36.893836      36.893836      36.893836    
    395000   0.39854484    -7.988968      -7.3911593      2.2314272      50218.233      36.893836      36.893836      36.893836    
    396000   0.3992188     -7.9920267     -7.393207       2.2064792      50218.233      36.893836      36.893836      36.893836    
    397000   0.39958475    -7.9878549     -7.3884862      2.2288078      50218.233      36.893836      36.893836      36.893836    
    398000   0.39850244    -7.9900512     -7.3923061      2.2249934      50218.233      36.893836      36.893836      36.893836    
    399000   0.39800473    -7.9913722     -7.3943736      2.2101514      50218.233      36.893836      36.893836      36.893836    
    400000   0.40164101    -7.9875866     -7.3851336      2.2451592      50218.233      36.893836      36.893836      36.893836    
    401000   0.39956481    -7.9900143     -7.3906756      2.2218995      50218.233      36.893836      36.893836      36.893836    
    402000   0.39966123    -7.9870011     -7.3875178      2.2391485      50218.233      36.893836      36.893836      36.893836    
    403000   0.39975108    -7.9892783     -7.3896602      2.2267706      50218.233      36.893836      36.893836      36.893836    
    404000   0.39883522    -7.9886369     -7.3903926      2.2209807      50218.233      36.893836      36.893836      36.893836    
    405000   0.40173567    -7.9903876     -7.3877926      2.2133686      50218.233      36.893836      36.893836      36.893836    
    406000   0.40143244    -7.9863571     -7.384217       2.2489973      50218.233      36.893836      36.893836      36.893836    
    407000   0.4005825     -7.987673      -7.3868078      2.233389       50218.233      36.893836      36.893836      36.893836    
    408000   0.39927912    -7.9868561     -7.387946       2.2427659      50218.233      36.893836      36.893836      36.893836    
    409000   0.39951033    -7.9845128     -7.3852558      2.2640542      50218.233      36.893836      36.893836      36.893836    
    410000   0.39852497    -7.9886217     -7.3908427      2.2200711      50218.233      36.893836      36.893836      36.893836    
    411000   0.40143626    -7.9864018     -7.384256       2.2467429      50218.233      36.893836      36.893836      36.893836    
    412000   0.40128657    -7.9868848     -7.3849635      2.2458931      50218.233      36.893836      36.893836      36.893836    
    413000   0.39968658    -7.9874797     -7.3879584      2.2382878      50218.233      36.893836      36.893836      36.893836    
    414000   0.40145396    -7.9888715     -7.3866991      2.2310128      50218.233      36.893836      36.893836      36.893836    
    415000   0.39808606    -7.9885999     -7.3914793      2.2297442      50218.233      36.893836      36.893836      36.893836    
    416000   0.40257733    -7.9861917     -7.3823343      2.2550465      50218.233      36.893836      36.893836      36.893836    
    417000   0.40126163    -7.9887303     -7.3868464      2.2301411      50218.233      36.893836      36.893836      36.893836    
    418000   0.39922526    -7.9908853     -7.392056       2.2229374      50218.233      36.893836      36.893836      36.893836    
    419000   0.39991778    -7.9900254     -7.3901573      2.2227353      50218.233      36.893836      36.893836      36.893836    
    420000   0.39952029    -7.9874739     -7.388202       2.2429143      50218.233      36.893836      36.893836      36.893836    
    421000   0.39999233    -7.9871474     -7.3871675      2.2454091      50218.233      36.893836      36.893836      36.893836    
    422000   0.39858375    -7.9879613     -7.3900941      2.2356083      50218.233      36.893836      36.893836      36.893836    
    423000   0.39994787    -7.9905226     -7.3906093      2.2243939      50218.233      36.893836      36.893836      36.893836    
    424000   0.39981347    -7.9842354     -7.3845238      2.267504       50218.233      36.893836      36.893836      36.893836    
    425000   0.39990173    -7.985339      -7.3854949      2.2654368      50218.233      36.893836      36.893836      36.893836    
    426000   0.39819381    -7.9869742     -7.389692       2.2417303      50218.233      36.893836      36.893836      36.893836    
    427000   0.39944141    -7.9852924     -7.3861388      2.2596115      50218.233      36.893836      36.893836      36.893836    
    428000   0.39960639    -7.9838147     -7.3844137      2.2705398      50218.233      36.893836      36.893836      36.893836    
    429000   0.40140489    -7.9906282     -7.3885294      2.217869       50218.233      36.893836      36.893836      36.893836    
    430000   0.40128145    -7.9891455     -7.3872319      2.2282417      50218.233      36.893836      36.893836      36.893836    
    431000   0.3998881     -7.9848227     -7.3849991      2.2615785      50218.233      36.893836      36.893836      36.893836    
    432000   0.40071635    -7.9867234     -7.3856574      2.2480529      50218.233      36.893836      36.893836      36.893836    
    433000   0.40140922    -7.9881743     -7.3860691      2.237769       50218.233      36.893836      36.893836      36.893836    
    434000   0.39928238    -7.9855372     -7.3866221      2.2439629      50218.233      36.893836      36.893836      36.893836    
    435000   0.39954797    -7.9872633     -7.3879498      2.2425239      50218.233      36.893836      36.893836      36.893836    
    436000   0.39856627    -7.9871435     -7.3893026      2.2365226      50218.233      36.893836      36.893836      36.893836    
    437000   0.40004975    -7.9888134     -7.3887473      2.2301781      50218.233      36.893836      36.893836      36.893836    
    438000   0.39828539    -7.9860369     -7.3886173      2.2500807      50218.233      36.893836      36.893836      36.893836    
    439000   0.40004048    -7.9872707     -7.3872186      2.2424299      50218.233      36.893836      36.893836      36.893836    
    440000   0.39895851    -7.9887319     -7.3903027      2.2284074      50218.233      36.893836      36.893836      36.893836    
    441000   0.40057768    -7.986462      -7.385604       2.2515019      50218.233      36.893836      36.893836      36.893836    
    442000   0.39991192    -7.9912934     -7.3914341      2.2135305      50218.233      36.893836      36.893836      36.893836    
    443000   0.39991441    -7.9881609     -7.3882978      2.2295876      50218.233      36.893836      36.893836      36.893836    
    444000   0.40169141    -7.9890557     -7.3865272      2.2299196      50218.233      36.893836      36.893836      36.893836    
    445000   0.39841302    -7.991089      -7.393478       2.2155385      50218.233      36.893836      36.893836      36.893836    
    446000   0.39961896    -7.9868977     -7.3874778      2.2437592      50218.233      36.893836      36.893836      36.893836    
    447000   0.39748424    -7.9882486     -7.3920308      2.2314771      50218.233      36.893836      36.893836      36.893836    
    448000   0.40248757    -7.9858847     -7.3821619      2.2546794      50218.233      36.893836      36.893836      36.893836    
    449000   0.40142477    -7.9912987     -7.3891702      2.2177143      50218.233      36.893836      36.893836      36.893836    
    450000   0.39972604    -7.9862063     -7.3866257      2.2608967      50218.233      36.893836      36.893836      36.893836    
    451000   0.40080861    -7.9870661     -7.3858617      2.2379783      50218.233      36.893836      36.893836      36.893836    
    452000   0.40149571    -7.9890838     -7.3868488      2.2306696      50218.233      36.893836      36.893836      36.893836    
    453000   0.4018645     -7.9873958     -7.3846077      2.2511184      50218.233      36.893836      36.893836      36.893836    
    454000   0.40118096    -7.98718       -7.3854171      2.2535327      50218.233      36.893836      36.893836      36.893836    
    455000   0.40304281    -7.9883016     -7.3837459      2.242443       50218.233      36.893836      36.893836      36.893836    
    456000   0.40253363    -7.9909548     -7.3871629      2.2100853      50218.233      36.893836      36.893836      36.893836    
    457000   0.40247454    -7.9857533     -7.3820501      2.2639262      50218.233      36.893836      36.893836      36.893836    
    458000   0.40038887    -7.9913943     -7.3908196      2.2151633      50218.233      36.893836      36.893836      36.893836    
    459000   0.39829133    -7.9891654     -7.3917369      2.2297507      50218.233      36.893836      36.893836      36.893836    
    460000   0.40199812    -7.9903789     -7.3873903      2.2284815      50218.233      36.893836      36.893836      36.893836    
    461000   0.39876308    -7.9894231     -7.391287       2.2260667      50218.233      36.893836      36.893836      36.893836    
    462000   0.39721574    -7.9874552     -7.3916401      2.2368047      50218.233      36.893836      36.893836      36.893836    
    463000   0.39816418    -7.9842096     -7.3869718      2.2659746      50218.233      36.893836      36.893836      36.893836    
    464000   0.39941473    -7.9912453     -7.3921317      2.2169498      50218.233      36.893836      36.893836      36.893836    
    465000   0.39913797    -7.9853513     -7.3866528      2.2538521      50218.233      36.893836      36.893836      36.893836    
    466000   0.40279439    -7.9877511     -7.3835681      2.2412844      50218.233      36.893836      36.893836      36.893836    
    467000   0.40011008    -7.9838893     -7.3837328      2.2719544      50218.233      36.893836      36.893836      36.893836    
    468000   0.40084925    -7.9876881     -7.3864227      2.2354445      50218.233      36.893836      36.893836      36.893836    
    469000   0.3990035     -7.9880947     -7.389598       2.2234626      50218.233      36.893836      36.893836      36.893836    
    470000   0.39966653    -7.9840289     -7.3845376      2.2616168      50218.233      36.893836      36.893836      36.893836    
    471000   0.39997899    -7.9858159     -7.385856       2.2504766      50218.233      36.893836      36.893836      36.893836    
    472000   0.40408768    -7.9865816     -7.3804587      2.2552625      50218.233      36.893836      36.893836      36.893836    
    473000   0.39910648    -7.9852099     -7.3865587      2.2614973      50218.233      36.893836      36.893836      36.893836    
    474000   0.40299032    -7.9869645     -7.3824876      2.2473316      50218.233      36.893836      36.893836      36.893836    
    475000   0.40003872    -7.9877347     -7.3876851      2.2323829      50218.233      36.893836      36.893836      36.893836    
    476000   0.39995657    -7.9861663     -7.38624        2.2538969      50218.233      36.893836      36.893836      36.893836    
    477000   0.39897396    -7.9872211     -7.3887687      2.2429057      50218.233      36.893836      36.893836      36.893836    
    478000   0.39847016    -7.9860714     -7.3883746      2.2495091      50218.233      36.893836      36.893836      36.893836    
    479000   0.39930515    -7.9854001     -7.3864508      2.25217        50218.233      36.893836      36.893836      36.893836    
    480000   0.40064159    -7.9850677     -7.3841139      2.2534694      50218.233      36.893836      36.893836      36.893836    
    481000   0.39877493    -7.9873093     -7.3891554      2.239442       50218.233      36.893836      36.893836      36.893836    
    482000   0.39976619    -7.9866117     -7.3869709      2.2561868      50218.233      36.893836      36.893836      36.893836    
    483000   0.39854608    -7.9884584     -7.3906478      2.2233865      50218.233      36.893836      36.893836      36.893836    
    484000   0.39870874    -7.9891088     -7.3910542      2.2313135      50218.233      36.893836      36.893836      36.893836    
    485000   0.39839213    -7.9861569     -7.3885772      2.2555932      50218.233      36.893836      36.893836      36.893836    
    486000   0.40041066    -7.9838527     -7.3832453      2.2656067      50218.233      36.893836      36.893836      36.893836    
    487000   0.40183353    -7.9881995     -7.3854578      2.2406529      50218.233      36.893836      36.893836      36.893836    
    488000   0.39926965    -7.9867591     -7.3878632      2.2410756      50218.233      36.893836      36.893836      36.893836    
    489000   0.39899791    -7.9885378     -7.3900494      2.2233658      50218.233      36.893836      36.893836      36.893836    
    490000   0.40090216    -7.9880406     -7.386696       2.2373419      50218.233      36.893836      36.893836      36.893836    
    491000   0.40053881    -7.9879511     -7.3871515      2.2394414      50218.233      36.893836      36.893836      36.893836    
    492000   0.40184951    -7.989166      -7.3864003      2.2331202      50218.233      36.893836      36.893836      36.893836    
    493000   0.40001174    -7.9871305     -7.3871214      2.2384894      50218.233      36.893836      36.893836      36.893836    
    494000   0.39963362    -7.9885453     -7.3891034      2.2322461      50218.233      36.893836      36.893836      36.893836    
    495000   0.39985765    -7.9884217     -7.3886438      2.2353874      50218.233      36.893836      36.893836      36.893836    
    496000   0.40170601    -7.987058      -7.3845076      2.2432831      50218.233      36.893836      36.893836      36.893836    
    497000   0.40026618    -7.988712      -7.3883213      2.2306601      50218.233      36.893836      36.893836      36.893836    
    498000   0.40182164    -7.9882807     -7.3855568      2.248173       50218.233      36.893836      36.893836      36.893836    
    499000   0.40013909    -7.9877968     -7.3875967      2.2402735      50218.233      36.893836      36.893836      36.893836    
    500000   0.40163031    -7.9904833     -7.3880464      2.2257482      50218.233      36.893836      36.893836      36.893836    
    501000   0.39957873    -7.988262      -7.3889024      2.237955       50218.233      36.893836      36.893836      36.893836    
    502000   0.3998485     -7.988539      -7.3887747      2.231331       50218.233      36.893836      36.893836      36.893836    
    503000   0.39921885    -7.9863555     -7.3875357      2.2459542      50218.233      36.893836      36.893836      36.893836    
    504000   0.39817304    -7.9854691     -7.388218       2.249892       50218.233      36.893836      36.893836      36.893836    
    505000   0.39976912    -7.9875024     -7.3878572      2.2472495      50218.233      36.893836      36.893836      36.893836    
    506000   0.40054409    -7.9871187     -7.3863111      2.2460662      50218.233      36.893836      36.893836      36.893836    
    507000   0.39642053    -7.9921425     -7.3975201      2.2039139      50218.233      36.893836      36.893836      36.893836    
    508000   0.40029245    -7.9867709     -7.3863408      2.243311       50218.233      36.893836      36.893836      36.893836    
    509000   0.4017597     -7.9861255     -7.3834946      2.2570166      50218.233      36.893836      36.893836      36.893836    
    510000   0.39821214    -7.990138      -7.3928283      2.2174896      50218.233      36.893836      36.893836      36.893836    
    511000   0.39999618    -7.9875812     -7.3875954      2.2440227      50218.233      36.893836      36.893836      36.893836    
    512000   0.39953913    -7.9857096     -7.3864094      2.2539205      50218.233      36.893836      36.893836      36.893836    
    513000   0.40055787    -7.9854756     -7.3846474      2.2534066      50218.233      36.893836      36.893836      36.893836    
    514000   0.40176558    -7.9865925     -7.3839527      2.2488841      50218.233      36.893836      36.893836      36.893836    
    515000   0.39871999    -7.9850073     -7.3869359      2.2604442      50218.233      36.893836      36.893836      36.893836    
    516000   0.40101911    -7.9891626     -7.3876425      2.2227856      50218.233      36.893836      36.893836      36.893836    
    517000   0.39874191    -7.9882325     -7.3901281      2.2483911      50218.233      36.893836      36.893836      36.893836    
    518000   0.39994595    -7.9863498     -7.3864394      2.2436459      50218.233      36.893836      36.893836      36.893836    
    519000   0.40004979    -7.9819904     -7.3819242      2.2774225      50218.233      36.893836      36.893836      36.893836    
    520000   0.39886236    -7.9873994     -7.3891144      2.235323       50218.233      36.893836      36.893836      36.893836    
    521000   0.39987851    -7.9890441     -7.3892349      2.2302786      50218.233      36.893836      36.893836      36.893836    
    522000   0.39831212    -7.9899032     -7.3924435      2.2183524      50218.233      36.893836      36.893836      36.893836    
    523000   0.40123107    -7.9853483     -7.3835102      2.2538358      50218.233      36.893836      36.893836      36.893836    
    524000   0.40020842    -7.9864546     -7.3861505      2.2508164      50218.233      36.893836      36.893836      36.893836    
    525000   0.40083972    -7.9871399     -7.3858888      2.248142       50218.233      36.893836      36.893836      36.893836    
    526000   0.39923206    -7.985715      -7.3868754      2.2527893      50218.233      36.893836      36.893836      36.893836    
    527000   0.39951484    -7.9851706     -7.3859069      2.2528996      50218.233      36.893836      36.893836      36.893836    
    528000   0.40093906    -7.9889075     -7.3875075      2.2362925      50218.233      36.893836      36.893836      36.893836    
    529000   0.40125058    -7.9871334     -7.3852661      2.2403624      50218.233      36.893836      36.893836      36.893836    
    530000   0.4013233     -7.9848334     -7.382857       2.2655174      50218.233      36.893836      36.893836      36.893836    
    531000   0.40011695    -7.989716      -7.3895491      2.223252       50218.233      36.893836      36.893836      36.893836    
    532000   0.40184656    -7.9851295     -7.3823683      2.2621376      50218.233      36.893836      36.893836      36.893836    
    533000   0.40097263    -7.9888777     -7.3874273      2.2320255      50218.233      36.893836      36.893836      36.893836    
    534000   0.40254658    -7.9866869     -7.3828756      2.255891       50218.233      36.893836      36.893836      36.893836    
    535000   0.40142416    -7.9869324     -7.3848047      2.2415934      50218.233      36.893836      36.893836      36.893836    
    536000   0.39860366    -7.9875009     -7.3896039      2.2394862      50218.233      36.893836      36.893836      36.893836    
    537000   0.39872579    -7.9902219     -7.3921417      2.2166078      50218.233      36.893836      36.893836      36.893836    
    538000   0.39963538    -7.9918285     -7.392384       2.2078982      50218.233      36.893836      36.893836      36.893836    
    539000   0.3996513     -7.9868654     -7.387397       2.2466458      50218.233      36.893836      36.893836      36.893836    
    540000   0.39820952    -7.9856973     -7.3883915      2.2435543      50218.233      36.893836      36.893836      36.893836    
    541000   0.40081733    -7.9875437     -7.3863262      2.2414121      50218.233      36.893836      36.893836      36.893836    
    542000   0.40163433    -7.9895243     -7.3870814      2.2315335      50218.233      36.893836      36.893836      36.893836    
    543000   0.39846187    -7.9875814     -7.3898971      2.2215108      50218.233      36.893836      36.893836      36.893836    
    544000   0.3993127     -7.9893273     -7.3903668      2.2237795      50218.233      36.893836      36.893836      36.893836    
    545000   0.39810306    -7.9886792     -7.3915331      2.231059       50218.233      36.893836      36.893836      36.893836    
    546000   0.4012876     -7.9864812     -7.3845584      2.2442999      50218.233      36.893836      36.893836      36.893836    
    547000   0.4012459     -7.989922      -7.3880617      2.2245749      50218.233      36.893836      36.893836      36.893836    
    548000   0.3995879     -7.9855469     -7.3861735      2.2608897      50218.233      36.893836      36.893836      36.893836    
    549000   0.40166187    -7.9866784     -7.3841942      2.2476964      50218.233      36.893836      36.893836      36.893836    
    550000   0.40091099    -7.9855705     -7.3842125      2.2567705      50218.233      36.893836      36.893836      36.893836    
    551000   0.40137182    -7.9857333     -7.3836841      2.2530264      50218.233      36.893836      36.893836      36.893836    
    552000   0.3997475     -7.9895378     -7.3899251      2.229363       50218.233      36.893836      36.893836      36.893836    
    553000   0.39758048    -7.9904349     -7.3940727      2.2183288      50218.233      36.893836      36.893836      36.893836    
    554000   0.39994015    -7.9877689     -7.3878672      2.2362433      50218.233      36.893836      36.893836      36.893836    
    555000   0.39922335    -7.986249      -7.3874225      2.2437454      50218.233      36.893836      36.893836      36.893836    
    556000   0.40017775    -7.9864046     -7.3861465      2.2432021      50218.233      36.893836      36.893836      36.893836    
    557000   0.40104433    -7.9855719     -7.384014       2.256672       50218.233      36.893836      36.893836      36.893836    
    558000   0.40036041    -7.9888551     -7.3883231      2.2319609      50218.233      36.893836      36.893836      36.893836    
    559000   0.40004767    -7.9896732     -7.3896102      2.2173487      50218.233      36.893836      36.893836      36.893836    
    560000   0.39982761    -7.9888102     -7.3890773      2.2294273      50218.233      36.893836      36.893836      36.893836    
    561000   0.39811645    -7.9870711     -7.3899049      2.2423965      50218.233      36.893836      36.893836      36.893836    
    562000   0.39850826    -7.9881141     -7.3903602      2.2451133      50218.233      36.893836      36.893836      36.893836    
    563000   0.39890906    -7.9853227     -7.3869676      2.2669175      50218.233      36.893836      36.893836      36.893836    
    564000   0.39894804    -7.9874786     -7.389065       2.2326587      50218.233      36.893836      36.893836      36.893836    
    565000   0.39874637    -7.9857077     -7.3875967      2.2610504      50218.233      36.893836      36.893836      36.893836    
    566000   0.39744539    -7.9865235     -7.3903639      2.2410484      50218.233      36.893836      36.893836      36.893836    
    567000   0.40176861    -7.9872664     -7.384622       2.259802       50218.233      36.893836      36.893836      36.893836    
    568000   0.40208042    -7.9862224     -7.3831104      2.2616979      50218.233      36.893836      36.893836      36.893836    
    569000   0.3972601     -7.9876377     -7.3917561      2.238899       50218.233      36.893836      36.893836      36.893836    
    570000   0.40247712    -7.9843593     -7.3806522      2.262239       50218.233      36.893836      36.893836      36.893836    
    571000   0.40052883    -7.9870936     -7.3863089      2.2438054      50218.233      36.893836      36.893836      36.893836    
    572000   0.399995      -7.9851847     -7.3852007      2.2547919      50218.233      36.893836      36.893836      36.893836    
    573000   0.40257369    -7.986897      -7.3830451      2.2486461      50218.233      36.893836      36.893836      36.893836    
    574000   0.39934617    -7.9860995     -7.3870888      2.2505234      50218.233      36.893836      36.893836      36.893836    
    575000   0.40128531    -7.9868798     -7.3849604      2.248258       50218.233      36.893836      36.893836      36.893836    
    576000   0.39861241    -7.9868283     -7.3889182      2.2411294      50218.233      36.893836      36.893836      36.893836    
    577000   0.39979502    -7.9857622     -7.3860782      2.2550877      50218.233      36.893836      36.893836      36.893836    
    578000   0.3975855     -7.9871121     -7.3907424      2.242841       50218.233      36.893836      36.893836      36.893836    
    579000   0.39809497    -7.9834055     -7.3862715      2.2687594      50218.233      36.893836      36.893836      36.893836    
    580000   0.4009706     -7.9867355     -7.3852882      2.243          50218.233      36.893836      36.893836      36.893836    
    581000   0.40029142    -7.9895992     -7.3891706      2.235671       50218.233      36.893836      36.893836      36.893836    
    582000   0.4001776     -7.9857932     -7.3855354      2.2470675      50218.233      36.893836      36.893836      36.893836    
    583000   0.40185109    -7.9880456     -7.3852775      2.2343522      50218.233      36.893836      36.893836      36.893836    
    584000   0.3998832     -7.9844373     -7.384621       2.2571932      50218.233      36.893836      36.893836      36.893836    
    585000   0.40157655    -7.9872409     -7.3848846      2.2321718      50218.233      36.893836      36.893836      36.893836    
    586000   0.39790247    -7.9841318     -7.3872866      2.2573727      50218.233      36.893836      36.893836      36.893836    
    587000   0.40294175    -7.9854088     -7.3810047      2.2565962      50218.233      36.893836      36.893836      36.893836    
    588000   0.39978081    -7.9876701     -7.3880074      2.2357242      50218.233      36.893836      36.893836      36.893836    
    589000   0.40006668    -7.9880411     -7.3879496      2.2283868      50218.233      36.893836      36.893836      36.893836    
    590000   0.40159766    -7.9875694     -7.3851815      2.237245       50218.233      36.893836      36.893836      36.893836    
    591000   0.40074952    -7.9891486     -7.3880328      2.2205302      50218.233      36.893836      36.893836      36.893836    
    592000   0.40072373    -7.9874639     -7.3863869      2.2340888      50218.233      36.893836      36.893836      36.893836    
    593000   0.39943811    -7.9899962     -7.3908475      2.2108665      50218.233      36.893836      36.893836      36.893836    
    594000   0.40102017    -7.9879378     -7.3864161      2.2384385      50218.233      36.893836      36.893836      36.893836    
    595000   0.40174858    -7.9869579     -7.3843436      2.2382644      50218.233      36.893836      36.893836      36.893836    
    596000   0.40013922    -7.9847731     -7.3845728      2.2536985      50218.233      36.893836      36.893836      36.893836    
    597000   0.39890402    -7.9911842     -7.3928367      2.2112581      50218.233      36.893836      36.893836      36.893836    
    598000   0.40014867    -7.9871792     -7.3869647      2.2414763      50218.233      36.893836      36.893836      36.893836    
    599000   0.40063155    -7.9884627     -7.3875239      2.2306982      50218.233      36.893836      36.893836      36.893836    
    600000   0.40051669    -7.9922295     -7.391463       2.2022409      50218.233      36.893836      36.893836      36.893836    
    601000   0.4010615     -7.9877872     -7.3862035      2.240663       50218.233      36.893836      36.893836      36.893836    
    602000   0.40084343    -7.9916973     -7.3904407      2.2185052      50218.233      36.893836      36.893836      36.893836    
    603000   0.39961748    -7.988793      -7.3893753      2.2415126      50218.233      36.893836      36.893836      36.893836    
    604000   0.39872324    -7.9882336     -7.3901573      2.228015       50218.233      36.893836      36.893836      36.893836    
    605000   0.39999898    -7.9890096     -7.3890196      2.2292205      50218.233      36.893836      36.893836      36.893836    
    606000   0.40111048    -7.9885305     -7.3868733      2.2390744      50218.233      36.893836      36.893836      36.893836    
    607000   0.40067321    -7.9883984     -7.3873972      2.2333242      50218.233      36.893836      36.893836      36.893836    
    608000   0.40139241    -7.9877019     -7.3856218      2.2351902      50218.233      36.893836      36.893836      36.893836    
    609000   0.40002397    -7.9867814     -7.3867539      2.246836       50218.233      36.893836      36.893836      36.893836    
    610000   0.40089262    -7.9878342     -7.3865038      2.2531043      50218.233      36.893836      36.893836      36.893836    
    611000   0.40078092    -7.986255      -7.3850922      2.2583031      50218.233      36.893836      36.893836      36.893836    
    612000   0.39967021    -7.989916      -7.3904192      2.2177328      50218.233      36.893836      36.893836      36.893836    
    613000   0.39856354    -7.9860653     -7.3882285      2.2470671      50218.233      36.893836      36.893836      36.893836    
    614000   0.39986715    -7.9873553     -7.3875631      2.249068       50218.233      36.893836      36.893836      36.893836    
    615000   0.40078071    -7.9853336     -7.3841711      2.2625122      50218.233      36.893836      36.893836      36.893836    
    616000   0.40022701    -7.9854177     -7.3850857      2.2583801      50218.233      36.893836      36.893836      36.893836    
    617000   0.39812177    -7.9900253     -7.3928511      2.2241543      50218.233      36.893836      36.893836      36.893836    
    618000   0.40042142    -7.9881672     -7.3875436      2.2350822      50218.233      36.893836      36.893836      36.893836    
    619000   0.40102175    -7.9862626     -7.3847386      2.247537       50218.233      36.893836      36.893836      36.893836    
    620000   0.40018356    -7.9869246     -7.3866578      2.2519574      50218.233      36.893836      36.893836      36.893836    
    621000   0.39938994    -7.9879973     -7.3889209      2.2435719      50218.233      36.893836      36.893836      36.893836    
    622000   0.40069255    -7.9830146     -7.3819843      2.2847752      50218.233      36.893836      36.893836      36.893836    
    623000   0.4007696     -7.9849791     -7.3838332      2.2570238      50218.233      36.893836      36.893836      36.893836    
    624000   0.39932521    -7.9880602     -7.3890809      2.2369254      50218.233      36.893836      36.893836      36.893836    
    625000   0.39952611    -7.9818973     -7.3826167      2.2734742      50218.233      36.893836      36.893836      36.893836    
    626000   0.40096722    -7.9868667     -7.3854244      2.2431069      50218.233      36.893836      36.893836      36.893836    
    627000   0.3983426     -7.9897485     -7.3922431      2.222822       50218.233      36.893836      36.893836      36.893836    
    628000   0.40085276    -7.9862413     -7.3849707      2.2512435      50218.233      36.893836      36.893836      36.893836    
    629000   0.40089361    -7.9844832     -7.3831513      2.2539464      50218.233      36.893836      36.893836      36.893836    
    630000   0.3995442     -7.9838876     -7.3845798      2.2693242      50218.233      36.893836      36.893836      36.893836    
    631000   0.39845658    -7.9828673     -7.3851909      2.2750147      50218.233      36.893836      36.893836      36.893836    
    632000   0.40191048    -7.9890217     -7.3861646      2.2243267      50218.233      36.893836      36.893836      36.893836    
    633000   0.39939603    -7.9873618     -7.3882762      2.2349633      50218.233      36.893836      36.893836      36.893836    
    634000   0.39753509    -7.9893541     -7.3930599      2.2249782      50218.233      36.893836      36.893836      36.893836    
    635000   0.3991842     -7.9880347     -7.3892669      2.231828       50218.233      36.893836      36.893836      36.893836    
    636000   0.40129254    -7.9873115     -7.3853813      2.2452041      50218.233      36.893836      36.893836      36.893836    
    637000   0.39947867    -7.9904742     -7.3912647      2.2122205      50218.233      36.893836      36.893836      36.893836    
    638000   0.39796508    -7.9872569     -7.3903178      2.2432615      50218.233      36.893836      36.893836      36.893836    
    639000   0.39908782    -7.9858931     -7.3872699      2.2519275      50218.233      36.893836      36.893836      36.893836    
    640000   0.40155524    -7.9882357     -7.3859114      2.2396202      50218.233      36.893836      36.893836      36.893836    
    641000   0.40056407    -7.9904322     -7.3895947      2.2195926      50218.233      36.893836      36.893836      36.893836    
    642000   0.40047686    -7.9888303     -7.3881236      2.229896       50218.233      36.893836      36.893836      36.893836    
    643000   0.40210831    -7.9875503     -7.3843964      2.2397055      50218.233      36.893836      36.893836      36.893836    
    644000   0.39973611    -7.9840104     -7.3844147      2.2677824      50218.233      36.893836      36.893836      36.893836    
    645000   0.39875733    -7.9849422     -7.3868147      2.253106       50218.233      36.893836      36.893836      36.893836    
    646000   0.40076683    -7.9868847     -7.385743       2.2429265      50218.233      36.893836      36.893836      36.893836    
    647000   0.40010176    -7.9859511     -7.385807       2.2517366      50218.233      36.893836      36.893836      36.893836    
    648000   0.40041799    -7.9886778     -7.3880594      2.2305671      50218.233      36.893836      36.893836      36.893836    
    649000   0.39955443    -7.9886343     -7.3893112      2.2275067      50218.233      36.893836      36.893836      36.893836    
    650000   0.40055354    -7.9857895     -7.3849677      2.2591003      50218.233      36.893836      36.893836      36.893836    
    651000   0.39943106    -7.9857305     -7.3865924      2.2574434      50218.233      36.893836      36.893836      36.893836    
    652000   0.40022099    -7.9887289     -7.3884059      2.2297623      50218.233      36.893836      36.893836      36.893836    
    653000   0.40191805    -7.9897182     -7.3868497      2.2328768      50218.233      36.893836      36.893836      36.893836    
    654000   0.39966227    -7.9876327     -7.3881478      2.2411215      50218.233      36.893836      36.893836      36.893836    
    655000   0.40180911    -7.9875337     -7.3848287      2.2440441      50218.233      36.893836      36.893836      36.893836    
    656000   0.39852351    -7.9881189     -7.3903421      2.2338123      50218.233      36.893836      36.893836      36.893836    
    657000   0.3982924     -7.9896673     -7.3922372      2.2274097      50218.233      36.893836      36.893836      36.893836    
    658000   0.3984787     -7.9845998     -7.3868903      2.2568878      50218.233      36.893836      36.893836      36.893836    
    659000   0.39960061    -7.9868919     -7.3874995      2.2399607      50218.233      36.893836      36.893836      36.893836    
    660000   0.3990124     -7.9882499     -7.3897399      2.2386587      50218.233      36.893836      36.893836      36.893836    
    661000   0.39771168    -7.9889629     -7.3924039      2.2328067      50218.233      36.893836      36.893836      36.893836    
    662000   0.39939854    -7.9878854     -7.3887961      2.2478848      50218.233      36.893836      36.893836      36.893836    
    663000   0.39905226    -7.9872656     -7.3886957      2.244651       50218.233      36.893836      36.893836      36.893836    
    664000   0.40063858    -7.9897265     -7.3887772      2.2216646      50218.233      36.893836      36.893836      36.893836    
    665000   0.401881      -7.985092      -7.382279       2.2688804      50218.233      36.893836      36.893836      36.893836    
    666000   0.39838536    -7.9837105     -7.386141       2.2684202      50218.233      36.893836      36.893836      36.893836    
    667000   0.39987808    -7.988824      -7.3890154      2.2230167      50218.233      36.893836      36.893836      36.893836    
    668000   0.40108892    -7.9851982     -7.3835734      2.2569555      50218.233      36.893836      36.893836      36.893836    
    669000   0.39907651    -7.9883907     -7.3897845      2.2405904      50218.233      36.893836      36.893836      36.893836    
    670000   0.39922889    -7.9875339     -7.3886991      2.2404101      50218.233      36.893836      36.893836      36.893836    
    671000   0.39939306    -7.9842665     -7.3851855      2.2622062      50218.233      36.893836      36.893836      36.893836    
    672000   0.40021475    -7.9889473     -7.3886337      2.2303262      50218.233      36.893836      36.893836      36.893836    
    673000   0.4021109     -7.9849948     -7.3818371      2.2550816      50218.233      36.893836      36.893836      36.893836    
    674000   0.40078004    -7.9871445     -7.385983       2.2487584      50218.233      36.893836      36.893836      36.893836    
    675000   0.40107754    -7.9848378     -7.38323        2.264424       50218.233      36.893836      36.893836      36.893836    
    676000   0.39842036    -7.9880693     -7.3904472      2.2336544      50218.233      36.893836      36.893836      36.893836    
    677000   0.40050325    -7.9860935     -7.3853472      2.2564688      50218.233      36.893836      36.893836      36.893836    
    678000   0.40046619    -7.9856863     -7.3849956      2.2588702      50218.233      36.893836      36.893836      36.893836    
    679000   0.40085003    -7.9848915     -7.383625       2.2608531      50218.233      36.893836      36.893836      36.893836    
    680000   0.40312007    -7.9867836     -7.3821121      2.2541722      50218.233      36.893836      36.893836      36.893836    
    681000   0.40016988    -7.9847492     -7.384503       2.2549399      50218.233      36.893836      36.893836      36.893836    
    682000   0.40020075    -7.9891444     -7.3888518      2.2176974      50218.233      36.893836      36.893836      36.893836    
    683000   0.40202305    -7.9851382     -7.3821122      2.2615345      50218.233      36.893836      36.893836      36.893836    
    684000   0.40054432    -7.992298      -7.39149        2.2083393      50218.233      36.893836      36.893836      36.893836    
    685000   0.40074317    -7.9874581     -7.3863519      2.2427359      50218.233      36.893836      36.893836      36.893836    
    686000   0.3992941     -7.9865941     -7.3876614      2.2553225      50218.233      36.893836      36.893836      36.893836    
    687000   0.39830041    -7.9865789     -7.3891367      2.2400607      50218.233      36.893836      36.893836      36.893836    
    688000   0.3996499     -7.9840254     -7.3845591      2.2609527      50218.233      36.893836      36.893836      36.893836    
    689000   0.40132762    -7.9858498     -7.3838669      2.2530802      50218.233      36.893836      36.893836      36.893836    
    690000   0.40037347    -7.9850878     -7.3845362      2.264642       50218.233      36.893836      36.893836      36.893836    
    691000   0.39978647    -7.9891368     -7.3894656      2.2387569      50218.233      36.893836      36.893836      36.893836    
    692000   0.39730815    -7.9850782     -7.3891245      2.2499954      50218.233      36.893836      36.893836      36.893836    
    693000   0.39988737    -7.9871666     -7.3873441      2.2495557      50218.233      36.893836      36.893836      36.893836    
    694000   0.39896654    -7.9874475     -7.3890062      2.2340174      50218.233      36.893836      36.893836      36.893836    
    695000   0.40150353    -7.9860495     -7.3838027      2.2440191      50218.233      36.893836      36.893836      36.893836    
    696000   0.40141045    -7.9876383     -7.3855312      2.2402287      50218.233      36.893836      36.893836      36.893836    
    697000   0.40160506    -7.9884304     -7.3860314      2.2418851      50218.233      36.893836      36.893836      36.893836    
    698000   0.39722787    -7.9876001     -7.3917668      2.2371463      50218.233      36.893836      36.893836      36.893836    
    699000   0.40245419    -7.9893322     -7.3856595      2.226656       50218.233      36.893836      36.893836      36.893836    
    700000   0.39823219    -7.9869304     -7.3895906      2.2455931      50218.233      36.893836      36.893836      36.893836    
    701000   0.39982295    -7.9880537     -7.3883278      2.2407517      50218.233      36.893836      36.893836      36.893836    
    702000   0.3999891     -7.9891645     -7.3891894      2.2302257      50218.233      36.893836      36.893836      36.893836    
    703000   0.39994549    -7.9892456     -7.3893359      2.2274399      50218.233      36.893836      36.893836      36.893836    
    704000   0.40116773    -7.9865863     -7.3848433      2.244642       50218.233      36.893836      36.893836      36.893836    
    705000   0.40003209    -7.9879887     -7.387949       2.2343444      50218.233      36.893836      36.893836      36.893836    
    706000   0.40015382    -7.9864331     -7.3862109      2.2459884      50218.233      36.893836      36.893836      36.893836    
    707000   0.39825823    -7.9879182     -7.3905393      2.2435773      50218.233      36.893836      36.893836      36.893836    
    708000   0.40056413    -7.9835448     -7.3827072      2.2699259      50218.233      36.893836      36.893836      36.893836    
    709000   0.39894673    -7.987597      -7.3891854      2.2408914      50218.233      36.893836      36.893836      36.893836    
    710000   0.39942667    -7.9899068     -7.3907754      2.2190501      50218.233      36.893836      36.893836      36.893836    
    711000   0.39919852    -7.986433      -7.3876438      2.2427199      50218.233      36.893836      36.893836      36.893836    
    712000   0.39986547    -7.9838901     -7.3841004      2.2697338      50218.233      36.893836      36.893836      36.893836    
    713000   0.39950651    -7.9863062     -7.387055       2.2503407      50218.233      36.893836      36.893836      36.893836    
    714000   0.3989235     -7.9898634     -7.3914867      2.2226567      50218.233      36.893836      36.893836      36.893836    
    715000   0.39893744    -7.9876205     -7.3892229      2.2337554      50218.233      36.893836      36.893836      36.893836    
    716000   0.40168488    -7.9849985     -7.3824797      2.2534737      50218.233      36.893836      36.893836      36.893836    
    717000   0.39829519    -7.9891016     -7.3916673      2.2249401      50218.233      36.893836      36.893836      36.893836    
    718000   0.40210434    -7.9862769     -7.3831289      2.250083       50218.233      36.893836      36.893836      36.893836    
    719000   0.39893252    -7.9858766     -7.3874864      2.2437673      50218.233      36.893836      36.893836      36.893836    
    720000   0.39816654    -7.9897919     -7.3925506      2.2233551      50218.233      36.893836      36.893836      36.893836    
    721000   0.40336979    -7.9898712     -7.3848251      2.2252996      50218.233      36.893836      36.893836      36.893836    
    722000   0.40005107    -7.9860064     -7.3859384      2.2466781      50218.233      36.893836      36.893836      36.893836    
    723000   0.40018629    -7.9833707     -7.3830998      2.2701123      50218.233      36.893836      36.893836      36.893836    
    724000   0.40035475    -7.9854696     -7.384946       2.2608532      50218.233      36.893836      36.893836      36.893836    
    725000   0.39986293    -7.9866699     -7.386884       2.2429937      50218.233      36.893836      36.893836      36.893836    
    726000   0.39957073    -7.9860634     -7.3867158      2.2534473      50218.233      36.893836      36.893836      36.893836    
    727000   0.40044992    -7.9860914     -7.3854251      2.2465807      50218.233      36.893836      36.893836      36.893836    
    728000   0.39922684    -7.9873284     -7.3884967      2.2487544      50218.233      36.893836      36.893836      36.893836    
    729000   0.40004442    -7.9898974     -7.3898393      2.2244464      50218.233      36.893836      36.893836      36.893836    
    730000   0.39855064    -7.9854282     -7.3876107      2.2639732      50218.233      36.893836      36.893836      36.893836    
    731000   0.39964337    -7.9859368     -7.3864803      2.2579475      50218.233      36.893836      36.893836      36.893836    
    732000   0.40085065    -7.9837896     -7.3825222      2.2659061      50218.233      36.893836      36.893836      36.893836    
    733000   0.39952246    -7.983665      -7.3843898      2.2684814      50218.233      36.893836      36.893836      36.893836    
    734000   0.39960455    -7.9872468     -7.3878485      2.2429975      50218.233      36.893836      36.893836      36.893836    
    735000   0.39979688    -7.9871733     -7.3874865      2.2454364      50218.233      36.893836      36.893836      36.893836    
    736000   0.39946478    -7.986714      -7.3875254      2.2426164      50218.233      36.893836      36.893836      36.893836    
    737000   0.40089485    -7.9879391     -7.3866053      2.2393702      50218.233      36.893836      36.893836      36.893836    
    738000   0.39963976    -7.9867139     -7.3872628      2.2509198      50218.233      36.893836      36.893836      36.893836    
    739000   0.40020158    -7.9893101     -7.3890163      2.2191409      50218.233      36.893836      36.893836      36.893836    
    740000   0.39713014    -7.9881609     -7.3924742      2.2321217      50218.233      36.893836      36.893836      36.893836    
    741000   0.39944033    -7.9889885     -7.3898366      2.2287834      50218.233      36.893836      36.893836      36.893836    
    742000   0.40025285    -7.9858403     -7.3854696      2.2574053      50218.233      36.893836      36.893836      36.893836    
    743000   0.39688704    -7.9861916     -7.3908695      2.2386417      50218.233      36.893836      36.893836      36.893836    
    744000   0.39834297    -7.9906189     -7.393113       2.2136274      50218.233      36.893836      36.893836      36.893836    
    745000   0.40186171    -7.9876109     -7.3848269      2.2351474      50218.233      36.893836      36.893836      36.893836    
    746000   0.40175173    -7.9897627     -7.3871437      2.228142       50218.233      36.893836      36.893836      36.893836    
    747000   0.4002342     -7.9905715     -7.3902288      2.2223349      50218.233      36.893836      36.893836      36.893836    
    748000   0.40023208    -7.9882228     -7.3878832      2.235152       50218.233      36.893836      36.893836      36.893836    
    749000   0.39968608    -7.9843199     -7.3847994      2.2639292      50218.233      36.893836      36.893836      36.893836    
    750000   0.4005554     -7.9894792     -7.3886547      2.2214842      50218.233      36.893836      36.893836      36.893836    
    751000   0.39951755    -7.9894405     -7.3901727      2.2194296      50218.233      36.893836      36.893836      36.893836    
    752000   0.40036997    -7.9861228     -7.3855764      2.2545667      50218.233      36.893836      36.893836      36.893836    
    753000   0.39883527    -7.9897009     -7.3914565      2.2089347      50218.233      36.893836      36.893836      36.893836    
    754000   0.39966337    -7.9886409     -7.3891544      2.2395455      50218.233      36.893836      36.893836      36.893836    
    755000   0.40098352    -7.9882768     -7.3868101      2.2350952      50218.233      36.893836      36.893836      36.893836    
    756000   0.39975896    -7.9908046     -7.3911747      2.2179347      50218.233      36.893836      36.893836      36.893836    
    757000   0.40144514    -7.990178      -7.3880188      2.2281959      50218.233      36.893836      36.893836      36.893836    
    758000   0.40048743    -7.986932      -7.3862094      2.2467629      50218.233      36.893836      36.893836      36.893836    
    759000   0.3992516     -7.9869519     -7.388083       2.2320081      50218.233      36.893836      36.893836      36.893836    
    760000   0.3994393     -7.9873093     -7.3881589      2.2372044      50218.233      36.893836      36.893836      36.893836    
    761000   0.3995414     -7.986834      -7.3875305      2.241396       50218.233      36.893836      36.893836      36.893836    
    762000   0.39787763    -7.9848601     -7.3880521      2.25949        50218.233      36.893836      36.893836      36.893836    
    763000   0.40229167    -7.9913428     -7.3879138      2.2130067      50218.233      36.893836      36.893836      36.893836    
    764000   0.40287409    -7.9878053     -7.3835028      2.2429584      50218.233      36.893836      36.893836      36.893836    
    765000   0.40100873    -7.9852447     -7.3837401      2.2523936      50218.233      36.893836      36.893836      36.893836    
    766000   0.39935307    -7.9886363     -7.3896152      2.2292677      50218.233      36.893836      36.893836      36.893836    
    767000   0.40183376    -7.9868306     -7.3840885      2.2464443      50218.233      36.893836      36.893836      36.893836    
    768000   0.40048808    -7.9849286     -7.3842051      2.2660925      50218.233      36.893836      36.893836      36.893836    
    769000   0.39936861    -7.9903114     -7.391267       2.2164314      50218.233      36.893836      36.893836      36.893836    
    770000   0.39955509    -7.9867352     -7.3874111      2.2437413      50218.233      36.893836      36.893836      36.893836    
    771000   0.39894936    -7.9891199     -7.3907044      2.2337457      50218.233      36.893836      36.893836      36.893836    
    772000   0.40077923    -7.9880378     -7.3868775      2.2381322      50218.233      36.893836      36.893836      36.893836    
    773000   0.40123943    -7.9841229     -7.3822723      2.2639722      50218.233      36.893836      36.893836      36.893836    
    774000   0.39926067    -7.986665      -7.3877825      2.2483406      50218.233      36.893836      36.893836      36.893836    
    775000   0.3980723     -7.9870632     -7.3899632      2.2316118      50218.233      36.893836      36.893836      36.893836    
    776000   0.3983237     -7.9894395     -7.3919624      2.2246858      50218.233      36.893836      36.893836      36.893836    
    777000   0.39962228    -7.9843894     -7.3849645      2.2626302      50218.233      36.893836      36.893836      36.893836    
    778000   0.39838177    -7.9874023     -7.3898382      2.246456       50218.233      36.893836      36.893836      36.893836    
    779000   0.3996065     -7.9861395     -7.3867383      2.2545064      50218.233      36.893836      36.893836      36.893836    
    780000   0.40146516    -7.9898939     -7.3877048      2.218356       50218.233      36.893836      36.893836      36.893836    
    781000   0.39790707    -7.9856716     -7.3888195      2.2519703      50218.233      36.893836      36.893836      36.893836    
    782000   0.40146102    -7.9874151     -7.3852322      2.2306691      50218.233      36.893836      36.893836      36.893836    
    783000   0.40032391    -7.9895465     -7.3890692      2.2270134      50218.233      36.893836      36.893836      36.893836    
    784000   0.40210244    -7.987189      -7.3840439      2.248571       50218.233      36.893836      36.893836      36.893836    
    785000   0.40233158    -7.9859166     -7.3824278      2.2500048      50218.233      36.893836      36.893836      36.893836    
    786000   0.39796376    -7.9884512     -7.391514       2.2311167      50218.233      36.893836      36.893836      36.893836    
    787000   0.39913536    -7.9863306     -7.3876361      2.2554173      50218.233      36.893836      36.893836      36.893836    
    788000   0.39726901    -7.9874499     -7.3915549      2.2354741      50218.233      36.893836      36.893836      36.893836    
    789000   0.4005513     -7.9873927     -7.3865743      2.2419311      50218.233      36.893836      36.893836      36.893836    
    790000   0.40020536    -7.9880995     -7.3878         2.2343591      50218.233      36.893836      36.893836      36.893836    
    791000   0.40142286    -7.9861755     -7.3840498      2.2552524      50218.233      36.893836      36.893836      36.893836    
    792000   0.39792122    -7.9867378     -7.3898644      2.2485037      50218.233      36.893836      36.893836      36.893836    
    793000   0.400447      -7.987814      -7.387152       2.2332347      50218.233      36.893836      36.893836      36.893836    
    794000   0.39948733    -7.9909148     -7.3916923      2.2252291      50218.233      36.893836      36.893836      36.893836    
    795000   0.40056014    -7.9876406     -7.3868089      2.2484103      50218.233      36.893836      36.893836      36.893836    
    796000   0.39905105    -7.9860734     -7.3875053      2.245504       50218.233      36.893836      36.893836      36.893836    
    797000   0.39906581    -7.9855349     -7.3869447      2.2606974      50218.233      36.893836      36.893836      36.893836    
    798000   0.39981998    -7.9892087     -7.3894873      2.2258195      50218.233      36.893836      36.893836      36.893836    
    799000   0.4013899     -7.9884871     -7.3864108      2.2383416      50218.233      36.893836      36.893836      36.893836    
    800000   0.40050331    -7.9903267     -7.3895803      2.2149934      50218.233      36.893836      36.893836      36.893836    
    801000   0.40142567    -7.9863498     -7.3842199      2.2528184      50218.233      36.893836      36.893836      36.893836    
    802000   0.39790452    -7.9858336     -7.3889853      2.2459368      50218.233      36.893836      36.893836      36.893836    
    803000   0.40066097    -7.9901714     -7.3891885      2.2219883      50218.233      36.893836      36.893836      36.893836    
    804000   0.4000401     -7.9864514     -7.3863998      2.243437       50218.233      36.893836      36.893836      36.893836    
    805000   0.40058253    -7.989214      -7.3883487      2.2249149      50218.233      36.893836      36.893836      36.893836    
    806000   0.40040107    -7.9881827     -7.3875896      2.2450177      50218.233      36.893836      36.893836      36.893836    
    807000   0.40083427    -7.9864142     -7.3851713      2.2455297      50218.233      36.893836      36.893836      36.893836    
    808000   0.40059346    -7.9851446     -7.384263       2.258214       50218.233      36.893836      36.893836      36.893836    
    809000   0.40118034    -7.9887824     -7.3870205      2.2264004      50218.233      36.893836      36.893836      36.893836    
    810000   0.39780269    -7.989424      -7.3927284      2.2274716      50218.233      36.893836      36.893836      36.893836    
    811000   0.39820187    -7.9872268     -7.3899325      2.2432188      50218.233      36.893836      36.893836      36.893836    
    812000   0.39901909    -7.9881477     -7.3896275      2.2324859      50218.233      36.893836      36.893836      36.893836    
    813000   0.39955508    -7.9865231     -7.387199       2.2511067      50218.233      36.893836      36.893836      36.893836    
    814000   0.40080713    -7.9878575     -7.3866553      2.2429841      50218.233      36.893836      36.893836      36.893836    
    815000   0.40144653    -7.9863033     -7.3841421      2.2527246      50218.233      36.893836      36.893836      36.893836    
    816000   0.40184177    -7.9885374     -7.3857833      2.2315375      50218.233      36.893836      36.893836      36.893836    
    817000   0.40050028    -7.9878324     -7.3870906      2.2337853      50218.233      36.893836      36.893836      36.893836    
    818000   0.40062044    -7.9904942     -7.3895721      2.222581       50218.233      36.893836      36.893836      36.893836    
    819000   0.39939245    -7.9846529     -7.3855728      2.2541977      50218.233      36.893836      36.893836      36.893836    
    820000   0.40065213    -7.9882599     -7.3872902      2.2402444      50218.233      36.893836      36.893836      36.893836    
    821000   0.4016633     -7.9873707     -7.3848843      2.2453857      50218.233      36.893836      36.893836      36.893836    
    822000   0.39795925    -7.9878432     -7.3909128      2.2379887      50218.233      36.893836      36.893836      36.893836    
    823000   0.39959827    -7.9860563     -7.3866674      2.251723       50218.233      36.893836      36.893836      36.893836    
    824000   0.39983139    -7.9855858     -7.3858472      2.2599867      50218.233      36.893836      36.893836      36.893836    
    825000   0.40031637    -7.9847693     -7.3843033      2.2516113      50218.233      36.893836      36.893836      36.893836    
    826000   0.39913339    -7.988681      -7.3899894      2.2196899      50218.233      36.893836      36.893836      36.893836    
    827000   0.39991971    -7.9864652     -7.3865942      2.2446691      50218.233      36.893836      36.893836      36.893836    
    828000   0.3997801     -7.9868049     -7.3871433      2.2426697      50218.233      36.893836      36.893836      36.893836    
    829000   0.4003886     -7.9904756     -7.3899013      2.2163664      50218.233      36.893836      36.893836      36.893836    
    830000   0.39952036    -7.990008      -7.3907359      2.2187481      50218.233      36.893836      36.893836      36.893836    
    831000   0.40114341    -7.9872331     -7.3855265      2.2433257      50218.233      36.893836      36.893836      36.893836    
    832000   0.40132494    -7.9904069     -7.388428       2.218353       50218.233      36.893836      36.893836      36.893836    
    833000   0.40006893    -7.9888447     -7.3887498      2.2348729      50218.233      36.893836      36.893836      36.893836    
    834000   0.39996855    -7.9876015     -7.3876572      2.2448728      50218.233      36.893836      36.893836      36.893836    
    835000   0.40120466    -7.9874437     -7.3856453      2.2490549      50218.233      36.893836      36.893836      36.893836    
    836000   0.40135031    -7.9869812     -7.3849643      2.2506394      50218.233      36.893836      36.893836      36.893836    
    837000   0.40137754    -7.9866967     -7.384639       2.2558003      50218.233      36.893836      36.893836      36.893836    
    838000   0.40124497    -7.9867747     -7.3849159      2.2455583      50218.233      36.893836      36.893836      36.893836    
    839000   0.40107788    -7.9867438     -7.3851356      2.243647       50218.233      36.893836      36.893836      36.893836    
    840000   0.40085545    -7.9886731     -7.3873985      2.2351619      50218.233      36.893836      36.893836      36.893836    
    841000   0.39998941    -7.9875015     -7.3875259      2.246555       50218.233      36.893836      36.893836      36.893836    
    842000   0.39704839    -7.9883934     -7.3928293      2.2285811      50218.233      36.893836      36.893836      36.893836    
    843000   0.40080418    -7.99005       -7.3888522      2.2331968      50218.233      36.893836      36.893836      36.893836    
    844000   0.40077742    -7.9874513     -7.3862937      2.2324328      50218.233      36.893836      36.893836      36.893836    
    845000   0.40142856    -7.9869584     -7.3848242      2.2421446      50218.233      36.893836      36.893836      36.893836    
    846000   0.39698445    -7.9908413     -7.3953731      2.2166264      50218.233      36.893836      36.893836      36.893836    
    847000   0.39973371    -7.9836591     -7.3840671      2.2651672      50218.233      36.893836      36.893836      36.893836    
    848000   0.39946605    -7.988615      -7.3894244      2.2309504      50218.233      36.893836      36.893836      36.893836    
    849000   0.40067185    -7.9899638     -7.3889646      2.2310183      50218.233      36.893836      36.893836      36.893836    
    850000   0.40044773    -7.9865511     -7.3858881      2.2563382      50218.233      36.893836      36.893836      36.893836    
    851000   0.40186518    -7.9880217     -7.3852325      2.2407164      50218.233      36.893836      36.893836      36.893836    
    852000   0.40083944    -7.9883373     -7.3870867      2.2450918      50218.233      36.893836      36.893836      36.893836    
    853000   0.40013482    -7.9865359     -7.3863422      2.2426875      50218.233      36.893836      36.893836      36.893836    
    854000   0.39912073    -7.9871283     -7.3884557      2.2336452      50218.233      36.893836      36.893836      36.893836    
    855000   0.39925346    -7.9894408     -7.3905691      2.2185201      50218.233      36.893836      36.893836      36.893836    
    856000   0.39979167    -7.9908132     -7.3911342      2.224756       50218.233      36.893836      36.893836      36.893836    
    857000   0.40054204    -7.987046      -7.3862415      2.2481408      50218.233      36.893836      36.893836      36.893836    
    858000   0.39927168    -7.9888947     -7.3899957      2.227919       50218.233      36.893836      36.893836      36.893836    
    859000   0.39841757    -7.9874986     -7.3898807      2.2386853      50218.233      36.893836      36.893836      36.893836    
    860000   0.39886174    -7.9873639     -7.3890798      2.24214        50218.233      36.893836      36.893836      36.893836    
    861000   0.40056126    -7.9880062     -7.3871728      2.2359648      50218.233      36.893836      36.893836      36.893836    
    862000   0.39975169    -7.9899463     -7.3903273      2.2302751      50218.233      36.893836      36.893836      36.893836    
    863000   0.39980035    -7.9885932     -7.3889012      2.2281923      50218.233      36.893836      36.893836      36.893836    
    864000   0.39923997    -7.9885614     -7.3897099      2.237386       50218.233      36.893836      36.893836      36.893836    
    865000   0.40043314    -7.9871124     -7.3864712      2.2343897      50218.233      36.893836      36.893836      36.893836    
    866000   0.39929134    -7.9904474     -7.391519       2.2162148      50218.233      36.893836      36.893836      36.893836    
    867000   0.40059742    -7.9863801     -7.3854925      2.253872       50218.233      36.893836      36.893836      36.893836    
    868000   0.39965261    -7.9867852     -7.3873148      2.2374782      50218.233      36.893836      36.893836      36.893836    
    869000   0.40128052    -7.9880381     -7.3861259      2.2368784      50218.233      36.893836      36.893836      36.893836    
    870000   0.39985013    -7.989154      -7.3893873      2.2348692      50218.233      36.893836      36.893836      36.893836    
    871000   0.40132293    -7.9878979     -7.385922       2.2354426      50218.233      36.893836      36.893836      36.893836    
    872000   0.40004471    -7.9842263     -7.3841678      2.2655534      50218.233      36.893836      36.893836      36.893836    
    873000   0.39965022    -7.9881961     -7.3887293      2.2331145      50218.233      36.893836      36.893836      36.893836    
    874000   0.39819992    -7.9871919     -7.3899005      2.247747       50218.233      36.893836      36.893836      36.893836    
    875000   0.40120693    -7.9856986     -7.3838968      2.2542078      50218.233      36.893836      36.893836      36.893836    
    876000   0.3984189     -7.9861005     -7.3884807      2.2529494      50218.233      36.893836      36.893836      36.893836    
    877000   0.39773247    -7.9826506     -7.3860604      2.2639274      50218.233      36.893836      36.893836      36.893836    
    878000   0.39915932    -7.9870441     -7.3883136      2.2508291      50218.233      36.893836      36.893836      36.893836    
    879000   0.39935747    -7.9869374     -7.3879097      2.2498085      50218.233      36.893836      36.893836      36.893836    
    880000   0.40145756    -7.9852188     -7.383041       2.2489254      50218.233      36.893836      36.893836      36.893836    
    881000   0.40023268    -7.9871401     -7.3867996      2.2440488      50218.233      36.893836      36.893836      36.893836    
    882000   0.40025145    -7.9878224     -7.3874537      2.2396893      50218.233      36.893836      36.893836      36.893836    
    883000   0.40068535    -7.9883256     -7.3873061      2.2402939      50218.233      36.893836      36.893836      36.893836    
    884000   0.39802014    -7.9883158     -7.3912941      2.2282854      50218.233      36.893836      36.893836      36.893836    
    885000   0.40017177    -7.9870784     -7.3868293      2.2506908      50218.233      36.893836      36.893836      36.893836    
    886000   0.39950524    -7.9857584     -7.3865091      2.2562591      50218.233      36.893836      36.893836      36.893836    
    887000   0.3994459     -7.9866708     -7.3875104      2.24993        50218.233      36.893836      36.893836      36.893836    
    888000   0.39867031    -7.9882437     -7.3902468      2.2397794      50218.233      36.893836      36.893836      36.893836    
    889000   0.40145989    -7.987518      -7.3853367      2.2447901      50218.233      36.893836      36.893836      36.893836    
    890000   0.39830402    -7.9862287     -7.3887811      2.2451503      50218.233      36.893836      36.893836      36.893836    
    891000   0.39833558    -7.9896406     -7.3921457      2.2202088      50218.233      36.893836      36.893836      36.893836    
    892000   0.40166021    -7.9897721     -7.3872904      2.2328771      50218.233      36.893836      36.893836      36.893836    
    893000   0.40014332    -7.9843623     -7.3841559      2.2704365      50218.233      36.893836      36.893836      36.893836    
    894000   0.39852375    -7.9886769     -7.3908998      2.2321077      50218.233      36.893836      36.893836      36.893836    
    895000   0.39821054    -7.9861545     -7.3888471      2.2469925      50218.233      36.893836      36.893836      36.893836    
    896000   0.39887785    -7.9853646     -7.3870563      2.2521425      50218.233      36.893836      36.893836      36.893836    
    897000   0.39969826    -7.9885294     -7.3889906      2.2289341      50218.233      36.893836      36.893836      36.893836    
    898000   0.39954044    -7.991221      -7.3919189      2.212287       50218.233      36.893836      36.893836      36.893836    
    899000   0.40122149    -7.9897697     -7.387946       2.2203342      50218.233      36.893836      36.893836      36.893836    
    900000   0.39825405    -7.986699      -7.3893264      2.2382215      50218.233      36.893836      36.893836      36.893836    
    901000   0.40175493    -7.9873827     -7.3847589      2.2387116      50218.233      36.893836      36.893836      36.893836    
    902000   0.39950305    -7.9864524     -7.3872064      2.2451262      50218.233      36.893836      36.893836      36.893836    
    903000   0.40048868    -7.9883975     -7.3876731      2.2206837      50218.233      36.893836      36.893836      36.893836    
    904000   0.40015784    -7.9885237     -7.3882955      2.2379056      50218.233      36.893836      36.893836      36.893836    
    905000   0.40084342    -7.9879276     -7.386671       2.2436208      50218.233      36.893836      36.893836      36.893836    
    906000   0.4000744     -7.9881604     -7.3880573      2.2441446      50218.233      36.893836      36.893836      36.893836    
    907000   0.39897428    -7.9880488     -7.3895959      2.2229581      50218.233      36.893836      36.893836      36.893836    
    908000   0.40247524    -7.9875697     -7.3838654      2.2374991      50218.233      36.893836      36.893836      36.893836    
    909000   0.39994528    -7.9921102     -7.3922008      2.2032904      50218.233      36.893836      36.893836      36.893836    
    910000   0.40242929    -7.9878494     -7.384214       2.2428787      50218.233      36.893836      36.893836      36.893836    
    911000   0.39700775    -7.9878647     -7.3923616      2.2355752      50218.233      36.893836      36.893836      36.893836    
    912000   0.39956545    -7.9884134     -7.3890737      2.2418523      50218.233      36.893836      36.893836      36.893836    
    913000   0.39977441    -7.9883038     -7.3886507      2.2361816      50218.233      36.893836      36.893836      36.893836    
    914000   0.39764784    -7.9889372     -7.392474       2.2203775      50218.233      36.893836      36.893836      36.893836    
    915000   0.39686607    -7.9861695     -7.3908789      2.257231       50218.233      36.893836      36.893836      36.893836    
    916000   0.40187503    -7.9873341     -7.3845301      2.2431604      50218.233      36.893836      36.893836      36.893836    
    917000   0.39950013    -7.9871588     -7.3879171      2.2391085      50218.233      36.893836      36.893836      36.893836    
    918000   0.40045802    -7.98412       -7.3834415      2.2666269      50218.233      36.893836      36.893836      36.893836    
    919000   0.39928106    -7.9872552     -7.3883421      2.2421256      50218.233      36.893836      36.893836      36.893836    
    920000   0.40001784    -7.9860627     -7.3860445      2.2489246      50218.233      36.893836      36.893836      36.893836    
    921000   0.40126693    -7.9849635     -7.3830717      2.2571446      50218.233      36.893836      36.893836      36.893836    
    922000   0.39968106    -7.9870472     -7.3875341      2.2436645      50218.233      36.893836      36.893836      36.893836    
    923000   0.39876749    -7.9864303     -7.3882876      2.2328177      50218.233      36.893836      36.893836      36.893836    
    924000   0.39940042    -7.9876633     -7.3885712      2.2322946      50218.233      36.893836      36.893836      36.893836    
    925000   0.40126542    -7.987476      -7.3855864      2.2487942      50218.233      36.893836      36.893836      36.893836    
    926000   0.39940296    -7.9878642     -7.3887682      2.2386757      50218.233      36.893836      36.893836      36.893836    
    927000   0.39944118    -7.9835908     -7.3844376      2.262958       50218.233      36.893836      36.893836      36.893836    
    928000   0.40012114    -7.9865654     -7.3863922      2.2469216      50218.233      36.893836      36.893836      36.893836    
    929000   0.39971849    -7.9898355     -7.3902663      2.2206122      50218.233      36.893836      36.893836      36.893836    
    930000   0.39954885    -7.9856559     -7.3863412      2.247745       50218.233      36.893836      36.893836      36.893836    
    931000   0.40122265    -7.9884025     -7.3865771      2.232209       50218.233      36.893836      36.893836      36.893836    
    932000   0.39841841    -7.986444      -7.3888248      2.2532887      50218.233      36.893836      36.893836      36.893836    
    933000   0.39969924    -7.9869326     -7.3873922      2.2563161      50218.233      36.893836      36.893836      36.893836    
    934000   0.39931855    -7.9873743     -7.3884049      2.2335419      50218.233      36.893836      36.893836      36.893836    
    935000   0.39816257    -7.9849422     -7.3877068      2.2563072      50218.233      36.893836      36.893836      36.893836    
    936000   0.40133863    -7.9873538     -7.3853544      2.243969       50218.233      36.893836      36.893836      36.893836    
    937000   0.39925768    -7.9873901     -7.3885121      2.2371093      50218.233      36.893836      36.893836      36.893836    
    938000   0.4010562     -7.9867127     -7.385137       2.242385       50218.233      36.893836      36.893836      36.893836    
    939000   0.40057793    -7.9882073     -7.3873489      2.2354702      50218.233      36.893836      36.893836      36.893836    
    940000   0.40167708    -7.9890486     -7.3865416      2.2412379      50218.233      36.893836      36.893836      36.893836    
    941000   0.40027301    -7.9876106     -7.3872097      2.2341854      50218.233      36.893836      36.893836      36.893836    
    942000   0.39818738    -7.9881557     -7.3908832      2.2398966      50218.233      36.893836      36.893836      36.893836    
    943000   0.4001588     -7.9872688     -7.3870392      2.2377799      50218.233      36.893836      36.893836      36.893836    
    944000   0.4007997     -7.9906917     -7.3895007      2.227343       50218.233      36.893836      36.893836      36.893836    
    945000   0.39862231    -7.986051      -7.388126       2.2458572      50218.233      36.893836      36.893836      36.893836    
    946000   0.40040319    -7.9868662     -7.38627        2.2447522      50218.233      36.893836      36.893836      36.893836    
    947000   0.4000068     -7.9850348     -7.3850331      2.2623871      50218.233      36.893836      36.893836      36.893836    
    948000   0.39993284    -7.9831909     -7.3833001      2.270222       50218.233      36.893836      36.893836      36.893836    
    949000   0.4001286     -7.9893395     -7.3891552      2.2238628      50218.233      36.893836      36.893836      36.893836    
    950000   0.39874732    -7.9872381     -7.3891256      2.2460777      50218.233      36.893836      36.893836      36.893836    
    951000   0.39957616    -7.9857276     -7.3863719      2.2538822      50218.233      36.893836      36.893836      36.893836    
    952000   0.39931106    -7.9863589     -7.3874008      2.2419004      50218.233      36.893836      36.893836      36.893836    
    953000   0.3986989     -7.9875327     -7.3894928      2.2347998      50218.233      36.893836      36.893836      36.893836    
    954000   0.40101609    -7.9908678     -7.3893522      2.2148661      50218.233      36.893836      36.893836      36.893836    
    955000   0.39878213    -7.9864048     -7.3882401      2.2511895      50218.233      36.893836      36.893836      36.893836    
    956000   0.40123219    -7.988571      -7.3867313      2.2390112      50218.233      36.893836      36.893836      36.893836    
    957000   0.39795262    -7.990962      -7.3940415      2.2115015      50218.233      36.893836      36.893836      36.893836    
    958000   0.40024894    -7.986904      -7.3865391      2.2423643      50218.233      36.893836      36.893836      36.893836    
    959000   0.40040188    -7.9885984     -7.3880042      2.2340853      50218.233      36.893836      36.893836      36.893836    
    960000   0.40145017    -7.9891365     -7.3869698      2.2336262      50218.233      36.893836      36.893836      36.893836    
    961000   0.39965882    -7.9886119     -7.3891322      2.2304678      50218.233      36.893836      36.893836      36.893836    
    962000   0.40059634    -7.9894381     -7.3885522      2.2194725      50218.233      36.893836      36.893836      36.893836    
    963000   0.3967907     -7.9866749     -7.3914973      2.2367438      50218.233      36.893836      36.893836      36.893836    
    964000   0.39918378    -7.9888562     -7.390089       2.2259248      50218.233      36.893836      36.893836      36.893836    
    965000   0.39771739    -7.9879939     -7.3914263      2.2291865      50218.233      36.893836      36.893836      36.893836    
    966000   0.40016739    -7.9883071     -7.3880646      2.235483       50218.233      36.893836      36.893836      36.893836    
    967000   0.39970797    -7.9872221     -7.3876687      2.2435834      50218.233      36.893836      36.893836      36.893836    
    968000   0.39967899    -7.98734       -7.3878301      2.2596452      50218.233      36.893836      36.893836      36.893836    
    969000   0.40099282    -7.9849188     -7.3834381      2.2565029      50218.233      36.893836      36.893836      36.893836    
    970000   0.39836858    -7.9857481     -7.3882037      2.2486961      50218.233      36.893836      36.893836      36.893836    
    971000   0.40014539    -7.9857346     -7.3855251      2.2423753      50218.233      36.893836      36.893836      36.893836    
    972000   0.39956287    -7.9829874     -7.3836517      2.268698       50218.233      36.893836      36.893836      36.893836    
    973000   0.39988583    -7.9849653     -7.3851451      2.2664465      50218.233      36.893836      36.893836      36.893836    
    974000   0.40142718    -7.9859946     -7.3838624      2.2582462      50218.233      36.893836      36.893836      36.893836    
    975000   0.39816618    -7.9860628     -7.388822       2.2479227      50218.233      36.893836      36.893836      36.893836    
    976000   0.39839408    -7.988091      -7.3905084      2.2260472      50218.233      36.893836      36.893836      36.893836    
    977000   0.40128089    -7.9909785     -7.3890657      2.2114552      50218.233      36.893836      36.893836      36.893836    
    978000   0.40117894    -7.9868084     -7.3850486      2.2526294      50218.233      36.893836      36.893836      36.893836    
    979000   0.40120141    -7.9868036     -7.38501        2.232804       50218.233      36.893836      36.893836      36.893836    
    980000   0.39987001    -7.9859735     -7.386177       2.257607       50218.233      36.893836      36.893836      36.893836    
    981000   0.39990606    -7.9894397     -7.3895891      2.2211074      50218.233      36.893836      36.893836      36.893836    
    982000   0.40197561    -7.98408       -7.3811251      2.2733447      50218.233      36.893836      36.893836      36.893836    
    983000   0.39662216    -7.9852948     -7.39037        2.2536124      50218.233      36.893836      36.893836      36.893836    
    984000   0.40037109    -7.9875439     -7.3869958      2.247003       50218.233      36.893836      36.893836      36.893836    
    985000   0.40119827    -7.9827885     -7.3809997      2.2783125      50218.233      36.893836      36.893836      36.893836    
    986000   0.39874425    -7.9886867     -7.3905788      2.237473       50218.233      36.893836      36.893836      36.893836    
    987000   0.40025672    -7.9873436     -7.3869671      2.2524231      50218.233      36.893836      36.893836      36.893836    
    988000   0.400876      -7.9859811     -7.3846757      2.2533127      50218.233      36.893836      36.893836      36.893836    
    989000   0.40179747    -7.9890824     -7.3863948      2.2369674      50218.233      36.893836      36.893836      36.893836    
    990000   0.40011597    -7.9886717     -7.3885063      2.2391163      50218.233      36.893836      36.893836      36.893836    
    991000   0.39889251    -7.984068      -7.3857377      2.2622364      50218.233      36.893836      36.893836      36.893836    
    992000   0.39979572    -7.9884893     -7.3888042      2.235342       50218.233      36.893836      36.893836      36.893836    
    993000   0.39843611    -7.9891718     -7.3915262      2.2244665      50218.233      36.893836      36.893836      36.893836    
    994000   0.40205275    -7.9892418     -7.3861713      2.2366832      50218.233      36.893836      36.893836      36.893836    
    995000   0.40083683    -7.9923264     -7.3910797      2.1994857      50218.233      36.893836      36.893836      36.893836    
    996000   0.40137146    -7.9911871     -7.3891384      2.213703       50218.233      36.893836      36.893836      36.893836    
    997000   0.39979241    -7.9860549     -7.3863748      2.2541398      50218.233      36.893836      36.893836      36.893836    
    998000   0.40079149    -7.9866191     -7.3854404      2.245379       50218.233      36.893836      36.893836      36.893836    
    999000   0.40038562    -7.9881859     -7.387616       2.2341258      50218.233      36.893836      36.893836      36.893836    
   1000000   0.39960208    -7.9911114     -7.3917168      2.2099334      50218.233      36.893836      36.893836      36.893836    
Loop time of 1615.78 on 4 procs for 1000000 steps with 70304 atoms

Performance: 534725.814 tau/day, 618.896 timesteps/s, 43.511 Matom-step/s
95.2% CPU use with 4 MPI tasks x 1 OpenMP threads

MPI task timing breakdown:
Section |  min time  |  avg time  |  max time  |%varavg| %total
---------------------------------------------------------------
Pair    | 502.69     | 577.9      | 632.38     | 227.1 | 35.77
Neigh   | 5.9042     | 6.1414     | 6.239      |   5.6 |  0.38
Comm    | 234.32     | 236.07     | 238.97     |  12.4 | 14.61
Output  | 0.19952    | 0.20585    | 0.21632    |   1.4 |  0.01
Modify  | 655.3      | 709.4      | 785.86     | 208.3 | 43.90
Other   |            | 86.06      |            |       |  5.33

Nlocal:          17576 ave       17639 max       17531 min
Histogram: 1 0 1 0 1 0 0 0 0 1
Nghost:        16841.5 ave       16879 max       16802 min
Histogram: 2 0 0 0 0 0 0 0 0 2
Neighs:              0 ave           0 max           0 min
Histogram: 4 0 0 0 0 0 0 0 0 0

Total # of neighbors = 0
Ave neighs/atom = 0
Neighbor list builds = 191106
Dangerous builds = 0
clear
OMP_NUM_THREADS environment is not set. Defaulting to 1 thread. (src/comm.cpp:98)
  using 1 OpenMP thread(s) per MPI task
package gpu 0
jump dms380.lmp

variable T equal 380
# T = 1000* (temp in LJ unit)
variable f equal 1000
log log.${T}
log log.380
