variable TLJ equal (${T}/1000)
variable TLJ equal (460/1000)
variable NCyle equal 10
variable iStep equal (${f})
variable iStep equal (1000)
variable dumpStep equal (${f}*100)
variable dumpStep equal (1000*100)
variable runStep equal (${f}*100*${NCyle})
variable runStep equal (1000*100*${NCyle})
variable runStep equal (1000*100*10)

units       lj
atom_style  atomic
dimension 3
boundary     p p p
pair_style  lj/cut 2.5
read_data  ../data/T${T}.dat
read_data  ../data/T460.dat
Reading data file ...
  orthogonal box = (0.97250269 0.97250269 0.97250269) to (37.866338 37.866338 37.866338)
  1 by 2 by 2 MPI processor grid
  reading atoms ...
  70304 atoms
  reading velocities ...
  70304 velocities
  read_data CPU = 0.191 seconds
change_box all triclinic
Changing box ...
  triclinic box = (0.97250269 0.97250269 0.97250269) to (37.866338 37.866338 37.866338) with tilt (0 0 0)
mass 1 1
mass 2 1
pair_modify shift yes
pair_coeff  1 1 1 1
pair_coeff  1 2 1.5 0.8
pair_coeff  2 2 0.5 0.88


timestep 0.01
thermo ${iStep}
thermo 1000
reset_timestep 0
thermo_style custom step temp pe etotal press vol lx ly lz
fix             1 all nvt temp ${TLJ}  ${TLJ}  0.1
fix             1 all nvt temp 0.46  ${TLJ}  0.1
fix             1 all nvt temp 0.46  0.46  0.1
thermo_modify flush yes

fix dsf all deform 1 xy  wiggle 0.5  ${f}   units box
fix dsf all deform 1 xy  wiggle 0.5  1000   units box
fix ps1 all ave/time 1 1 ${iStep} c_thermo_press[1] c_thermo_press[2]  c_thermo_press[3] c_thermo_press[4]  c_thermo_press[5] c_thermo_press[6]  file  stress.${T}
fix ps1 all ave/time 1 1 1000 c_thermo_press[1] c_thermo_press[2]  c_thermo_press[3] c_thermo_press[4]  c_thermo_press[5] c_thermo_press[6]  file  stress.${T}
fix ps1 all ave/time 1 1 1000 c_thermo_press[1] c_thermo_press[2]  c_thermo_press[3] c_thermo_press[4]  c_thermo_press[5] c_thermo_press[6]  file  stress.460
dump            1 all custom ${dumpStep} dump.${T} id type x y z
dump            1 all custom 100000 dump.${T} id type x y z
dump            1 all custom 100000 dump.460 id type x y z
dump_modify 1 sort id
fix nodrift all momentum 1  linear 1 1 1
fix com_seed all recenter INIT INIT INIT shift all
run ${runStep}
run 1000000
Generated 0 of 1 mixed pair_coeff terms from geometric mixing rule
Per MPI rank memory allocation (min/avg/max) = 8.61 | 8.613 | 8.618 Mbytes
   Step          Temp          PotEng         TotEng         Press          Volume           Lx             Ly             Lz      
         0   0.4590978     -7.8986281     -7.2099911      2.9759023      50218.233      36.893836      36.893836      36.893836    
      1000   0.46071564    -7.8922312     -7.2011675      3.0277573      50218.233      36.893836      36.893836      36.893836    
      2000   0.45941827    -7.890235      -7.2011174      3.0467744      50218.233      36.893836      36.893836      36.893836    
      3000   0.46498595    -7.8898744     -7.1924054      3.0563892      50218.233      36.893836      36.893836      36.893836    
      4000   0.46101875    -7.8880193     -7.196501       3.0702678      50218.233      36.893836      36.893836      36.893836    
      5000   0.46035503    -7.8887825     -7.1982598      3.0507819      50218.233      36.893836      36.893836      36.893836    
      6000   0.46147429    -7.8904488     -7.1982472      3.0483116      50218.233      36.893836      36.893836      36.893836    
      7000   0.45919945    -7.8897699     -7.2009805      3.0435577      50218.233      36.893836      36.893836      36.893836    
      8000   0.45957211    -7.8915362     -7.2021879      3.0345119      50218.233      36.893836      36.893836      36.893836    
      9000   0.45937997    -7.8916542     -7.202594       3.0361367      50218.233      36.893836      36.893836      36.893836    
     10000   0.46113422    -7.8921594     -7.2004679      3.0382354      50218.233      36.893836      36.893836      36.893836    
     11000   0.46016096    -7.889961      -7.1997293      3.0404638      50218.233      36.893836      36.893836      36.893836    
     12000   0.45889129    -7.8876037     -7.1992765      3.0696844      50218.233      36.893836      36.893836      36.893836    
     13000   0.4607706     -7.8911611     -7.200015       3.0441426      50218.233      36.893836      36.893836      36.893836    
     14000   0.45920276    -7.8902478     -7.2014534      3.0354214      50218.233      36.893836      36.893836      36.893836    
     15000   0.46052166    -7.8929202     -7.2021476      3.0337408      50218.233      36.893836      36.893836      36.893836    
     16000   0.46165105    -7.8910454     -7.1985786      3.0370916      50218.233      36.893836      36.893836      36.893836    
     17000   0.45989353    -7.8871225     -7.197292       3.0507334      50218.233      36.893836      36.893836      36.893836    
     18000   0.46203782    -7.8934991     -7.2004522      3.0188092      50218.233      36.893836      36.893836      36.893836    
     19000   0.45790285    -7.8872085     -7.200364       3.059228       50218.233      36.893836      36.893836      36.893836    
     20000   0.45760717    -7.8915444     -7.2051434      3.0315636      50218.233      36.893836      36.893836      36.893836    
     21000   0.45826972    -7.8908723     -7.2034775      3.0393644      50218.233      36.893836      36.893836      36.893836    
     22000   0.45973822    -7.8887009     -7.1991034      3.0557493      50218.233      36.893836      36.893836      36.893836    
     23000   0.46173711    -7.8930161     -7.2004203      3.031277       50218.233      36.893836      36.893836      36.893836    
     24000   0.45969784    -7.8897219     -7.200185       3.0609395      50218.233      36.893836      36.893836      36.893836    
     25000   0.45945605    -7.8894547     -7.2002805      3.0594847      50218.233      36.893836      36.893836      36.893836    
     26000   0.46071297    -7.8879308     -7.1968711      3.0610352      50218.233      36.893836      36.893836      36.893836    
     27000   0.45788097    -7.8898843     -7.2030726      3.0548373      50218.233      36.893836      36.893836      36.893836    
     28000   0.45797101    -7.889256      -7.2023093      3.0540569      50218.233      36.893836      36.893836      36.893836    
     29000   0.45908516    -7.8901406     -7.2015227      3.039584       50218.233      36.893836      36.893836      36.893836    
     30000   0.46020583    -7.8894837     -7.1991848      3.0451243      50218.233      36.893836      36.893836      36.893836    
     31000   0.45876214    -7.8906259     -7.2024925      3.0482436      50218.233      36.893836      36.893836      36.893836    
     32000   0.46130027    -7.8925437     -7.2006032      3.027205       50218.233      36.893836      36.893836      36.893836    
     33000   0.45920422    -7.891424      -7.2026274      3.0366845      50218.233      36.893836      36.893836      36.893836    
     34000   0.45960417    -7.8892123     -7.1998159      3.0455707      50218.233      36.893836      36.893836      36.893836    
     35000   0.46048087    -7.8911762     -7.2004648      3.0383986      50218.233      36.893836      36.893836      36.893836    
     36000   0.45843196    -7.8862655     -7.1986273      3.075367       50218.233      36.893836      36.893836      36.893836    
     37000   0.46162695    -7.8867767     -7.1943461      3.07287        50218.233      36.893836      36.893836      36.893836    
     38000   0.45904612    -7.8910901     -7.2025307      3.0395869      50218.233      36.893836      36.893836      36.893836    
     39000   0.46000154    -7.8894112     -7.1994187      3.0440916      50218.233      36.893836      36.893836      36.893836    
     40000   0.4609056     -7.8880349     -7.1966864      3.0588433      50218.233      36.893836      36.893836      36.893836    
     41000   0.46105179    -7.8877574     -7.1961896      3.0560836      50218.233      36.893836      36.893836      36.893836    
     42000   0.46003408    -7.892338      -7.2022967      3.0333569      50218.233      36.893836      36.893836      36.893836    
     43000   0.45886195    -7.8884711     -7.200188       3.0595034      50218.233      36.893836      36.893836      36.893836    
     44000   0.46122963    -7.8893343     -7.1974997      3.0405202      50218.233      36.893836      36.893836      36.893836    
     45000   0.4613443     -7.8910077     -7.1990011      3.052872       50218.233      36.893836      36.893836      36.893836    
     46000   0.45861584    -7.8928697     -7.2049557      3.0244307      50218.233      36.893836      36.893836      36.893836    
     47000   0.45890349    -7.8944705     -7.2061251      3.0133911      50218.233      36.893836      36.893836      36.893836    
     48000   0.45952814    -7.8890314     -7.199749       3.0592594      50218.233      36.893836      36.893836      36.893836    
     49000   0.45999788    -7.8902414     -7.2002544      3.0461058      50218.233      36.893836      36.893836      36.893836    
     50000   0.45987715    -7.894235      -7.2044291      3.0165356      50218.233      36.893836      36.893836      36.893836    
     51000   0.4616369     -7.8930633     -7.2006178      3.0322512      50218.233      36.893836      36.893836      36.893836    
     52000   0.45925483    -7.8916796     -7.2028072      3.0313062      50218.233      36.893836      36.893836      36.893836    
     53000   0.4600489     -7.8915184     -7.2014549      3.0379473      50218.233      36.893836      36.893836      36.893836    
     54000   0.45998085    -7.8968074     -7.206846       2.995472       50218.233      36.893836      36.893836      36.893836    
     55000   0.46050076    -7.8900877     -7.1993464      3.0449093      50218.233      36.893836      36.893836      36.893836    
     56000   0.4605985     -7.8922511     -7.2013631      3.0184858      50218.233      36.893836      36.893836      36.893836    
     57000   0.46014064    -7.8944032     -7.2042021      3.0058873      50218.233      36.893836      36.893836      36.893836    
     58000   0.46061641    -7.8946408     -7.203726       3.0138433      50218.233      36.893836      36.893836      36.893836    
     59000   0.46068124    -7.8945386     -7.2035266      3.0084109      50218.233      36.893836      36.893836      36.893836    
     60000   0.46164068    -7.8911604     -7.1987092      3.0446159      50218.233      36.893836      36.893836      36.893836    
     61000   0.45919342    -7.8904057     -7.2016254      3.0372288      50218.233      36.893836      36.893836      36.893836    
     62000   0.46110857    -7.8886134     -7.1969604      3.0614458      50218.233      36.893836      36.893836      36.893836    
     63000   0.4592434     -7.8883092     -7.1994539      3.0549184      50218.233      36.893836      36.893836      36.893836    
     64000   0.45885125    -7.8901761     -7.201909       3.047295       50218.233      36.893836      36.893836      36.893836    
     65000   0.45874078    -7.8937113     -7.2056099      3.0188157      50218.233      36.893836      36.893836      36.893836    
     66000   0.45925702    -7.890071      -7.2011953      3.0490139      50218.233      36.893836      36.893836      36.893836    
     67000   0.46052272    -7.8929631     -7.2021888      3.0287634      50218.233      36.893836      36.893836      36.893836    
     68000   0.46148878    -7.8898216     -7.1975982      3.0473332      50218.233      36.893836      36.893836      36.893836    
     69000   0.45835382    -7.8943563     -7.2068353      3.0117085      50218.233      36.893836      36.893836      36.893836    
     70000   0.45831898    -7.888591      -7.2011223      3.0527646      50218.233      36.893836      36.893836      36.893836    
     71000   0.46100878    -7.8904995     -7.1989962      3.0428492      50218.233      36.893836      36.893836      36.893836    
     72000   0.45840055    -7.8908421     -7.2032511      3.0477085      50218.233      36.893836      36.893836      36.893836    
     73000   0.45897263    -7.8923373     -7.2038882      3.0324421      50218.233      36.893836      36.893836      36.893836    
     74000   0.46026215    -7.8901777     -7.1997943      3.0436618      50218.233      36.893836      36.893836      36.893836    
     75000   0.46005627    -7.8872888     -7.1972142      3.0705819      50218.233      36.893836      36.893836      36.893836    
     76000   0.45953931    -7.8919233     -7.2026242      3.03328        50218.233      36.893836      36.893836      36.893836    
     77000   0.45946767    -7.8937219     -7.2045302      3.0201297      50218.233      36.893836      36.893836      36.893836    
     78000   0.46140903    -7.8916908     -7.1995871      3.0336262      50218.233      36.893836      36.893836      36.893836    
     79000   0.45969513    -7.8921281     -7.2025952      3.0301649      50218.233      36.893836      36.893836      36.893836    
     80000   0.4609754     -7.8898007     -7.1983475      3.0501441      50218.233      36.893836      36.893836      36.893836    
     81000   0.46077341    -7.8938976     -7.2027473      3.015842       50218.233      36.893836      36.893836      36.893836    
     82000   0.45970884    -7.8960025     -7.206449       3.0027651      50218.233      36.893836      36.893836      36.893836    
     83000   0.46148573    -7.8948188     -7.2026         3.0097544      50218.233      36.893836      36.893836      36.893836    
     84000   0.46013835    -7.8913691     -7.2011714      3.0375253      50218.233      36.893836      36.893836      36.893836    
     85000   0.45663452    -7.8876885     -7.2027465      3.050548       50218.233      36.893836      36.893836      36.893836    
     86000   0.46050634    -7.8892746     -7.1985249      3.0472972      50218.233      36.893836      36.893836      36.893836    
     87000   0.46176967    -7.8926578     -7.2000132      3.0311906      50218.233      36.893836      36.893836      36.893836    
     88000   0.45894113    -7.8912452     -7.2028433      3.0342037      50218.233      36.893836      36.893836      36.893836    
     89000   0.46251988    -7.8935839     -7.199814       3.020037       50218.233      36.893836      36.893836      36.893836    
     90000   0.46094489    -7.8923305     -7.200923       3.0297585      50218.233      36.893836      36.893836      36.893836    
     91000   0.45823068    -7.8905847     -7.2032484      3.050171       50218.233      36.893836      36.893836      36.893836    
     92000   0.45893784    -7.8891515     -7.2007545      3.0592704      50218.233      36.893836      36.893836      36.893836    
     93000   0.46198222    -7.8896362     -7.1966728      3.0551299      50218.233      36.893836      36.893836      36.893836    
     94000   0.46007166    -7.890497      -7.2003994      3.0417932      50218.233      36.893836      36.893836      36.893836    
     95000   0.46401098    -7.8934927     -7.1974861      3.0285416      50218.233      36.893836      36.893836      36.893836    
     96000   0.4612989     -7.8931168     -7.2011783      3.0273213      50218.233      36.893836      36.893836      36.893836    
     97000   0.46103431    -7.888561      -7.1970194      3.0565934      50218.233      36.893836      36.893836      36.893836    
     98000   0.46122609    -7.8906091     -7.1987798      3.0494229      50218.233      36.893836      36.893836      36.893836    
     99000   0.45996102    -7.8914647     -7.201533       3.0390551      50218.233      36.893836      36.893836      36.893836    
    100000   0.46119028    -7.8921791     -7.2004035      3.0338245      50218.233      36.893836      36.893836      36.893836    
    101000   0.46129212    -7.891334      -7.1994057      3.0408028      50218.233      36.893836      36.893836      36.893836    
    102000   0.46138705    -7.8926496     -7.2005789      3.0354344      50218.233      36.893836      36.893836      36.893836    
    103000   0.45934186    -7.8903503     -7.2013473      3.0323079      50218.233      36.893836      36.893836      36.893836    
    104000   0.45814142    -7.8907185     -7.2035162      3.0406251      50218.233      36.893836      36.893836      36.893836    
    105000   0.46191324    -7.8898872     -7.1970272      3.057733       50218.233      36.893836      36.893836      36.893836    
    106000   0.46013755    -7.8926199     -7.2024234      3.0319412      50218.233      36.893836      36.893836      36.893836    
    107000   0.45867285    -7.8903438     -7.2023443      3.0373235      50218.233      36.893836      36.893836      36.893836    
    108000   0.46045237    -7.8917378     -7.201069       3.0262715      50218.233      36.893836      36.893836      36.893836    
    109000   0.4601851     -7.8948275     -7.2045596      3.0088379      50218.233      36.893836      36.893836      36.893836    
    110000   0.46188717    -7.8908673     -7.1980464      3.0455172      50218.233      36.893836      36.893836      36.893836    
    111000   0.46252928    -7.8950166     -7.2012326      3.0185463      50218.233      36.893836      36.893836      36.893836    
    112000   0.46190128    -7.8961741     -7.2033321      3.0089749      50218.233      36.893836      36.893836      36.893836    
    113000   0.45974178    -7.8916643     -7.2020614      3.0432579      50218.233      36.893836      36.893836      36.893836    
    114000   0.46022041    -7.8911371     -7.2008163      3.0438174      50218.233      36.893836      36.893836      36.893836    
    115000   0.45965483    -7.8926998     -7.2032274      3.0298764      50218.233      36.893836      36.893836      36.893836    
    116000   0.45752525    -7.8953372     -7.2090591      3.0058294      50218.233      36.893836      36.893836      36.893836    
    117000   0.45997869    -7.8896277     -7.1996695      3.040227       50218.233      36.893836      36.893836      36.893836    
    118000   0.46029997    -7.8916334     -7.2011933      3.0303492      50218.233      36.893836      36.893836      36.893836    
    119000   0.45880125    -7.8921539     -7.2039618      3.0212633      50218.233      36.893836      36.893836      36.893836    
    120000   0.45923443    -7.8919079     -7.2030661      3.032116       50218.233      36.893836      36.893836      36.893836    
    121000   0.46160803    -7.8920158     -7.1996137      3.02712        50218.233      36.893836      36.893836      36.893836    
    122000   0.45900348    -7.89189       -7.2033946      3.0346644      50218.233      36.893836      36.893836      36.893836    
    123000   0.4632753     -7.8930336     -7.1981306      3.0269851      50218.233      36.893836      36.893836      36.893836    
    124000   0.45947938    -7.8881955     -7.1989862      3.0617863      50218.233      36.893836      36.893836      36.893836    
    125000   0.45992199    -7.8925751     -7.2027019      3.0185673      50218.233      36.893836      36.893836      36.893836    
    126000   0.45950794    -7.8881845     -7.1989324      3.0582154      50218.233      36.893836      36.893836      36.893836    
    127000   0.46180021    -7.8947256     -7.2020351      3.0127397      50218.233      36.893836      36.893836      36.893836    
    128000   0.45846207    -7.8950603     -7.207377       3.0138855      50218.233      36.893836      36.893836      36.893836    
    129000   0.45775164    -7.8913686     -7.2047509      3.0399665      50218.233      36.893836      36.893836      36.893836    
    130000   0.45971819    -7.8852679     -7.1957004      3.0887075      50218.233      36.893836      36.893836      36.893836    
    131000   0.45846119    -7.8883055     -7.2006235      3.0490498      50218.233      36.893836      36.893836      36.893836    
    132000   0.45912201    -7.8926851     -7.2040119      3.0196532      50218.233      36.893836      36.893836      36.893836    
    133000   0.45978963    -7.8914783     -7.2018037      3.030957       50218.233      36.893836      36.893836      36.893836    
    134000   0.45800449    -7.8902212     -7.2032243      3.0492627      50218.233      36.893836      36.893836      36.893836    
    135000   0.45766754    -7.8905994     -7.2041079      3.0367629      50218.233      36.893836      36.893836      36.893836    
    136000   0.45935518    -7.8910245     -7.2020016      3.0290325      50218.233      36.893836      36.893836      36.893836    
    137000   0.46031796    -7.8917732     -7.2013061      3.034376       50218.233      36.893836      36.893836      36.893836    
    138000   0.46042572    -7.8937056     -7.2030768      3.019717       50218.233      36.893836      36.893836      36.893836    
    139000   0.46046836    -7.8917221     -7.2010294      3.0443722      50218.233      36.893836      36.893836      36.893836    
    140000   0.46044318    -7.8940498     -7.2033949      3.0279244      50218.233      36.893836      36.893836      36.893836    
    141000   0.4606766     -7.8909292     -7.1999241      3.0410347      50218.233      36.893836      36.893836      36.893836    
    142000   0.45835809    -7.8910617     -7.2035344      3.0319262      50218.233      36.893836      36.893836      36.893836    
    143000   0.46046729    -7.8910229     -7.2003317      3.0454093      50218.233      36.893836      36.893836      36.893836    
    144000   0.46148054    -7.8923033     -7.2000923      3.0329308      50218.233      36.893836      36.893836      36.893836    
    145000   0.46152737    -7.8915082     -7.199227       3.0484594      50218.233      36.893836      36.893836      36.893836    
    146000   0.46021166    -7.8907137     -7.200406       3.0379509      50218.233      36.893836      36.893836      36.893836    
    147000   0.46255561    -7.8912315     -7.197408       3.052365       50218.233      36.893836      36.893836      36.893836    
    148000   0.45823215    -7.8915566     -7.2042182      3.0371297      50218.233      36.893836      36.893836      36.893836    
    149000   0.46206663    -7.8896713     -7.1965812      3.0540101      50218.233      36.893836      36.893836      36.893836    
    150000   0.45907838    -7.8901671     -7.2015593      3.0547374      50218.233      36.893836      36.893836      36.893836    
    151000   0.46247297    -7.8922729     -7.1985733      3.0311666      50218.233      36.893836      36.893836      36.893836    
    152000   0.4603388     -7.892654      -7.2021556      3.0286182      50218.233      36.893836      36.893836      36.893836    
    153000   0.45994466    -7.8922095     -7.2023023      3.0374921      50218.233      36.893836      36.893836      36.893836    
    154000   0.45940253    -7.8945685     -7.2054745      3.0156879      50218.233      36.893836      36.893836      36.893836    
    155000   0.46092745    -7.8932608     -7.2018795      3.023606       50218.233      36.893836      36.893836      36.893836    
    156000   0.46064737    -7.8946445     -7.2036833      3.0090422      50218.233      36.893836      36.893836      36.893836    
    157000   0.46009899    -7.8917321     -7.2015935      3.0316176      50218.233      36.893836      36.893836      36.893836    
    158000   0.459891      -7.8913414     -7.2015147      3.044556       50218.233      36.893836      36.893836      36.893836    
    159000   0.45940168    -7.8903681     -7.2012754      3.0413971      50218.233      36.893836      36.893836      36.893836    
    160000   0.46028373    -7.8917003     -7.2012845      3.0154257      50218.233      36.893836      36.893836      36.893836    
    161000   0.46105241    -7.8889329     -7.1973641      3.0557063      50218.233      36.893836      36.893836      36.893836    
    162000   0.46116427    -7.8929229     -7.2011864      3.0322095      50218.233      36.893836      36.893836      36.893836    
    163000   0.46059673    -7.8901884     -7.1993031      3.0338723      50218.233      36.893836      36.893836      36.893836    
    164000   0.46191049    -7.8891732     -7.1963173      3.0519009      50218.233      36.893836      36.893836      36.893836    
    165000   0.45844684    -7.8907496     -7.2030891      3.0398178      50218.233      36.893836      36.893836      36.893836    
    166000   0.46200482    -7.8933466     -7.2003492      3.0252089      50218.233      36.893836      36.893836      36.893836    
    167000   0.46275639    -7.8912785     -7.1971538      3.0368227      50218.233      36.893836      36.893836      36.893836    
    168000   0.45910305    -7.894124      -7.2054792      3.0113889      50218.233      36.893836      36.893836      36.893836    
    169000   0.459671      -7.8899792     -7.2004825      3.0490728      50218.233      36.893836      36.893836      36.893836    
    170000   0.45907004    -7.8881818     -7.1995865      3.0656339      50218.233      36.893836      36.893836      36.893836    
    171000   0.46045517    -7.8887307     -7.1980578      3.0581758      50218.233      36.893836      36.893836      36.893836    
    172000   0.46128231    -7.8913445     -7.1994309      3.0326497      50218.233      36.893836      36.893836      36.893836    
    173000   0.46165135    -7.8913651     -7.1988979      3.0423705      50218.233      36.893836      36.893836      36.893836    
    174000   0.46197641    -7.8877596     -7.1948048      3.0630484      50218.233      36.893836      36.893836      36.893836    
    175000   0.45855219    -7.8913814     -7.2035629      3.0445738      50218.233      36.893836      36.893836      36.893836    
    176000   0.46067904    -7.8919743     -7.2009656      3.0301416      50218.233      36.893836      36.893836      36.893836    
    177000   0.4588776     -7.8900821     -7.2017755      3.0352226      50218.233      36.893836      36.893836      36.893836    
    178000   0.46016298    -7.8901551     -7.1999204      3.0454898      50218.233      36.893836      36.893836      36.893836    
    179000   0.46062944    -7.8896715     -7.1987372      3.0546423      50218.233      36.893836      36.893836      36.893836    
    180000   0.45966352    -7.8904634     -7.2009779      3.0454502      50218.233      36.893836      36.893836      36.893836    
    181000   0.45920485    -7.8886368     -7.1998394      3.0607615      50218.233      36.893836      36.893836      36.893836    
    182000   0.46102234    -7.8887918     -7.1972681      3.0556422      50218.233      36.893836      36.893836      36.893836    
    183000   0.4576248     -7.8905261     -7.2040987      3.0397814      50218.233      36.893836      36.893836      36.893836    
    184000   0.45898713    -7.8902155     -7.2017446      3.0450186      50218.233      36.893836      36.893836      36.893836    
    185000   0.46012821    -7.8914961     -7.2013136      3.0389485      50218.233      36.893836      36.893836      36.893836    
    186000   0.45977871    -7.8930044     -7.2033462      3.0284679      50218.233      36.893836      36.893836      36.893836    
    187000   0.45946639    -7.8927758     -7.203586       3.0357392      50218.233      36.893836      36.893836      36.893836    
    188000   0.45947286    -7.889272      -7.2000725      3.0512467      50218.233      36.893836      36.893836      36.893836    
    189000   0.4617537     -7.8917128     -7.1990921      3.0350911      50218.233      36.893836      36.893836      36.893836    
    190000   0.45966975    -7.8898926     -7.2003978      3.0529495      50218.233      36.893836      36.893836      36.893836    
    191000   0.46079222    -7.8914724     -7.2002939      3.0347272      50218.233      36.893836      36.893836      36.893836    
    192000   0.46342134    -7.8929208     -7.1977987      3.0432422      50218.233      36.893836      36.893836      36.893836    
    193000   0.45919189    -7.8926224     -7.2038444      3.0315971      50218.233      36.893836      36.893836      36.893836    
    194000   0.45975821    -7.8871493     -7.1975218      3.073195       50218.233      36.893836      36.893836      36.893836    
    195000   0.46137587    -7.8915013     -7.1994473      3.0356832      50218.233      36.893836      36.893836      36.893836    
    196000   0.46042535    -7.888742      -7.1981138      3.058878       50218.233      36.893836      36.893836      36.893836    
    197000   0.46139363    -7.8891969     -7.1971163      3.0589967      50218.233      36.893836      36.893836      36.893836    
    198000   0.46104109    -7.8942057     -7.2026539      3.010532       50218.233      36.893836      36.893836      36.893836    
    199000   0.45899903    -7.8917832     -7.2032944      3.0378289      50218.233      36.893836      36.893836      36.893836    
    200000   0.46055342    -7.8926808     -7.2018605      3.0226895      50218.233      36.893836      36.893836      36.893836    
    201000   0.46036423    -7.8937385     -7.203202       3.0131973      50218.233      36.893836      36.893836      36.893836    
    202000   0.46086451    -7.8936122     -7.2023253      3.030719       50218.233      36.893836      36.893836      36.893836    
    203000   0.46000221    -7.8902008     -7.2002073      3.0626748      50218.233      36.893836      36.893836      36.893836    
    204000   0.45927134    -7.8889768     -7.2000796      3.0569452      50218.233      36.893836      36.893836      36.893836    
    205000   0.45955065    -7.8930065     -7.2036903      3.0230188      50218.233      36.893836      36.893836      36.893836    
    206000   0.46137954    -7.8923776     -7.2003181      3.0227371      50218.233      36.893836      36.893836      36.893836    
    207000   0.46052519    -7.8924184     -7.2016405      3.0318487      50218.233      36.893836      36.893836      36.893836    
    208000   0.45854762    -7.8922335     -7.2044218      3.0203914      50218.233      36.893836      36.893836      36.893836    
    209000   0.45838856    -7.8920515     -7.2044785      3.0377851      50218.233      36.893836      36.893836      36.893836    
    210000   0.46188663    -7.8901881     -7.197368       3.0419019      50218.233      36.893836      36.893836      36.893836    
    211000   0.46057782    -7.8901623     -7.1993054      3.0390937      50218.233      36.893836      36.893836      36.893836    
    212000   0.46111617    -7.892199      -7.2005346      3.0342736      50218.233      36.893836      36.893836      36.893836    
    213000   0.45773756    -7.8939644     -7.2073679      3.0217144      50218.233      36.893836      36.893836      36.893836    
    214000   0.46132433    -7.8917542     -7.1997775      3.0367197      50218.233      36.893836      36.893836      36.893836    
    215000   0.46078227    -7.8917736     -7.20061        3.029704       50218.233      36.893836      36.893836      36.893836    
    216000   0.45838055    -7.8911218     -7.2035608      3.0341976      50218.233      36.893836      36.893836      36.893836    
    217000   0.45947583    -7.8890402     -7.1998363      3.0622395      50218.233      36.893836      36.893836      36.893836    
    218000   0.46098486    -7.8877888     -7.1963213      3.0605536      50218.233      36.893836      36.893836      36.893836    
    219000   0.46084848    -7.8921896     -7.2009267      3.0235175      50218.233      36.893836      36.893836      36.893836    
    220000   0.46081985    -7.8880723     -7.1968524      3.0575061      50218.233      36.893836      36.893836      36.893836    
    221000   0.46283106    -7.8884549     -7.1942182      3.0693453      50218.233      36.893836      36.893836      36.893836    
    222000   0.45730977    -7.8902659     -7.204311       3.0393347      50218.233      36.893836      36.893836      36.893836    
    223000   0.46050914    -7.8907765     -7.2000226      3.0390356      50218.233      36.893836      36.893836      36.893836    
    224000   0.45736243    -7.8869839     -7.2009501      3.0598601      50218.233      36.893836      36.893836      36.893836    
    225000   0.45655038    -7.8860402     -7.2012243      3.074029       50218.233      36.893836      36.893836      36.893836    
    226000   0.45986232    -7.8930977     -7.203314       3.0250273      50218.233      36.893836      36.893836      36.893836    
    227000   0.46135577    -7.8900879     -7.1980641      3.0538797      50218.233      36.893836      36.893836      36.893836    
    228000   0.45948013    -7.8922906     -7.2030802      3.0332569      50218.233      36.893836      36.893836      36.893836    
    229000   0.4598413     -7.8884992     -7.1987471      3.0575354      50218.233      36.893836      36.893836      36.893836    
    230000   0.4603903     -7.8921546     -7.201579       3.0353358      50218.233      36.893836      36.893836      36.893836    
    231000   0.45935515    -7.8920594     -7.2030364      3.0336287      50218.233      36.893836      36.893836      36.893836    
    232000   0.45844779    -7.8930059     -7.205344       3.029233       50218.233      36.893836      36.893836      36.893836    
    233000   0.46135477    -7.8886161     -7.1965938      3.0539192      50218.233      36.893836      36.893836      36.893836    
    234000   0.4582105     -7.8879612     -7.2006552      3.0607823      50218.233      36.893836      36.893836      36.893836    
    235000   0.46093729    -7.8861768     -7.1947807      3.0830816      50218.233      36.893836      36.893836      36.893836    
    236000   0.45969986    -7.8890663     -7.1995263      3.0456151      50218.233      36.893836      36.893836      36.893836    
    237000   0.46014193    -7.8898184     -7.1996153      3.0341345      50218.233      36.893836      36.893836      36.893836    
    238000   0.46289895    -7.8873093     -7.1929708      3.0629715      50218.233      36.893836      36.893836      36.893836    
    239000   0.45721037    -7.8869206     -7.2011148      3.0669803      50218.233      36.893836      36.893836      36.893836    
    240000   0.46131349    -7.8909985     -7.1990381      3.0420488      50218.233      36.893836      36.893836      36.893836    
    241000   0.46078641    -7.8942892     -7.2031194      3.0216686      50218.233      36.893836      36.893836      36.893836    
    242000   0.45882522    -7.8927735     -7.2045455      3.0237388      50218.233      36.893836      36.893836      36.893836    
    243000   0.46028894    -7.8914018     -7.2009782      3.0386482      50218.233      36.893836      36.893836      36.893836    
    244000   0.4589397     -7.8930088     -7.204609       3.0126053      50218.233      36.893836      36.893836      36.893836    
    245000   0.46151806    -7.8910232     -7.1987559      3.0380513      50218.233      36.893836      36.893836      36.893836    
    246000   0.45815813    -7.8926417     -7.2054143      3.0229554      50218.233      36.893836      36.893836      36.893836    
    247000   0.45861923    -7.88964       -7.2017209      3.0456051      50218.233      36.893836      36.893836      36.893836    
    248000   0.46072397    -7.8912347     -7.2001585      3.0389896      50218.233      36.893836      36.893836      36.893836    
    249000   0.45914132    -7.8931334     -7.2044312      3.0177491      50218.233      36.893836      36.893836      36.893836    
    250000   0.45990008    -7.8894902     -7.1996499      3.0511541      50218.233      36.893836      36.893836      36.893836    
    251000   0.45907171    -7.8897148     -7.2011171      3.0457849      50218.233      36.893836      36.893836      36.893836    
    252000   0.45859246    -7.8944283     -7.2065494      3.0149387      50218.233      36.893836      36.893836      36.893836    
    253000   0.45815008    -7.8916107     -7.2043954      3.0292104      50218.233      36.893836      36.893836      36.893836    
    254000   0.46138462    -7.8913418     -7.1992747      3.0314756      50218.233      36.893836      36.893836      36.893836    
    255000   0.45700005    -7.8890727     -7.2035824      3.0470741      50218.233      36.893836      36.893836      36.893836    
    256000   0.46082286    -7.8905119     -7.1992874      3.041162       50218.233      36.893836      36.893836      36.893836    
    257000   0.4630077     -7.8918133     -7.1973116      3.0390402      50218.233      36.893836      36.893836      36.893836    
    258000   0.45887751    -7.8929058     -7.2045993      3.0245459      50218.233      36.893836      36.893836      36.893836    
    259000   0.45827976    -7.888133      -7.2007232      3.0558121      50218.233      36.893836      36.893836      36.893836    
    260000   0.45977141    -7.8898236     -7.2001763      3.0504884      50218.233      36.893836      36.893836      36.893836    
    261000   0.45967839    -7.8874281     -7.1979203      3.0773389      50218.233      36.893836      36.893836      36.893836    
    262000   0.45972458    -7.8936738     -7.2040968      3.0224279      50218.233      36.893836      36.893836      36.893836    
    263000   0.45965878    -7.8914741     -7.2019958      3.0290653      50218.233      36.893836      36.893836      36.893836    
    264000   0.46017567    -7.890857      -7.2006033      3.0395604      50218.233      36.893836      36.893836      36.893836    
    265000   0.4593314     -7.8943695     -7.2053822      3.0078925      50218.233      36.893836      36.893836      36.893836    
    266000   0.45877565    -7.8875149     -7.1993612      3.0632195      50218.233      36.893836      36.893836      36.893836    
    267000   0.45805585    -7.8865801     -7.1995061      3.0658438      50218.233      36.893836      36.893836      36.893836    
    268000   0.45976635    -7.8869667     -7.197327       3.0678465      50218.233      36.893836      36.893836      36.893836    
    269000   0.45940256    -7.8920796     -7.2029855      3.0235652      50218.233      36.893836      36.893836      36.893836    
    270000   0.4586834     -7.8885753     -7.20056        3.0491408      50218.233      36.893836      36.893836      36.893836    
    271000   0.46084875    -7.885267      -7.1940037      3.0748626      50218.233      36.893836      36.893836      36.893836    
    272000   0.45986908    -7.8937415     -7.2039477      3.0139899      50218.233      36.893836      36.893836      36.893836    
    273000   0.4605637     -7.8918922     -7.2010565      3.0399172      50218.233      36.893836      36.893836      36.893836    
    274000   0.46301871    -7.8927232     -7.198205       3.0311534      50218.233      36.893836      36.893836      36.893836    
    275000   0.46232847    -7.8920351     -7.1985523      3.036415       50218.233      36.893836      36.893836      36.893836    
    276000   0.45887762    -7.891116      -7.2028093      3.0280838      50218.233      36.893836      36.893836      36.893836    
    277000   0.46194381    -7.8889525     -7.1960467      3.0533644      50218.233      36.893836      36.893836      36.893836    
    278000   0.4612483     -7.8903517     -7.1984891      3.0493364      50218.233      36.893836      36.893836      36.893836    
    279000   0.45974714    -7.8897541     -7.2001432      3.0474098      50218.233      36.893836      36.893836      36.893836    
    280000   0.46054487    -7.892437      -7.2016295      3.0297803      50218.233      36.893836      36.893836      36.893836    
    281000   0.46108517    -7.8937635     -7.2021455      3.0206165      50218.233      36.893836      36.893836      36.893836    
    282000   0.46076743    -7.8896816     -7.1985403      3.0540119      50218.233      36.893836      36.893836      36.893836    
    283000   0.45692127    -7.8908799     -7.2055077      3.0179491      50218.233      36.893836      36.893836      36.893836    
    284000   0.4628904     -7.8897939     -7.1954682      3.0616212      50218.233      36.893836      36.893836      36.893836    
    285000   0.45889274    -7.8900307     -7.2017014      3.047889       50218.233      36.893836      36.893836      36.893836    
    286000   0.45667315    -7.8936147     -7.2086148      3.011906       50218.233      36.893836      36.893836      36.893836    
    287000   0.45667487    -7.8892826     -7.2042801      3.0499072      50218.233      36.893836      36.893836      36.893836    
    288000   0.46227863    -7.8875409     -7.1941328      3.0649584      50218.233      36.893836      36.893836      36.893836    
    289000   0.46057437    -7.8914547     -7.200603       3.0340284      50218.233      36.893836      36.893836      36.893836    
    290000   0.45863263    -7.8931269     -7.2051877      3.0185833      50218.233      36.893836      36.893836      36.893836    
    291000   0.46069213    -7.887833      -7.1968046      3.0663467      50218.233      36.893836      36.893836      36.893836    
    292000   0.45969765    -7.895126      -7.2055894      3.0110168      50218.233      36.893836      36.893836      36.893836    
    293000   0.45953367    -7.8929108     -7.2036201      3.0242781      50218.233      36.893836      36.893836      36.893836    
    294000   0.45960189    -7.89406       -7.204667       3.022001       50218.233      36.893836      36.893836      36.893836    
    295000   0.45780853    -7.8923471     -7.205644       3.0179479      50218.233      36.893836      36.893836      36.893836    
    296000   0.4606222     -7.8924039     -7.2014804      3.033471       50218.233      36.893836      36.893836      36.893836    
    297000   0.45810453    -7.8871436     -7.1999966      3.06415        50218.233      36.893836      36.893836      36.893836    
    298000   0.46058855    -7.894945      -7.204072       3.0058337      50218.233      36.893836      36.893836      36.893836    
    299000   0.45896113    -7.8918686     -7.2034367      3.0350016      50218.233      36.893836      36.893836      36.893836    
    300000   0.45854377    -7.8887029     -7.200897       3.0595341      50218.233      36.893836      36.893836      36.893836    
    301000   0.45890235    -7.8921907     -7.203847       3.0244557      50218.233      36.893836      36.893836      36.893836    
    302000   0.46189127    -7.8937582     -7.2009311      3.0199719      50218.233      36.893836      36.893836      36.893836    
    303000   0.46059304    -7.8913476     -7.2004678      3.0363976      50218.233      36.893836      36.893836      36.893836    
    304000   0.46156204    -7.8925391     -7.2002059      3.0241006      50218.233      36.893836      36.893836      36.893836    
    305000   0.46080997    -7.8916542     -7.2004491      3.046539       50218.233      36.893836      36.893836      36.893836    
    306000   0.46054179    -7.8905728     -7.1997699      3.0532064      50218.233      36.893836      36.893836      36.893836    
    307000   0.46180964    -7.8942848     -7.2015802      3.0193501      50218.233      36.893836      36.893836      36.893836    
    308000   0.45851508    -7.8910286     -7.2032657      3.0371444      50218.233      36.893836      36.893836      36.893836    
    309000   0.46089401    -7.8905929     -7.1992617      3.0295243      50218.233      36.893836      36.893836      36.893836    
    310000   0.45986854    -7.8943521     -7.2045591      3.0301386      50218.233      36.893836      36.893836      36.893836    
    311000   0.46035731    -7.8893078     -7.1987817      3.0575146      50218.233      36.893836      36.893836      36.893836    
    312000   0.46118453    -7.8893245     -7.1975575      3.0597731      50218.233      36.893836      36.893836      36.893836    
    313000   0.4608976     -7.8919497     -7.2006131      3.0290837      50218.233      36.893836      36.893836      36.893836    
    314000   0.46016052    -7.8909654     -7.2007345      3.032934       50218.233      36.893836      36.893836      36.893836    
    315000   0.46043288    -7.8913742     -7.2007347      3.0409647      50218.233      36.893836      36.893836      36.893836    
    316000   0.46201784    -7.8881394     -7.1951225      3.0665819      50218.233      36.893836      36.893836      36.893836    
    317000   0.45740134    -7.891622      -7.2055298      3.0361797      50218.233      36.893836      36.893836      36.893836    
    318000   0.46076254    -7.8913042     -7.2001702      3.0393084      50218.233      36.893836      36.893836      36.893836    
    319000   0.45990391    -7.8910818     -7.2012357      3.0324948      50218.233      36.893836      36.893836      36.893836    
    320000   0.46042123    -7.8901107     -7.1994887      3.038058       50218.233      36.893836      36.893836      36.893836    
    321000   0.45969048    -7.8861449     -7.196619       3.0755164      50218.233      36.893836      36.893836      36.893836    
    322000   0.46075894    -7.8884763     -7.1973478      3.0502917      50218.233      36.893836      36.893836      36.893836    
    323000   0.46026355    -7.8900878     -7.1997022      3.0373359      50218.233      36.893836      36.893836      36.893836    
    324000   0.46136632    -7.8910675     -7.1990279      3.0391451      50218.233      36.893836      36.893836      36.893836    
    325000   0.46025476    -7.8913183     -7.200946       3.0402496      50218.233      36.893836      36.893836      36.893836    
    326000   0.45962572    -7.8883788     -7.19895        3.0663378      50218.233      36.893836      36.893836      36.893836    
    327000   0.45796157    -7.8899506     -7.203018       3.0508453      50218.233      36.893836      36.893836      36.893836    
    328000   0.46254695    -7.8886003     -7.1947897      3.0609959      50218.233      36.893836      36.893836      36.893836    
    329000   0.45927521    -7.8922591     -7.2033561      3.0302963      50218.233      36.893836      36.893836      36.893836    
    330000   0.46108709    -7.8873127     -7.1956919      3.066568       50218.233      36.893836      36.893836      36.893836    
    331000   0.46019946    -7.8907729     -7.2004836      3.0427011      50218.233      36.893836      36.893836      36.893836    
    332000   0.45837969    -7.8890441     -7.2014843      3.0615151      50218.233      36.893836      36.893836      36.893836    
    333000   0.46213699    -7.8874908     -7.1942952      3.0649227      50218.233      36.893836      36.893836      36.893836    
    334000   0.45973155    -7.8938127     -7.2042252      3.0208983      50218.233      36.893836      36.893836      36.893836    
    335000   0.46167147    -7.885194      -7.1926967      3.0833003      50218.233      36.893836      36.893836      36.893836    
    336000   0.45926014    -7.8916707     -7.2027902      3.0323041      50218.233      36.893836      36.893836      36.893836    
    337000   0.46124836    -7.8902433     -7.1983806      3.0533487      50218.233      36.893836      36.893836      36.893836    
    338000   0.45912328    -7.8924571     -7.203782       3.0219405      50218.233      36.893836      36.893836      36.893836    
    339000   0.46045022    -7.8915983     -7.2009328      3.0375788      50218.233      36.893836      36.893836      36.893836    
    340000   0.45833909    -7.8913627     -7.2038638      3.0369192      50218.233      36.893836      36.893836      36.893836    
    341000   0.45813423    -7.8910466     -7.203855       3.0332747      50218.233      36.893836      36.893836      36.893836    
    342000   0.4592607     -7.8919501     -7.2030688      3.0447583      50218.233      36.893836      36.893836      36.893836    
    343000   0.45997446    -7.8922542     -7.2023023      3.035443       50218.233      36.893836      36.893836      36.893836    
    344000   0.45926696    -7.893407      -7.2045163      3.0287709      50218.233      36.893836      36.893836      36.893836    
    345000   0.45959914    -7.8911508     -7.2017619      3.0321364      50218.233      36.893836      36.893836      36.893836    
    346000   0.45957494    -7.8934548     -7.2041022      3.0253066      50218.233      36.893836      36.893836      36.893836    
    347000   0.46071269    -7.8888502     -7.197791       3.0699875      50218.233      36.893836      36.893836      36.893836    
    348000   0.46180573    -7.890917      -7.1982182      3.0474883      50218.233      36.893836      36.893836      36.893836    
    349000   0.45995776    -7.8909039     -7.2009771      3.0380832      50218.233      36.893836      36.893836      36.893836    
    350000   0.46046063    -7.8928073     -7.2021262      3.0258695      50218.233      36.893836      36.893836      36.893836    
    351000   0.46021458    -7.8913384     -7.2010264      3.035561       50218.233      36.893836      36.893836      36.893836    
    352000   0.45916279    -7.8888852     -7.2001508      3.0580197      50218.233      36.893836      36.893836      36.893836    
    353000   0.45865192    -7.8909004     -7.2029323      3.0301814      50218.233      36.893836      36.893836      36.893836    
    354000   0.46090459    -7.8914925     -7.2001454      3.033009       50218.233      36.893836      36.893836      36.893836    
    355000   0.4606348     -7.8904022     -7.1994598      3.0419519      50218.233      36.893836      36.893836      36.893836    
    356000   0.46016654    -7.8887305     -7.1984905      3.0561226      50218.233      36.893836      36.893836      36.893836    
    357000   0.45931194    -7.8910653     -7.2021072      3.0412456      50218.233      36.893836      36.893836      36.893836    
    358000   0.46028636    -7.8906009     -7.2001812      3.0349934      50218.233      36.893836      36.893836      36.893836    
    359000   0.46007894    -7.8873408     -7.1972322      3.073791       50218.233      36.893836      36.893836      36.893836    
    360000   0.46001524    -7.8896984     -7.1996853      3.0542387      50218.233      36.893836      36.893836      36.893836    
    361000   0.45907129    -7.891977      -7.2033798      3.0315259      50218.233      36.893836      36.893836      36.893836    
    362000   0.45804122    -7.8915787     -7.2045266      3.0372973      50218.233      36.893836      36.893836      36.893836    
    363000   0.45740381    -7.8887788     -7.2026828      3.0517741      50218.233      36.893836      36.893836      36.893836    
    364000   0.45947677    -7.8916122     -7.2024069      3.0387938      50218.233      36.893836      36.893836      36.893836    
    365000   0.45977306    -7.8896579     -7.2000081      3.0459435      50218.233      36.893836      36.893836      36.893836    
    366000   0.45886181    -7.8881704     -7.1998875      3.0478944      50218.233      36.893836      36.893836      36.893836    
    367000   0.4594476     -7.8918916     -7.20273        3.0271436      50218.233      36.893836      36.893836      36.893836    
    368000   0.45764084    -7.8944018     -7.2079503      3.0169404      50218.233      36.893836      36.893836      36.893836    
    369000   0.45955227    -7.8881393     -7.1988207      3.0578755      50218.233      36.893836      36.893836      36.893836    
    370000   0.45995793    -7.8871823     -7.1972552      3.0715712      50218.233      36.893836      36.893836      36.893836    
    371000   0.45906622    -7.889556      -7.2009664      3.0541435      50218.233      36.893836      36.893836      36.893836    
    372000   0.45842044    -7.8877296     -7.2001087      3.0635111      50218.233      36.893836      36.893836      36.893836    
    373000   0.45840831    -7.8874119     -7.1998092      3.0713004      50218.233      36.893836      36.893836      36.893836    
    374000   0.45836784    -7.8917857     -7.2042437      3.0330932      50218.233      36.893836      36.893836      36.893836    
    375000   0.46176502    -7.8841383     -7.1915006      3.0963826      50218.233      36.893836      36.893836      36.893836    
    376000   0.4601844     -7.8932471     -7.2029803      3.0334105      50218.233      36.893836      36.893836      36.893836    
    377000   0.46109771    -7.8942261     -7.2025894      3.0174825      50218.233      36.893836      36.893836      36.893836    
    378000   0.45983765    -7.8897652     -7.2000185      3.0377903      50218.233      36.893836      36.893836      36.893836    
    379000   0.46205125    -7.8914484     -7.1983814      3.0365915      50218.233      36.893836      36.893836      36.893836    
    380000   0.45851846    -7.889742      -7.201974       3.0508411      50218.233      36.893836      36.893836      36.893836    
    381000   0.46078079    -7.887107      -7.1959457      3.0686731      50218.233      36.893836      36.893836      36.893836    
    382000   0.4618285     -7.8917696     -7.1990367      3.0492062      50218.233      36.893836      36.893836      36.893836    
    383000   0.46091541    -7.8916537     -7.2002904      3.0368169      50218.233      36.893836      36.893836      36.893836    
    384000   0.46187301    -7.889161      -7.1963613      3.0568765      50218.233      36.893836      36.893836      36.893836    
    385000   0.46074789    -7.8909962     -7.1998842      3.0449746      50218.233      36.893836      36.893836      36.893836    
    386000   0.46351939    -7.8959469     -7.2006777      3.015665       50218.233      36.893836      36.893836      36.893836    
    387000   0.45819056    -7.8885826     -7.2013065      3.0609412      50218.233      36.893836      36.893836      36.893836    
    388000   0.4625712     -7.8879648     -7.1941179      3.077364       50218.233      36.893836      36.893836      36.893836    
    389000   0.45912172    -7.8910386     -7.2023658      3.0446529      50218.233      36.893836      36.893836      36.893836    
    390000   0.4579525     -7.8912916     -7.2043727      3.0328292      50218.233      36.893836      36.893836      36.893836    
    391000   0.46108352    -7.8915809     -7.1999655      3.0398307      50218.233      36.893836      36.893836      36.893836    
    392000   0.45665032    -7.8915078     -7.206542       3.028033       50218.233      36.893836      36.893836      36.893836    
    393000   0.46094329    -7.8898635     -7.1984584      3.0629478      50218.233      36.893836      36.893836      36.893836    
    394000   0.4598706     -7.8903684     -7.2005723      3.051329       50218.233      36.893836      36.893836      36.893836    
    395000   0.46078402    -7.8918211     -7.2006549      3.0462184      50218.233      36.893836      36.893836      36.893836    
    396000   0.4593046     -7.8944944     -7.2055473      3.0087248      50218.233      36.893836      36.893836      36.893836    
    397000   0.46175448    -7.8878545     -7.1952326      3.0705565      50218.233      36.893836      36.893836      36.893836    
    398000   0.45961822    -7.8930123     -7.2035948      3.0170687      50218.233      36.893836      36.893836      36.893836    
    399000   0.45836708    -7.8954807     -7.2079398      3.0017485      50218.233      36.893836      36.893836      36.893836    
    400000   0.46040126    -7.8898797     -7.1992876      3.0537377      50218.233      36.893836      36.893836      36.893836    
    401000   0.46217595    -7.8929294     -7.1996754      3.0354587      50218.233      36.893836      36.893836      36.893836    
    402000   0.4574052     -7.8903205     -7.2042225      3.0451486      50218.233      36.893836      36.893836      36.893836    
    403000   0.45938879    -7.8938958     -7.2048224      3.0326109      50218.233      36.893836      36.893836      36.893836    
    404000   0.46081368    -7.8904221     -7.1992114      3.0563366      50218.233      36.893836      36.893836      36.893836    
    405000   0.46124258    -7.8914861     -7.199632       3.0322259      50218.233      36.893836      36.893836      36.893836    
    406000   0.45927451    -7.8912269     -7.2023249      3.0285628      50218.233      36.893836      36.893836      36.893836    
    407000   0.46068564    -7.8931043     -7.2020857      3.0298328      50218.233      36.893836      36.893836      36.893836    
    408000   0.46044867    -7.8919948     -7.2013316      3.0352824      50218.233      36.893836      36.893836      36.893836    
    409000   0.46012072    -7.8890899     -7.1989186      3.057603       50218.233      36.893836      36.893836      36.893836    
    410000   0.4627865     -7.8910087     -7.1968388      3.0454683      50218.233      36.893836      36.893836      36.893836    
    411000   0.45914698    -7.8934303     -7.2047196      3.0250343      50218.233      36.893836      36.893836      36.893836    
    412000   0.45909103    -7.8887511     -7.2001244      3.0536355      50218.233      36.893836      36.893836      36.893836    
    413000   0.46192202    -7.8872155     -7.1943423      3.0718172      50218.233      36.893836      36.893836      36.893836    
    414000   0.45910815    -7.8933461     -7.2046937      3.0288519      50218.233      36.893836      36.893836      36.893836    
    415000   0.45700514    -7.8891399     -7.2036419      3.059789       50218.233      36.893836      36.893836      36.893836    
    416000   0.46044748    -7.8922774     -7.201616       3.0303284      50218.233      36.893836      36.893836      36.893836    
    417000   0.46191232    -7.8927248     -7.1998662      3.0297237      50218.233      36.893836      36.893836      36.893836    
    418000   0.46131384    -7.8934253     -7.2014644      3.019316       50218.233      36.893836      36.893836      36.893836    
    419000   0.46009882    -7.8909994     -7.200861       3.03935        50218.233      36.893836      36.893836      36.893836    
    420000   0.45977118    -7.8901721     -7.2005252      3.0445841      50218.233      36.893836      36.893836      36.893836    
    421000   0.45966079    -7.8871781     -7.1976968      3.0620789      50218.233      36.893836      36.893836      36.893836    
    422000   0.46235741    -7.8923555     -7.1988293      3.0304019      50218.233      36.893836      36.893836      36.893836    
    423000   0.46103651    -7.8871558     -7.1956109      3.0668664      50218.233      36.893836      36.893836      36.893836    
    424000   0.46064924    -7.8885427     -7.1975787      3.0693064      50218.233      36.893836      36.893836      36.893836    
    425000   0.45790845    -7.8912309     -7.204378       3.0422776      50218.233      36.893836      36.893836      36.893836    
    426000   0.46049475    -7.890482      -7.1997497      3.0447757      50218.233      36.893836      36.893836      36.893836    
    427000   0.45992424    -7.8938811     -7.2040046      3.0253944      50218.233      36.893836      36.893836      36.893836    
    428000   0.4607497     -7.8892771     -7.1981623      3.0534712      50218.233      36.893836      36.893836      36.893836    
    429000   0.4601281     -7.8904012     -7.2002189      3.0530673      50218.233      36.893836      36.893836      36.893836    
    430000   0.46042478    -7.8884761     -7.1978487      3.0593444      50218.233      36.893836      36.893836      36.893836    
    431000   0.45962195    -7.8906881     -7.201265       3.0386166      50218.233      36.893836      36.893836      36.893836    
    432000   0.45871103    -7.8927294     -7.2046727      3.035503       50218.233      36.893836      36.893836      36.893836    
    433000   0.46022905    -7.8895783     -7.1992446      3.0472515      50218.233      36.893836      36.893836      36.893836    
    434000   0.46037108    -7.8927138     -7.202167       3.0222724      50218.233      36.893836      36.893836      36.893836    
    435000   0.4621748     -7.8891292     -7.1958769      3.0555592      50218.233      36.893836      36.893836      36.893836    
    436000   0.45808695    -7.8918395     -7.2047189      3.0261002      50218.233      36.893836      36.893836      36.893836    
    437000   0.45885194    -7.8907805     -7.2025124      3.0438718      50218.233      36.893836      36.893836      36.893836    
    438000   0.45934235    -7.8926947     -7.203691       3.0210707      50218.233      36.893836      36.893836      36.893836    
    439000   0.46237967    -7.8885591     -7.1949995      3.0602301      50218.233      36.893836      36.893836      36.893836    
    440000   0.46202567    -7.8875675     -7.1945389      3.0754535      50218.233      36.893836      36.893836      36.893836    
    441000   0.46049172    -7.8919088     -7.2011811      3.0362435      50218.233      36.893836      36.893836      36.893836    
    442000   0.46191917    -7.8886165     -7.1957476      3.0646235      50218.233      36.893836      36.893836      36.893836    
    443000   0.45979066    -7.8904522     -7.200776       3.0413971      50218.233      36.893836      36.893836      36.893836    
    444000   0.46080221    -7.8924546     -7.2012612      3.031283       50218.233      36.893836      36.893836      36.893836    
    445000   0.45975816    -7.8893973     -7.1997698      3.042835       50218.233      36.893836      36.893836      36.893836    
    446000   0.45944998    -7.8920664     -7.2029012      3.0244857      50218.233      36.893836      36.893836      36.893836    
    447000   0.46119522    -7.8922405     -7.2004575      3.0439749      50218.233      36.893836      36.893836      36.893836    
    448000   0.45995205    -7.8922211     -7.2023028      3.0330253      50218.233      36.893836      36.893836      36.893836    
    449000   0.45994778    -7.887346      -7.1974341      3.0681699      50218.233      36.893836      36.893836      36.893836    
    450000   0.45835918    -7.889768      -7.2022391      3.0520869      50218.233      36.893836      36.893836      36.893836    
    451000   0.46018811    -7.8906075     -7.2003352      3.0459823      50218.233      36.893836      36.893836      36.893836    
    452000   0.45829517    -7.8955813     -7.2081483      3.0059534      50218.233      36.893836      36.893836      36.893836    
    453000   0.45853564    -7.8921848     -7.2043911      3.0304467      50218.233      36.893836      36.893836      36.893836    
    454000   0.46099027    -7.8920588     -7.2005833      3.0262946      50218.233      36.893836      36.893836      36.893836    
    455000   0.4615766     -7.8925555     -7.2002005      3.0295766      50218.233      36.893836      36.893836      36.893836    
    456000   0.46038566    -7.8919147     -7.201346       3.036387       50218.233      36.893836      36.893836      36.893836    
    457000   0.45994739    -7.8906935     -7.2007823      3.0430389      50218.233      36.893836      36.893836      36.893836    
    458000   0.45691066    -7.8902425     -7.2048862      3.0422201      50218.233      36.893836      36.893836      36.893836    
    459000   0.46321249    -7.8909007     -7.1960918      3.0379281      50218.233      36.893836      36.893836      36.893836    
    460000   0.45885003    -7.8936575     -7.2053923      3.0354436      50218.233      36.893836      36.893836      36.893836    
    461000   0.46311836    -7.8926722     -7.1980046      3.0305385      50218.233      36.893836      36.893836      36.893836    
    462000   0.45767165    -7.8866416     -7.2001439      3.0566448      50218.233      36.893836      36.893836      36.893836    
    463000   0.45897811    -7.891692      -7.2032346      3.0260569      50218.233      36.893836      36.893836      36.893836    
    464000   0.45902561    -7.8906318     -7.2021032      3.0343705      50218.233      36.893836      36.893836      36.893836    
    465000   0.462466      -7.892139      -7.1984499      3.0338949      50218.233      36.893836      36.893836      36.893836    
    466000   0.46049454    -7.8884745     -7.1977425      3.0636058      50218.233      36.893836      36.893836      36.893836    
    467000   0.45887092    -7.8898667     -7.2015701      3.0488869      50218.233      36.893836      36.893836      36.893836    
    468000   0.45864672    -7.8922527     -7.2042924      3.0254533      50218.233      36.893836      36.893836      36.893836    
    469000   0.46149491    -7.8913152     -7.1990827      3.0454337      50218.233      36.893836      36.893836      36.893836    
    470000   0.46186752    -7.8885702     -7.1957788      3.0616842      50218.233      36.893836      36.893836      36.893836    
    471000   0.46036801    -7.8870428     -7.1965006      3.0836645      50218.233      36.893836      36.893836      36.893836    
    472000   0.46043094    -7.8898425     -7.1992059      3.0438273      50218.233      36.893836      36.893836      36.893836    
    473000   0.4577051     -7.890428      -7.2038801      3.0384217      50218.233      36.893836      36.893836      36.893836    
    474000   0.46070195    -7.8857763     -7.1947332      3.0779634      50218.233      36.893836      36.893836      36.893836    
    475000   0.45972299    -7.8912993     -7.2017246      3.034746       50218.233      36.893836      36.893836      36.893836    
    476000   0.4613152     -7.8887971     -7.1968342      3.0666967      50218.233      36.893836      36.893836      36.893836    
    477000   0.46117405    -7.8890949     -7.1973436      3.0534199      50218.233      36.893836      36.893836      36.893836    
    478000   0.46032883    -7.8854878     -7.1950043      3.0802977      50218.233      36.893836      36.893836      36.893836    
    479000   0.46006212    -7.8890833     -7.1989999      3.0613252      50218.233      36.893836      36.893836      36.893836    
    480000   0.45840489    -7.8870263     -7.1994288      3.0673683      50218.233      36.893836      36.893836      36.893836    
    481000   0.46187228    -7.8886263     -7.1958277      3.0594208      50218.233      36.893836      36.893836      36.893836    
    482000   0.46061211    -7.8875982     -7.1966899      3.0788434      50218.233      36.893836      36.893836      36.893836    
    483000   0.4576081     -7.8906124     -7.2042101      3.0346707      50218.233      36.893836      36.893836      36.893836    
    484000   0.45946983    -7.8880541     -7.1988592      3.0651736      50218.233      36.893836      36.893836      36.893836    
    485000   0.45970748    -7.8933673     -7.2038158      3.0191183      50218.233      36.893836      36.893836      36.893836    
    486000   0.46011739    -7.8886276     -7.1984613      3.0642945      50218.233      36.893836      36.893836      36.893836    
    487000   0.46159708    -7.8900027     -7.1976169      3.0573235      50218.233      36.893836      36.893836      36.893836    
    488000   0.4621657     -7.8894678     -7.1962291      3.0565511      50218.233      36.893836      36.893836      36.893836    
    489000   0.45949954    -7.8885488     -7.1993093      3.0615303      50218.233      36.893836      36.893836      36.893836    
    490000   0.46101422    -7.8919898     -7.2004783      3.0343513      50218.233      36.893836      36.893836      36.893836    
    491000   0.46078283    -7.8953277     -7.2041633      3.0157257      50218.233      36.893836      36.893836      36.893836    
    492000   0.45867366    -7.8910749     -7.2030742      3.0385531      50218.233      36.893836      36.893836      36.893836    
    493000   0.46088759    -7.8907088     -7.1993872      3.0397519      50218.233      36.893836      36.893836      36.893836    
    494000   0.45939939    -7.8929676     -7.2038783      3.0179602      50218.233      36.893836      36.893836      36.893836    
    495000   0.46107461    -7.892501      -7.200899       3.0257052      50218.233      36.893836      36.893836      36.893836    
    496000   0.46052791    -7.8901582     -7.1993761      3.0442223      50218.233      36.893836      36.893836      36.893836    
    497000   0.46020425    -7.8912767     -7.2009801      3.0422933      50218.233      36.893836      36.893836      36.893836    
    498000   0.46074164    -7.8912404     -7.2001377      3.0380065      50218.233      36.893836      36.893836      36.893836    
    499000   0.4571622     -7.8915581     -7.2058245      3.0179463      50218.233      36.893836      36.893836      36.893836    
    500000   0.46103227    -7.8878332     -7.1962946      3.0641468      50218.233      36.893836      36.893836      36.893836    
    501000   0.46216116    -7.8907245     -7.1974926      3.0368395      50218.233      36.893836      36.893836      36.893836    
    502000   0.45889208    -7.8914995     -7.2031711      3.0432051      50218.233      36.893836      36.893836      36.893836    
    503000   0.45894685    -7.8937804     -7.2053699      3.0259592      50218.233      36.893836      36.893836      36.893836    
    504000   0.4595025     -7.8892005     -7.1999566      3.0525166      50218.233      36.893836      36.893836      36.893836    
    505000   0.46013793    -7.8930864     -7.2028893      3.0230255      50218.233      36.893836      36.893836      36.893836    
    506000   0.45985644    -7.8908105     -7.2010356      3.0431269      50218.233      36.893836      36.893836      36.893836    
    507000   0.45640921    -7.8865418     -7.2019378      3.0674607      50218.233      36.893836      36.893836      36.893836    
    508000   0.45897717    -7.8891672     -7.2007112      3.0532985      50218.233      36.893836      36.893836      36.893836    
    509000   0.45975747    -7.8892892     -7.1996628      3.0492748      50218.233      36.893836      36.893836      36.893836    
    510000   0.46131623    -7.8885628     -7.1965983      3.06344        50218.233      36.893836      36.893836      36.893836    
    511000   0.45696517    -7.8925384     -7.2071004      3.0245301      50218.233      36.893836      36.893836      36.893836    
    512000   0.45797622    -7.8919335     -7.204979       3.0403265      50218.233      36.893836      36.893836      36.893836    
    513000   0.45868735    -7.8886542     -7.200633       3.0637616      50218.233      36.893836      36.893836      36.893836    
    514000   0.46046954    -7.8895792     -7.1988847      3.0530549      50218.233      36.893836      36.893836      36.893836    
    515000   0.45936885    -7.8896852     -7.2006418      3.0527705      50218.233      36.893836      36.893836      36.893836    
    516000   0.45892902    -7.889199      -7.2008153      3.051603       50218.233      36.893836      36.893836      36.893836    
    517000   0.45727417    -7.8923844     -7.2064829      3.0309696      50218.233      36.893836      36.893836      36.893836    
    518000   0.46117397    -7.89086       -7.1991089      3.0440311      50218.233      36.893836      36.893836      36.893836    
    519000   0.45912402    -7.8931791     -7.2045028      3.0251316      50218.233      36.893836      36.893836      36.893836    
    520000   0.45871766    -7.8912426     -7.2031759      3.0337786      50218.233      36.893836      36.893836      36.893836    
    521000   0.45937067    -7.8905425     -7.2014963      3.0480548      50218.233      36.893836      36.893836      36.893836    
    522000   0.46114583    -7.8892231     -7.1975142      3.0484748      50218.233      36.893836      36.893836      36.893836    
    523000   0.46174739    -7.8879699     -7.1953587      3.0725753      50218.233      36.893836      36.893836      36.893836    
    524000   0.46155822    -7.8904322     -7.1981047      3.0486909      50218.233      36.893836      36.893836      36.893836    
    525000   0.46166727    -7.8898356     -7.1973445      3.0520759      50218.233      36.893836      36.893836      36.893836    
    526000   0.46123037    -7.8897479     -7.1979122      3.0560986      50218.233      36.893836      36.893836      36.893836    
    527000   0.46093638    -7.8901565     -7.1987618      3.0419126      50218.233      36.893836      36.893836      36.893836    
    528000   0.4611841     -7.8920137     -7.2002474      3.0382701      50218.233      36.893836      36.893836      36.893836    
    529000   0.45988305    -7.8870974     -7.1972826      3.0683666      50218.233      36.893836      36.893836      36.893836    
    530000   0.45891029    -7.8870032     -7.1986475      3.0515282      50218.233      36.893836      36.893836      36.893836    
    531000   0.45795397    -7.8880318     -7.2011107      3.0524212      50218.233      36.893836      36.893836      36.893836    
    532000   0.45931141    -7.8876892     -7.1987319      3.0672829      50218.233      36.893836      36.893836      36.893836    
    533000   0.459327      -7.8941088     -7.2051281      3.0117111      50218.233      36.893836      36.893836      36.893836    
    534000   0.46097477    -7.8908691     -7.1994167      3.0413083      50218.233      36.893836      36.893836      36.893836    
    535000   0.46309087    -7.8887545     -7.1941281      3.0608487      50218.233      36.893836      36.893836      36.893836    
    536000   0.45922457    -7.8882009     -7.1993739      3.0568136      50218.233      36.893836      36.893836      36.893836    
    537000   0.46342798    -7.887237      -7.192105       3.0736203      50218.233      36.893836      36.893836      36.893836    
    538000   0.45876745    -7.8869519     -7.1988105      3.0706741      50218.233      36.893836      36.893836      36.893836    
    539000   0.45919545    -7.8923215     -7.2035381      3.0267336      50218.233      36.893836      36.893836      36.893836    
    540000   0.46112505    -7.8927703     -7.2010925      3.024331       50218.233      36.893836      36.893836      36.893836    
    541000   0.46009941    -7.8863721     -7.1962328      3.0717365      50218.233      36.893836      36.893836      36.893836    
    542000   0.45906354    -7.8902131     -7.2016276      3.0436927      50218.233      36.893836      36.893836      36.893836    
    543000   0.45955575    -7.8927071     -7.2033833      3.0304517      50218.233      36.893836      36.893836      36.893836    
    544000   0.46055797    -7.8885941     -7.1977669      3.0576064      50218.233      36.893836      36.893836      36.893836    
    545000   0.45792207    -7.8915069     -7.2046335      3.0296198      50218.233      36.893836      36.893836      36.893836    
    546000   0.46241078    -7.8892037     -7.1955974      3.0578838      50218.233      36.893836      36.893836      36.893836    
    547000   0.46090326    -7.8938948     -7.2025497      3.0137492      50218.233      36.893836      36.893836      36.893836    
    548000   0.4627345     -7.8904165     -7.1963247      3.0423089      50218.233      36.893836      36.893836      36.893836    
    549000   0.45945811    -7.8927609     -7.2035835      3.0122893      50218.233      36.893836      36.893836      36.893836    
    550000   0.45982277    -7.8898337     -7.2001094      3.0499331      50218.233      36.893836      36.893836      36.893836    
    551000   0.46281174    -7.8917666     -7.1975589      3.0401629      50218.233      36.893836      36.893836      36.893836    
    552000   0.45865263    -7.8903239     -7.2023547      3.0428128      50218.233      36.893836      36.893836      36.893836    
    553000   0.45919985    -7.8933694     -7.2045794      3.0191192      50218.233      36.893836      36.893836      36.893836    
    554000   0.46090149    -7.8875326     -7.1961902      3.0566651      50218.233      36.893836      36.893836      36.893836    
    555000   0.45862688    -7.8911231     -7.2031926      3.0354904      50218.233      36.893836      36.893836      36.893836    
    556000   0.45908183    -7.8867801     -7.1981671      3.0722286      50218.233      36.893836      36.893836      36.893836    
    557000   0.4618818     -7.8896202     -7.1968074      3.056536       50218.233      36.893836      36.893836      36.893836    
    558000   0.46150734    -7.8912961     -7.1990449      3.031524       50218.233      36.893836      36.893836      36.893836    
    559000   0.46329264    -7.8900106     -7.1950816      3.0573125      50218.233      36.893836      36.893836      36.893836    
    560000   0.45773939    -7.8900588     -7.2034595      3.0494351      50218.233      36.893836      36.893836      36.893836    
    561000   0.45939683    -7.8900931     -7.2010077      3.0512376      50218.233      36.893836      36.893836      36.893836    
    562000   0.45944523    -7.8873248     -7.1981668      3.0673285      50218.233      36.893836      36.893836      36.893836    
    563000   0.45991766    -7.887862      -7.1979953      3.0612261      50218.233      36.893836      36.893836      36.893836    
    564000   0.45797436    -7.8917014     -7.2047496      3.029293       50218.233      36.893836      36.893836      36.893836    
    565000   0.45766015    -7.8878164     -7.2013359      3.0568755      50218.233      36.893836      36.893836      36.893836    
    566000   0.46139559    -7.8915096     -7.1994261      3.0394621      50218.233      36.893836      36.893836      36.893836    
    567000   0.45996176    -7.8879366     -7.1980037      3.0586022      50218.233      36.893836      36.893836      36.893836    
    568000   0.4608305     -7.8888262     -7.1975903      3.0489403      50218.233      36.893836      36.893836      36.893836    
    569000   0.46023291    -7.8932714     -7.2029318      3.0223271      50218.233      36.893836      36.893836      36.893836    
    570000   0.45790521    -7.8888808     -7.2020327      3.0506251      50218.233      36.893836      36.893836      36.893836    
    571000   0.46119107    -7.8870596     -7.1952828      3.0774802      50218.233      36.893836      36.893836      36.893836    
    572000   0.45956551    -7.8887944     -7.199456       3.0527738      50218.233      36.893836      36.893836      36.893836    
    573000   0.46008755    -7.8908487     -7.2007272      3.0333839      50218.233      36.893836      36.893836      36.893836    
    574000   0.460322      -7.8871338     -7.1966606      3.0587788      50218.233      36.893836      36.893836      36.893836    
    575000   0.46112307    -7.8940616     -7.2023868      3.0109618      50218.233      36.893836      36.893836      36.893836    
    576000   0.45874962    -7.8853506     -7.1972359      3.0749343      50218.233      36.893836      36.893836      36.893836    
    577000   0.46178657    -7.8894242     -7.1967542      3.0554515      50218.233      36.893836      36.893836      36.893836    
    578000   0.46183176    -7.8930436     -7.2003058      3.0280035      50218.233      36.893836      36.893836      36.893836    
    579000   0.45826487    -7.8883302     -7.2009427      3.0470875      50218.233      36.893836      36.893836      36.893836    
    580000   0.46093008    -7.8879424     -7.1965572      3.0701738      50218.233      36.893836      36.893836      36.893836    
    581000   0.45754765    -7.8947119     -7.2084002      3.0088091      50218.233      36.893836      36.893836      36.893836    
    582000   0.45842916    -7.8906687     -7.2030347      3.0524665      50218.233      36.893836      36.893836      36.893836    
    583000   0.45737466    -7.8894556     -7.2034033      3.0528334      50218.233      36.893836      36.893836      36.893836    
    584000   0.45885427    -7.8906335     -7.2023618      3.0304134      50218.233      36.893836      36.893836      36.893836    
    585000   0.45762889    -7.890721      -7.2042874      3.0333971      50218.233      36.893836      36.893836      36.893836    
    586000   0.45845142    -7.8907799     -7.2031126      3.0391375      50218.233      36.893836      36.893836      36.893836    
    587000   0.45902233    -7.8920382     -7.2035145      3.0357057      50218.233      36.893836      36.893836      36.893836    
    588000   0.46078275    -7.8912754     -7.2001111      3.0370471      50218.233      36.893836      36.893836      36.893836    
    589000   0.46293       -7.88814       -7.1937549      3.0661431      50218.233      36.893836      36.893836      36.893836    
    590000   0.46057226    -7.8889147     -7.1980661      3.065285       50218.233      36.893836      36.893836      36.893836    
    591000   0.46025314    -7.8881867     -7.1978168      3.0576957      50218.233      36.893836      36.893836      36.893836    
    592000   0.460401      -7.8844767     -7.193885       3.0841561      50218.233      36.893836      36.893836      36.893836    
    593000   0.46140752    -7.8863153     -7.1942138      3.084368       50218.233      36.893836      36.893836      36.893836    
    594000   0.45768999    -7.8899696     -7.2034444      3.0410765      50218.233      36.893836      36.893836      36.893836    
    595000   0.45900816    -7.8880519     -7.1995495      3.054405       50218.233      36.893836      36.893836      36.893836    
    596000   0.46239312    -7.8915106     -7.1979308      3.0523112      50218.233      36.893836      36.893836      36.893836    
    597000   0.45966653    -7.8886832     -7.1991932      3.0539522      50218.233      36.893836      36.893836      36.893836    
    598000   0.46089391    -7.888249      -7.1969179      3.0634445      50218.233      36.893836      36.893836      36.893836    
    599000   0.46008761    -7.8906624     -7.2005408      3.0369157      50218.233      36.893836      36.893836      36.893836    
    600000   0.4577709     -7.8934645     -7.2068179      3.0194508      50218.233      36.893836      36.893836      36.893836    
    601000   0.46099283    -7.8889284     -7.197449       3.0673678      50218.233      36.893836      36.893836      36.893836    
    602000   0.46041557    -7.8899503     -7.1993367      3.0589214      50218.233      36.893836      36.893836      36.893836    
    603000   0.46044476    -7.8899592     -7.1993019      3.0555641      50218.233      36.893836      36.893836      36.893836    
    604000   0.46066709    -7.8885641     -7.1975732      3.0569749      50218.233      36.893836      36.893836      36.893836    
    605000   0.46052842    -7.8946783     -7.2038955      3.0149027      50218.233      36.893836      36.893836      36.893836    
    606000   0.46343137    -7.8898054     -7.1946682      3.066341       50218.233      36.893836      36.893836      36.893836    
    607000   0.46083651    -7.8930091     -7.2017641      3.0213917      50218.233      36.893836      36.893836      36.893836    
    608000   0.45791545    -7.8875997     -7.2007363      3.0700549      50218.233      36.893836      36.893836      36.893836    
    609000   0.45721067    -7.889847      -7.2040407      3.0489087      50218.233      36.893836      36.893836      36.893836    
    610000   0.4594853     -7.8892952     -7.2000771      3.0434957      50218.233      36.893836      36.893836      36.893836    
    611000   0.46163234    -7.8891348     -7.1966961      3.0487468      50218.233      36.893836      36.893836      36.893836    
    612000   0.45792746    -7.8884677     -7.2015863      3.0658639      50218.233      36.893836      36.893836      36.893836    
    613000   0.45916141    -7.8904331     -7.2017008      3.041399       50218.233      36.893836      36.893836      36.893836    
    614000   0.46017173    -7.892418      -7.2021702      3.0339781      50218.233      36.893836      36.893836      36.893836    
    615000   0.46089093    -7.8898214     -7.1984949      3.0478483      50218.233      36.893836      36.893836      36.893836    
    616000   0.46308111    -7.8892069     -7.1945952      3.0588166      50218.233      36.893836      36.893836      36.893836    
    617000   0.45842103    -7.8884455     -7.2008238      3.0583544      50218.233      36.893836      36.893836      36.893836    
    618000   0.46192953    -7.8902335     -7.197349       3.0540699      50218.233      36.893836      36.893836      36.893836    
    619000   0.46166928    -7.8897921     -7.197298       3.0446719      50218.233      36.893836      36.893836      36.893836    
    620000   0.4626362     -7.8883241     -7.1943797      3.0620886      50218.233      36.893836      36.893836      36.893836    
    621000   0.46245857    -7.8920889     -7.1984109      3.0361259      50218.233      36.893836      36.893836      36.893836    
    622000   0.46133776    -7.888775      -7.1967782      3.0564243      50218.233      36.893836      36.893836      36.893836    
    623000   0.46037714    -7.889194      -7.1986381      3.06289        50218.233      36.893836      36.893836      36.893836    
    624000   0.45901803    -7.8873804     -7.1988631      3.0724516      50218.233      36.893836      36.893836      36.893836    
    625000   0.45942271    -7.8870493     -7.197925       3.0640902      50218.233      36.893836      36.893836      36.893836    
    626000   0.45879901    -7.8876667     -7.199478       3.0684385      50218.233      36.893836      36.893836      36.893836    
    627000   0.45868681    -7.890021      -7.2020006      3.0412841      50218.233      36.893836      36.893836      36.893836    
    628000   0.46187539    -7.8862984     -7.1934952      3.0786788      50218.233      36.893836      36.893836      36.893836    
    629000   0.4590873     -7.8905365     -7.2019154      3.0319977      50218.233      36.893836      36.893836      36.893836    
    630000   0.45940986    -7.8906743     -7.2015693      3.0453484      50218.233      36.893836      36.893836      36.893836    
    631000   0.46060589    -7.8909952     -7.2000962      3.0435406      50218.233      36.893836      36.893836      36.893836    
    632000   0.45848375    -7.8871061     -7.1993903      3.0705327      50218.233      36.893836      36.893836      36.893836    
    633000   0.46180127    -7.8881089     -7.1954168      3.0670974      50218.233      36.893836      36.893836      36.893836    
    634000   0.46115282    -7.8898679     -7.1981485      3.0532022      50218.233      36.893836      36.893836      36.893836    
    635000   0.4576454     -7.8871519     -7.2006936      3.0748615      50218.233      36.893836      36.893836      36.893836    
    636000   0.45939054    -7.8902007     -7.2011246      3.0451825      50218.233      36.893836      36.893836      36.893836    
    637000   0.45921455    -7.8858423     -7.1970303      3.0845224      50218.233      36.893836      36.893836      36.893836    
    638000   0.46075798    -7.8930162     -7.201889       3.0289107      50218.233      36.893836      36.893836      36.893836    
    639000   0.45845413    -7.8922222     -7.2045508      3.0246447      50218.233      36.893836      36.893836      36.893836    
    640000   0.46021257    -7.8891034     -7.1987943      3.0549585      50218.233      36.893836      36.893836      36.893836    
    641000   0.4620196     -7.8876205     -7.1946009      3.0613126      50218.233      36.893836      36.893836      36.893836    
    642000   0.46013013    -7.8913591     -7.2011738      3.0380985      50218.233      36.893836      36.893836      36.893836    
    643000   0.458383      -7.888444      -7.2008793      3.0582324      50218.233      36.893836      36.893836      36.893836    
    644000   0.4596767     -7.8906945     -7.2011893      3.0386733      50218.233      36.893836      36.893836      36.893836    
    645000   0.45949235    -7.8858072     -7.1965785      3.0923492      50218.233      36.893836      36.893836      36.893836    
    646000   0.45999084    -7.8871612     -7.1971848      3.0704718      50218.233      36.893836      36.893836      36.893836    
    647000   0.45975622    -7.8920535     -7.2024289      3.029171       50218.233      36.893836      36.893836      36.893836    
    648000   0.4588616     -7.88807       -7.1997874      3.0705273      50218.233      36.893836      36.893836      36.893836    
    649000   0.46170071    -7.8907297     -7.1981885      3.0414357      50218.233      36.893836      36.893836      36.893836    
    650000   0.45660608    -7.8873071     -7.2024078      3.0606393      50218.233      36.893836      36.893836      36.893836    
    651000   0.45897858    -7.8929582     -7.2045001      3.0209023      50218.233      36.893836      36.893836      36.893836    
    652000   0.46133681    -7.8891536     -7.1971582      3.0564009      50218.233      36.893836      36.893836      36.893836    
    653000   0.46067706    -7.8906486     -7.1996428      3.0471743      50218.233      36.893836      36.893836      36.893836    
    654000   0.46071928    -7.8917682     -7.2006991      3.0446289      50218.233      36.893836      36.893836      36.893836    
    655000   0.46196663    -7.8892134     -7.1962733      3.0517594      50218.233      36.893836      36.893836      36.893836    
    656000   0.46085509    -7.8872297     -7.1959569      3.0670972      50218.233      36.893836      36.893836      36.893836    
    657000   0.45955325    -7.8923379     -7.2030178      3.0366902      50218.233      36.893836      36.893836      36.893836    
    658000   0.46002691    -7.8854588     -7.1954283      3.0814718      50218.233      36.893836      36.893836      36.893836    
    659000   0.46060925    -7.8857365     -7.1948324      3.0713573      50218.233      36.893836      36.893836      36.893836    
    660000   0.45854225    -7.8882794     -7.2004758      3.0589839      50218.233      36.893836      36.893836      36.893836    
    661000   0.45922816    -7.8890568     -7.2002244      3.0434594      50218.233      36.893836      36.893836      36.893836    
    662000   0.46036598    -7.8896787     -7.1991395      3.0450928      50218.233      36.893836      36.893836      36.893836    
    663000   0.46072473    -7.8886971     -7.1976198      3.0520767      50218.233      36.893836      36.893836      36.893836    
    664000   0.46174677    -7.8915549     -7.1989446      3.0330549      50218.233      36.893836      36.893836      36.893836    
    665000   0.45992524    -7.8914656     -7.2015875      3.0414818      50218.233      36.893836      36.893836      36.893836    
    666000   0.46087015    -7.8897843     -7.1984889      3.0462658      50218.233      36.893836      36.893836      36.893836    
    667000   0.46040454    -7.8934599     -7.2028629      3.0230753      50218.233      36.893836      36.893836      36.893836    
    668000   0.45826736    -7.8881776     -7.2007864      3.0676525      50218.233      36.893836      36.893836      36.893836    
    669000   0.46007192    -7.8900837     -7.1999856      3.0431204      50218.233      36.893836      36.893836      36.893836    
    670000   0.46199122    -7.8878325     -7.1948555      3.0672385      50218.233      36.893836      36.893836      36.893836    
    671000   0.45998399    -7.8857997     -7.1958335      3.0840471      50218.233      36.893836      36.893836      36.893836    
    672000   0.45835335    -7.8858978     -7.1983775      3.0751166      50218.233      36.893836      36.893836      36.893836    
    673000   0.45822208    -7.8912985     -7.2039752      3.037529       50218.233      36.893836      36.893836      36.893836    
    674000   0.45988785    -7.8918711     -7.2020491      3.0476194      50218.233      36.893836      36.893836      36.893836    
    675000   0.45840465    -7.8872422     -7.199645       3.0651343      50218.233      36.893836      36.893836      36.893836    
    676000   0.46028855    -7.889469      -7.199046       3.0513882      50218.233      36.893836      36.893836      36.893836    
    677000   0.45738717    -7.8890052     -7.2029342      3.0467482      50218.233      36.893836      36.893836      36.893836    
    678000   0.45898039    -7.8880511     -7.1995903      3.057871       50218.233      36.893836      36.893836      36.893836    
    679000   0.45973616    -7.8869184     -7.197324       3.0708846      50218.233      36.893836      36.893836      36.893836    
    680000   0.46069734    -7.8878389     -7.1968027      3.0684         50218.233      36.893836      36.893836      36.893836    
    681000   0.46098609    -7.8887815     -7.1973122      3.0572464      50218.233      36.893836      36.893836      36.893836    
    682000   0.46012932    -7.8923411     -7.202157       3.0366804      50218.233      36.893836      36.893836      36.893836    
    683000   0.45984217    -7.8889716     -7.1992181      3.0652028      50218.233      36.893836      36.893836      36.893836    
    684000   0.45990698    -7.8924118     -7.2025611      3.0339032      50218.233      36.893836      36.893836      36.893836    
    685000   0.46077126    -7.8866133     -7.1954662      3.0747011      50218.233      36.893836      36.893836      36.893836    
    686000   0.46234903    -7.8884748     -7.1949611      3.061217       50218.233      36.893836      36.893836      36.893836    
    687000   0.45864726    -7.8904096     -7.2024485      3.0422114      50218.233      36.893836      36.893836      36.893836    
    688000   0.46058878    -7.8877674     -7.196894       3.0603261      50218.233      36.893836      36.893836      36.893836    
    689000   0.45990714    -7.8905124     -7.2006615      3.0432762      50218.233      36.893836      36.893836      36.893836    
    690000   0.45755209    -7.888353      -7.2020346      3.0671288      50218.233      36.893836      36.893836      36.893836    
    691000   0.45942758    -7.8884565     -7.1993249      3.061613       50218.233      36.893836      36.893836      36.893836    
    692000   0.46153493    -7.8916246     -7.199332       3.0364558      50218.233      36.893836      36.893836      36.893836    
    693000   0.45516579    -7.8930779     -7.210339       3.0261487      50218.233      36.893836      36.893836      36.893836    
    694000   0.45822419    -7.889782      -7.2024555      3.0479928      50218.233      36.893836      36.893836      36.893836    
    695000   0.46005554    -7.8908665     -7.200793       3.0436459      50218.233      36.893836      36.893836      36.893836    
    696000   0.4604887     -7.8897599     -7.1990367      3.046286       50218.233      36.893836      36.893836      36.893836    
    697000   0.46143943    -7.889506      -7.1973567      3.0521944      50218.233      36.893836      36.893836      36.893836    
    698000   0.45966001    -7.8890686     -7.1995884      3.0452453      50218.233      36.893836      36.893836      36.893836    
    699000   0.45839809    -7.8899493     -7.202362       3.0482494      50218.233      36.893836      36.893836      36.893836    
    700000   0.4594715     -7.8910064     -7.201809       3.0556586      50218.233      36.893836      36.893836      36.893836    
    701000   0.46003317    -7.8924234     -7.2023834      3.0333364      50218.233      36.893836      36.893836      36.893836    
    702000   0.45935055    -7.8902302     -7.2012142      3.0449156      50218.233      36.893836      36.893836      36.893836    
    703000   0.45983446    -7.8886886     -7.1989468      3.053855       50218.233      36.893836      36.893836      36.893836    
    704000   0.45990793    -7.8898784     -7.2000263      3.0548576      50218.233      36.893836      36.893836      36.893836    
    705000   0.45991187    -7.8899618     -7.2001038      3.0412094      50218.233      36.893836      36.893836      36.893836    
    706000   0.45954125    -7.8899194     -7.2006173      3.0422731      50218.233      36.893836      36.893836      36.893836    
    707000   0.46283215    -7.8906886     -7.1964502      3.0454644      50218.233      36.893836      36.893836      36.893836    
    708000   0.46115902    -7.8912559     -7.1995272      3.036969       50218.233      36.893836      36.893836      36.893836    
    709000   0.45933175    -7.8896674     -7.2006796      3.0541088      50218.233      36.893836      36.893836      36.893836    
    710000   0.46015936    -7.8841201     -7.1938909      3.0891266      50218.233      36.893836      36.893836      36.893836    
    711000   0.45893778    -7.8914979     -7.203101       3.0400285      50218.233      36.893836      36.893836      36.893836    
    712000   0.45894552    -7.8874738     -7.1990653      3.0731085      50218.233      36.893836      36.893836      36.893836    
    713000   0.46380241    -7.8905942     -7.1949004      3.0501858      50218.233      36.893836      36.893836      36.893836    
    714000   0.46101217    -7.8905537     -7.1990453      3.0487876      50218.233      36.893836      36.893836      36.893836    
    715000   0.46158198    -7.8888179     -7.1964548      3.0595829      50218.233      36.893836      36.893836      36.893836    
    716000   0.46074337    -7.8909451     -7.1998399      3.0452645      50218.233      36.893836      36.893836      36.893836    
    717000   0.46117629    -7.8905785     -7.1988239      3.0535599      50218.233      36.893836      36.893836      36.893836    
    718000   0.46143793    -7.886121      -7.193974       3.0760549      50218.233      36.893836      36.893836      36.893836    
    719000   0.45953618    -7.8883645     -7.1990701      3.0571433      50218.233      36.893836      36.893836      36.893836    
    720000   0.46052551    -7.8907346     -7.1999561      3.046709       50218.233      36.893836      36.893836      36.893836    
    721000   0.45885671    -7.8909829     -7.2027076      3.0380759      50218.233      36.893836      36.893836      36.893836    
    722000   0.45863817    -7.8831015     -7.195154       3.1002825      50218.233      36.893836      36.893836      36.893836    
    723000   0.45821501    -7.8891941     -7.2018814      3.0515637      50218.233      36.893836      36.893836      36.893836    
    724000   0.45902936    -7.8909258     -7.2023916      3.0325732      50218.233      36.893836      36.893836      36.893836    
    725000   0.45962234    -7.8864554     -7.1970317      3.0784427      50218.233      36.893836      36.893836      36.893836    
    726000   0.46065475    -7.8924118     -7.2014395      3.0406083      50218.233      36.893836      36.893836      36.893836    
    727000   0.46128282    -7.8858859     -7.1939715      3.0799411      50218.233      36.893836      36.893836      36.893836    
    728000   0.45809174    -7.8857395     -7.1986117      3.078212       50218.233      36.893836      36.893836      36.893836    
    729000   0.45888091    -7.8881555     -7.1998439      3.0730882      50218.233      36.893836      36.893836      36.893836    
    730000   0.4579282     -7.8821957     -7.1953131      3.0986952      50218.233      36.893836      36.893836      36.893836    
    731000   0.46029904    -7.8892807     -7.198842       3.0543794      50218.233      36.893836      36.893836      36.893836    
    732000   0.45889423    -7.891662      -7.2033305      3.0414314      50218.233      36.893836      36.893836      36.893836    
    733000   0.46037595    -7.887751      -7.1971969      3.061547       50218.233      36.893836      36.893836      36.893836    
    734000   0.46138167    -7.8905095     -7.1984469      3.0474459      50218.233      36.893836      36.893836      36.893836    
    735000   0.4593196     -7.8862576     -7.197288       3.0810263      50218.233      36.893836      36.893836      36.893836    
    736000   0.45798866    -7.8898479     -7.2028747      3.04242        50218.233      36.893836      36.893836      36.893836    
    737000   0.46262143    -7.8928359     -7.1989136      3.0452809      50218.233      36.893836      36.893836      36.893836    
    738000   0.45922855    -7.8906248     -7.2017918      3.0572966      50218.233      36.893836      36.893836      36.893836    
    739000   0.45747029    -7.891806      -7.2056103      3.0307921      50218.233      36.893836      36.893836      36.893836    
    740000   0.46022399    -7.8892613     -7.1989352      3.0635958      50218.233      36.893836      36.893836      36.893836    
    741000   0.46034924    -7.887856      -7.197342       3.0691846      50218.233      36.893836      36.893836      36.893836    
    742000   0.45827554    -7.8920659     -7.2046623      3.0284225      50218.233      36.893836      36.893836      36.893836    
    743000   0.45890735    -7.8939955     -7.2056443      3.0168282      50218.233      36.893836      36.893836      36.893836    
    744000   0.46039991    -7.8903773     -7.1997872      3.0461009      50218.233      36.893836      36.893836      36.893836    
    745000   0.46018556    -7.8864561     -7.1961876      3.0771862      50218.233      36.893836      36.893836      36.893836    
    746000   0.46100427    -7.889079      -7.1975824      3.046505       50218.233      36.893836      36.893836      36.893836    
    747000   0.46114764    -7.8889983     -7.1972867      3.0599684      50218.233      36.893836      36.893836      36.893836    
    748000   0.46067647    -7.8905596     -7.1995547      3.0388313      50218.233      36.893836      36.893836      36.893836    
    749000   0.45811976    -7.8913076     -7.2041377      3.0276617      50218.233      36.893836      36.893836      36.893836    
    750000   0.46201       -7.8935254     -7.2005202      3.0252621      50218.233      36.893836      36.893836      36.893836    
    751000   0.45951264    -7.8937742     -7.204515       3.0199108      50218.233      36.893836      36.893836      36.893836    
    752000   0.46057699    -7.8903656     -7.1995099      3.0484531      50218.233      36.893836      36.893836      36.893836    
    753000   0.45951744    -7.8932655     -7.2039992      3.0233834      50218.233      36.893836      36.893836      36.893836    
    754000   0.45922976    -7.8885821     -7.1997472      3.0554971      50218.233      36.893836      36.893836      36.893836    
    755000   0.46104187    -7.890809      -7.199256       3.0382039      50218.233      36.893836      36.893836      36.893836    
    756000   0.45796625    -7.8935974     -7.2066578      3.0244052      50218.233      36.893836      36.893836      36.893836    
    757000   0.45934206    -7.8883076     -7.1993043      3.0734618      50218.233      36.893836      36.893836      36.893836    
    758000   0.46009454    -7.8888061     -7.1986742      3.056872       50218.233      36.893836      36.893836      36.893836    
    759000   0.45931735    -7.8906255     -7.2016592      3.0427327      50218.233      36.893836      36.893836      36.893836    
    760000   0.46043604    -7.890883      -7.2002388      3.0361138      50218.233      36.893836      36.893836      36.893836    
    761000   0.45989798    -7.890756      -7.2009188      3.0399179      50218.233      36.893836      36.893836      36.893836    
    762000   0.46203143    -7.8906219     -7.1975846      3.0534013      50218.233      36.893836      36.893836      36.893836    
    763000   0.45941655    -7.8894595     -7.2003444      3.0404026      50218.233      36.893836      36.893836      36.893836    
    764000   0.46109009    -7.8879378     -7.1963125      3.0644015      50218.233      36.893836      36.893836      36.893836    
    765000   0.46063318    -7.8940885     -7.2031486      3.0184223      50218.233      36.893836      36.893836      36.893836    
    766000   0.46076391    -7.8884733     -7.1973373      3.0589278      50218.233      36.893836      36.893836      36.893836    
    767000   0.46186453    -7.8847609     -7.191974       3.0890538      50218.233      36.893836      36.893836      36.893836    
    768000   0.46052787    -7.8876951     -7.1969131      3.0693822      50218.233      36.893836      36.893836      36.893836    
    769000   0.46024085    -7.8932511     -7.2028997      3.0228383      50218.233      36.893836      36.893836      36.893836    
    770000   0.45935918    -7.8913369     -7.202308       3.0354999      50218.233      36.893836      36.893836      36.893836    
    771000   0.45911403    -7.8888633     -7.200202       3.0466068      50218.233      36.893836      36.893836      36.893836    
    772000   0.46066549    -7.8895214     -7.198533       3.0539505      50218.233      36.893836      36.893836      36.893836    
    773000   0.46183159    -7.8880935     -7.195356       3.0678454      50218.233      36.893836      36.893836      36.893836    
    774000   0.46101572    -7.8893315     -7.1978178      3.0566198      50218.233      36.893836      36.893836      36.893836    
    775000   0.45844034    -7.8874718     -7.199821       3.0612196      50218.233      36.893836      36.893836      36.893836    
    776000   0.45982755    -7.8863209     -7.1965893      3.0708548      50218.233      36.893836      36.893836      36.893836    
    777000   0.4600135     -7.887229      -7.1972185      3.0676093      50218.233      36.893836      36.893836      36.893836    
    778000   0.46006097    -7.8913818     -7.2013002      3.0312941      50218.233      36.893836      36.893836      36.893836    
    779000   0.45829852    -7.8902672     -7.2028292      3.0517901      50218.233      36.893836      36.893836      36.893836    
    780000   0.46158964    -7.8895537     -7.1971791      3.0419238      50218.233      36.893836      36.893836      36.893836    
    781000   0.46065921    -7.8906524     -7.1996734      3.0469921      50218.233      36.893836      36.893836      36.893836    
    782000   0.45865726    -7.8930477     -7.2050716      3.0190012      50218.233      36.893836      36.893836      36.893836    
    783000   0.46138338    -7.8885644     -7.1964992      3.0614765      50218.233      36.893836      36.893836      36.893836    
    784000   0.45826575    -7.8898464     -7.2024576      3.0485675      50218.233      36.893836      36.893836      36.893836    
    785000   0.45940164    -7.8890991     -7.2000064      3.0590111      50218.233      36.893836      36.893836      36.893836    
    786000   0.46205429    -7.8871096     -7.194038       3.0771878      50218.233      36.893836      36.893836      36.893836    
    787000   0.45952326    -7.8906881     -7.201413       3.0532133      50218.233      36.893836      36.893836      36.893836    
    788000   0.46306779    -7.8894794     -7.1948876      3.054251       50218.233      36.893836      36.893836      36.893836    
    789000   0.46027606    -7.8920214     -7.2016171      3.0310998      50218.233      36.893836      36.893836      36.893836    
    790000   0.46124728    -7.8917644     -7.1999033      3.0389651      50218.233      36.893836      36.893836      36.893836    
    791000   0.4576697     -7.8933454     -7.2068506      3.0171116      50218.233      36.893836      36.893836      36.893836    
    792000   0.45788354    -7.8913955     -7.2045799      3.0370282      50218.233      36.893836      36.893836      36.893836    
    793000   0.45951881    -7.8911877     -7.2019193      3.0468043      50218.233      36.893836      36.893836      36.893836    
    794000   0.46273731    -7.8936496     -7.1995535      3.0305966      50218.233      36.893836      36.893836      36.893836    
    795000   0.46028032    -7.8923808     -7.2019701      3.0236685      50218.233      36.893836      36.893836      36.893836    
    796000   0.460217      -7.8897497     -7.199434       3.0533754      50218.233      36.893836      36.893836      36.893836    
    797000   0.46016053    -7.8887692     -7.1985382      3.0574842      50218.233      36.893836      36.893836      36.893836    
    798000   0.45839362    -7.891426      -7.2038453      3.027408       50218.233      36.893836      36.893836      36.893836    
    799000   0.45946413    -7.8926365     -7.2034501      3.0276049      50218.233      36.893836      36.893836      36.893836    
    800000   0.46112541    -7.8912167     -7.1995384      3.0412416      50218.233      36.893836      36.893836      36.893836    
    801000   0.45946363    -7.8900916     -7.2009059      3.0489217      50218.233      36.893836      36.893836      36.893836    
    802000   0.45947983    -7.8890365     -7.1998265      3.0469874      50218.233      36.893836      36.893836      36.893836    
    803000   0.46128741    -7.8950277     -7.2031065      3.013343       50218.233      36.893836      36.893836      36.893836    
    804000   0.45983262    -7.8900693     -7.2003302      3.0486346      50218.233      36.893836      36.893836      36.893836    
    805000   0.46104842    -7.8874634     -7.1959007      3.0629518      50218.233      36.893836      36.893836      36.893836    
    806000   0.45889874    -7.8896438     -7.2013055      3.0499168      50218.233      36.893836      36.893836      36.893836    
    807000   0.45823959    -7.8912346     -7.203885       3.0339176      50218.233      36.893836      36.893836      36.893836    
    808000   0.4624026     -7.8873309     -7.1937368      3.0795524      50218.233      36.893836      36.893836      36.893836    
    809000   0.45925767    -7.8879777     -7.1991009      3.0616248      50218.233      36.893836      36.893836      36.893836    
    810000   0.46327754    -7.8918998     -7.1969934      3.0363875      50218.233      36.893836      36.893836      36.893836    
    811000   0.45866504    -7.8898282     -7.2018404      3.0487443      50218.233      36.893836      36.893836      36.893836    
    812000   0.46285686    -7.8909806     -7.1967052      3.0450493      50218.233      36.893836      36.893836      36.893836    
    813000   0.45973996    -7.8894838     -7.1998837      3.0577228      50218.233      36.893836      36.893836      36.893836    
    814000   0.46089169    -7.8899756     -7.1986479      3.0474525      50218.233      36.893836      36.893836      36.893836    
    815000   0.46376165    -7.892246      -7.1966134      3.0411639      50218.233      36.893836      36.893836      36.893836    
    816000   0.45951214    -7.8895563     -7.2002979      3.0555789      50218.233      36.893836      36.893836      36.893836    
    817000   0.46039296    -7.8898638     -7.1992842      3.0502843      50218.233      36.893836      36.893836      36.893836    
    818000   0.45968864    -7.8912335     -7.2017103      3.043558       50218.233      36.893836      36.893836      36.893836    
    819000   0.46103018    -7.8889632     -7.1974277      3.0513388      50218.233      36.893836      36.893836      36.893836    
    820000   0.46271903    -7.8861784     -7.1921097      3.0783538      50218.233      36.893836      36.893836      36.893836    
    821000   0.45969744    -7.8852159     -7.1956795      3.0847702      50218.233      36.893836      36.893836      36.893836    
    822000   0.46052345    -7.8940474     -7.203272       3.0159665      50218.233      36.893836      36.893836      36.893836    
    823000   0.46007263    -7.8905723     -7.2004732      3.0336434      50218.233      36.893836      36.893836      36.893836    
    824000   0.4592119     -7.8890021     -7.200194       3.0471922      50218.233      36.893836      36.893836      36.893836    
    825000   0.46048161    -7.8899396     -7.199227       3.0428642      50218.233      36.893836      36.893836      36.893836    
    826000   0.46088472    -7.8904351     -7.1991179      3.0437048      50218.233      36.893836      36.893836      36.893836    
    827000   0.46276592    -7.889627      -7.1954879      3.063809       50218.233      36.893836      36.893836      36.893836    
    828000   0.46086472    -7.8931882     -7.2019009      3.0224709      50218.233      36.893836      36.893836      36.893836    
    829000   0.46109079    -7.8931568     -7.2015305      3.0181178      50218.233      36.893836      36.893836      36.893836    
    830000   0.45804737    -7.8878065     -7.2007452      3.0642289      50218.233      36.893836      36.893836      36.893836    
    831000   0.46208914    -7.8919941     -7.1988703      3.0373774      50218.233      36.893836      36.893836      36.893836    
    832000   0.46258073    -7.889478      -7.1956168      3.063701       50218.233      36.893836      36.893836      36.893836    
    833000   0.46153705    -7.8951034     -7.2028077      2.9975948      50218.233      36.893836      36.893836      36.893836    
    834000   0.46254117    -7.8913356     -7.1975337      3.0414227      50218.233      36.893836      36.893836      36.893836    
    835000   0.46072207    -7.8926623     -7.201589       3.0255687      50218.233      36.893836      36.893836      36.893836    
    836000   0.4588131     -7.8929775     -7.2047677      3.0208526      50218.233      36.893836      36.893836      36.893836    
    837000   0.46306279    -7.889451      -7.1948667      3.0573157      50218.233      36.893836      36.893836      36.893836    
    838000   0.45994681    -7.8895493     -7.1996389      3.050042       50218.233      36.893836      36.893836      36.893836    
    839000   0.45765737    -7.895572      -7.2090958      3.0029793      50218.233      36.893836      36.893836      36.893836    
    840000   0.45893947    -7.8938565     -7.2054571      3.0088565      50218.233      36.893836      36.893836      36.893836    
    841000   0.45779257    -7.8905512     -7.2038721      3.0347487      50218.233      36.893836      36.893836      36.893836    
    842000   0.45713493    -7.8945788     -7.2088861      3.0008376      50218.233      36.893836      36.893836      36.893836    
    843000   0.46027121    -7.8874961     -7.1970991      3.0671875      50218.233      36.893836      36.893836      36.893836    
    844000   0.4604411     -7.8922362     -7.2015844      3.0273165      50218.233      36.893836      36.893836      36.893836    
    845000   0.46023486    -7.890403      -7.2000606      3.047141       50218.233      36.893836      36.893836      36.893836    
    846000   0.46290362    -7.8940901     -7.1997446      3.0297909      50218.233      36.893836      36.893836      36.893836    
    847000   0.46000207    -7.8943        -7.2043067      3.01735        50218.233      36.893836      36.893836      36.893836    
    848000   0.46271031    -7.8875525     -7.1934969      3.0657315      50218.233      36.893836      36.893836      36.893836    
    849000   0.45827732    -7.8918698     -7.2044636      3.0307162      50218.233      36.893836      36.893836      36.893836    
    850000   0.45847966    -7.8897909     -7.2020812      3.0448507      50218.233      36.893836      36.893836      36.893836    
    851000   0.46044889    -7.8914004     -7.2007369      3.040822       50218.233      36.893836      36.893836      36.893836    
    852000   0.46078702    -7.8888006     -7.1976299      3.0569991      50218.233      36.893836      36.893836      36.893836    
    853000   0.45916937    -7.8914139     -7.2026696      3.0368205      50218.233      36.893836      36.893836      36.893836    
    854000   0.45917757    -7.8899176     -7.201161       3.0474497      50218.233      36.893836      36.893836      36.893836    
    855000   0.4595044     -7.8923354     -7.2030886      3.0321131      50218.233      36.893836      36.893836      36.893836    
    856000   0.45844272    -7.8932953     -7.205641       3.0203913      50218.233      36.893836      36.893836      36.893836    
    857000   0.46014213    -7.8881422     -7.1979388      3.0616354      50218.233      36.893836      36.893836      36.893836    
    858000   0.46105753    -7.8894022     -7.1978257      3.0588796      50218.233      36.893836      36.893836      36.893836    
    859000   0.45702658    -7.888524      -7.2029939      3.0583097      50218.233      36.893836      36.893836      36.893836    
    860000   0.46002473    -7.8878502     -7.1978229      3.0545321      50218.233      36.893836      36.893836      36.893836    
    861000   0.45914314    -7.8888604     -7.2001555      3.0534953      50218.233      36.893836      36.893836      36.893836    
    862000   0.45607805    -7.8900521     -7.2059448      3.0306382      50218.233      36.893836      36.893836      36.893836    
    863000   0.45816018    -7.8931399     -7.2059094      3.0228955      50218.233      36.893836      36.893836      36.893836    
    864000   0.45952157    -7.8876676     -7.198395       3.0605736      50218.233      36.893836      36.893836      36.893836    
    865000   0.459432      -7.8921148     -7.2029766      3.0266609      50218.233      36.893836      36.893836      36.893836    
    866000   0.45810031    -7.8920407     -7.2049         3.0372072      50218.233      36.893836      36.893836      36.893836    
    867000   0.45982068    -7.8900971     -7.2003759      3.0459538      50218.233      36.893836      36.893836      36.893836    
    868000   0.46011737    -7.8867114     -7.1965452      3.0578026      50218.233      36.893836      36.893836      36.893836    
    869000   0.45994895    -7.8908092     -7.2008956      3.0478441      50218.233      36.893836      36.893836      36.893836    
    870000   0.46105153    -7.8909583     -7.1993909      3.048568       50218.233      36.893836      36.893836      36.893836    
    871000   0.45970598    -7.8902491     -7.2007         3.0499337      50218.233      36.893836      36.893836      36.893836    
    872000   0.46162794    -7.8902067     -7.1977746      3.055174       50218.233      36.893836      36.893836      36.893836    
    873000   0.45755515    -7.8851656     -7.1988427      3.0731531      50218.233      36.893836      36.893836      36.893836    
    874000   0.45985174    -7.8867391     -7.1969713      3.0701963      50218.233      36.893836      36.893836      36.893836    
    875000   0.46058672    -7.8874769     -7.1966067      3.0601526      50218.233      36.893836      36.893836      36.893836    
    876000   0.45908037    -7.8913659     -7.2027551      3.039325       50218.233      36.893836      36.893836      36.893836    
    877000   0.45982512    -7.8900887     -7.2003608      3.042191       50218.233      36.893836      36.893836      36.893836    
    878000   0.46280201    -7.8885591     -7.194366       3.0531894      50218.233      36.893836      36.893836      36.893836    
    879000   0.45805393    -7.8862686     -7.1991975      3.0616741      50218.233      36.893836      36.893836      36.893836    
    880000   0.46159503    -7.8942855     -7.2019028      3.0163701      50218.233      36.893836      36.893836      36.893836    
    881000   0.4605178     -7.8920281     -7.2012612      3.0459823      50218.233      36.893836      36.893836      36.893836    
    882000   0.46013649    -7.8909257     -7.2007308      3.0374415      50218.233      36.893836      36.893836      36.893836    
    883000   0.46039112    -7.8855874     -7.1950105      3.0777236      50218.233      36.893836      36.893836      36.893836    
    884000   0.458771      -7.8855297     -7.197383       3.0809412      50218.233      36.893836      36.893836      36.893836    
    885000   0.46175076    -7.8923636     -7.1997473      3.0279152      50218.233      36.893836      36.893836      36.893836    
    886000   0.46170368    -7.8909523     -7.1984066      3.0483572      50218.233      36.893836      36.893836      36.893836    
    887000   0.46152915    -7.8883128     -7.1960289      3.0590999      50218.233      36.893836      36.893836      36.893836    
    888000   0.46023056    -7.8886089     -7.1982729      3.0572983      50218.233      36.893836      36.893836      36.893836    
    889000   0.4618013     -7.8855048     -7.1928127      3.0946402      50218.233      36.893836      36.893836      36.893836    
    890000   0.45921055    -7.8928832     -7.2040772      3.0247172      50218.233      36.893836      36.893836      36.893836    
    891000   0.46057189    -7.8909379     -7.2000899      3.0448737      50218.233      36.893836      36.893836      36.893836    
    892000   0.45974023    -7.8955923     -7.2059917      3.0071148      50218.233      36.893836      36.893836      36.893836    
    893000   0.45872468    -7.8901584     -7.2020811      3.0470064      50218.233      36.893836      36.893836      36.893836    
    894000   0.45999022    -7.8885581     -7.1985825      3.0621438      50218.233      36.893836      36.893836      36.893836    
    895000   0.45733356    -7.8897767     -7.2037862      3.0300047      50218.233      36.893836      36.893836      36.893836    
    896000   0.4618695     -7.8878772     -7.1950828      3.0564835      50218.233      36.893836      36.893836      36.893836    
    897000   0.46186052    -7.8946955     -7.2019146      3.0144782      50218.233      36.893836      36.893836      36.893836    
    898000   0.46065203    -7.8910645     -7.2000963      3.0407798      50218.233      36.893836      36.893836      36.893836    
    899000   0.46116595    -7.8886393     -7.1969002      3.0547699      50218.233      36.893836      36.893836      36.893836    
    900000   0.46160325    -7.8904171     -7.1980221      3.0584914      50218.233      36.893836      36.893836      36.893836    
    901000   0.46203336    -7.8921356     -7.1990954      3.0289277      50218.233      36.893836      36.893836      36.893836    
    902000   0.45938114    -7.8902359     -7.201174       3.0345553      50218.233      36.893836      36.893836      36.893836    
    903000   0.4601579     -7.8888235     -7.1985964      3.0587361      50218.233      36.893836      36.893836      36.893836    
    904000   0.45564491    -7.8898105     -7.2063528      3.0422776      50218.233      36.893836      36.893836      36.893836    
    905000   0.45919577    -7.8903161     -7.2015322      3.0381552      50218.233      36.893836      36.893836      36.893836    
    906000   0.46006099    -7.8888335     -7.1987518      3.0559079      50218.233      36.893836      36.893836      36.893836    
    907000   0.46200065    -7.8903631     -7.197372       3.0503817      50218.233      36.893836      36.893836      36.893836    
    908000   0.45905309    -7.8928595     -7.2042897      3.0231528      50218.233      36.893836      36.893836      36.893836    
    909000   0.4607059     -7.8909662     -7.1999172      3.0336098      50218.233      36.893836      36.893836      36.893836    
    910000   0.46043961    -7.8944544     -7.2038048      3.0199945      50218.233      36.893836      36.893836      36.893836    
    911000   0.46002282    -7.8905757     -7.2005513      3.04908        50218.233      36.893836      36.893836      36.893836    
    912000   0.46050609    -7.8937512     -7.2030019      3.0149774      50218.233      36.893836      36.893836      36.893836    
    913000   0.45994906    -7.8897048     -7.199791       3.0505341      50218.233      36.893836      36.893836      36.893836    
    914000   0.46158383    -7.892114      -7.1997481      3.0335842      50218.233      36.893836      36.893836      36.893836    
    915000   0.45969341    -7.8910856     -7.2015553      3.0348061      50218.233      36.893836      36.893836      36.893836    
    916000   0.45893359    -7.8890423     -7.2006518      3.0595301      50218.233      36.893836      36.893836      36.893836    
    917000   0.46365464    -7.8832327     -7.1877607      3.1072331      50218.233      36.893836      36.893836      36.893836    
    918000   0.45955992    -7.8910833     -7.2017532      3.04151        50218.233      36.893836      36.893836      36.893836    
    919000   0.46254863    -7.8896564     -7.1958433      3.0386706      50218.233      36.893836      36.893836      36.893836    
    920000   0.45882212    -7.8868877     -7.1986643      3.0709641      50218.233      36.893836      36.893836      36.893836    
    921000   0.46020856    -7.8920892     -7.2017862      3.0284724      50218.233      36.893836      36.893836      36.893836    
    922000   0.45891101    -7.8945072     -7.2061505      3.0028902      50218.233      36.893836      36.893836      36.893836    
    923000   0.46166699    -7.8912583     -7.1987677      3.0401946      50218.233      36.893836      36.893836      36.893836    
    924000   0.45901412    -7.8880943     -7.1995829      3.065774       50218.233      36.893836      36.893836      36.893836    
    925000   0.45980616    -7.8897137     -7.2000142      3.0555417      50218.233      36.893836      36.893836      36.893836    
    926000   0.46074368    -7.8903241     -7.1992184      3.0430421      50218.233      36.893836      36.893836      36.893836    
    927000   0.45945505    -7.8915044     -7.2023317      3.0343748      50218.233      36.893836      36.893836      36.893836    
    928000   0.46138221    -7.8897837     -7.1977202      3.0440798      50218.233      36.893836      36.893836      36.893836    
    929000   0.46261179    -7.8945594     -7.2006515      3.0201275      50218.233      36.893836      36.893836      36.893836    
    930000   0.45892137    -7.8897996     -7.2014273      3.051065       50218.233      36.893836      36.893836      36.893836    
    931000   0.46226476    -7.8878616     -7.1944743      3.0668212      50218.233      36.893836      36.893836      36.893836    
    932000   0.4609196     -7.8901813     -7.1988117      3.0487731      50218.233      36.893836      36.893836      36.893836    
    933000   0.45922786    -7.8907653     -7.2019333      3.0319816      50218.233      36.893836      36.893836      36.893836    
    934000   0.45943185    -7.8910197     -7.2018817      3.0416544      50218.233      36.893836      36.893836      36.893836    
    935000   0.4607943     -7.8914505     -7.2002689      3.0310334      50218.233      36.893836      36.893836      36.893836    
    936000   0.46199328    -7.8927328     -7.1997527      3.0258923      50218.233      36.893836      36.893836      36.893836    
    937000   0.46007746    -7.8916        -7.2014936      3.0358017      50218.233      36.893836      36.893836      36.893836    
    938000   0.46168602    -7.8903684     -7.1978493      3.0484593      50218.233      36.893836      36.893836      36.893836    
    939000   0.46097317    -7.892567      -7.2011171      3.0301735      50218.233      36.893836      36.893836      36.893836    
    940000   0.46055024    -7.8904329     -7.1996174      3.0503132      50218.233      36.893836      36.893836      36.893836    
    941000   0.45861676    -7.8910713     -7.203156       3.0397304      50218.233      36.893836      36.893836      36.893836    
    942000   0.46024891    -7.8867628     -7.1963993      3.0769185      50218.233      36.893836      36.893836      36.893836    
    943000   0.46136796    -7.8896342     -7.1975921      3.0592659      50218.233      36.893836      36.893836      36.893836    
    944000   0.45778536    -7.8899222     -7.2032539      3.0478324      50218.233      36.893836      36.893836      36.893836    
    945000   0.45997062    -7.8915474     -7.2016013      3.0391786      50218.233      36.893836      36.893836      36.893836    
    946000   0.45806225    -7.891151      -7.2040673      3.0391835      50218.233      36.893836      36.893836      36.893836    
    947000   0.45881665    -7.8894345     -7.2012194      3.0544371      50218.233      36.893836      36.893836      36.893836    
    948000   0.45878922    -7.892739      -7.204565       3.0147268      50218.233      36.893836      36.893836      36.893836    
    949000   0.4632092     -7.893073      -7.1982691      3.0375226      50218.233      36.893836      36.893836      36.893836    
    950000   0.45816675    -7.8897987     -7.2025583      3.049217       50218.233      36.893836      36.893836      36.893836    
    951000   0.45928863    -7.8914299     -7.2025067      3.0369068      50218.233      36.893836      36.893836      36.893836    
    952000   0.46060155    -7.8936287     -7.2027362      3.0247685      50218.233      36.893836      36.893836      36.893836    
    953000   0.45985158    -7.8888449     -7.1990773      3.0631233      50218.233      36.893836      36.893836      36.893836    
    954000   0.45798658    -7.8881452     -7.2011751      3.0643619      50218.233      36.893836      36.893836      36.893836    
    955000   0.45902867    -7.8920316     -7.2034984      3.0364075      50218.233      36.893836      36.893836      36.893836    
    956000   0.45851859    -7.8877794     -7.2000113      3.0616569      50218.233      36.893836      36.893836      36.893836    
    957000   0.45957096    -7.8912826     -7.201936       3.0350678      50218.233      36.893836      36.893836      36.893836    
    958000   0.4565676     -7.8925493     -7.2077076      3.0261628      50218.233      36.893836      36.893836      36.893836    
    959000   0.45994585    -7.8889224     -7.1990134      3.0580279      50218.233      36.893836      36.893836      36.893836    
    960000   0.46218273    -7.8910755     -7.1978112      3.0451205      50218.233      36.893836      36.893836      36.893836    
    961000   0.46041685    -7.8905018     -7.1998864      3.0486196      50218.233      36.893836      36.893836      36.893836    
    962000   0.4632708     -7.8887117     -7.1938154      3.0561978      50218.233      36.893836      36.893836      36.893836    
    963000   0.46142164    -7.8914523     -7.1993297      3.0393412      50218.233      36.893836      36.893836      36.893836    
    964000   0.4586204     -7.8920806     -7.2041598      3.028009       50218.233      36.893836      36.893836      36.893836    
    965000   0.45931556    -7.8892287     -7.2002652      3.0517556      50218.233      36.893836      36.893836      36.893836    
    966000   0.45957967    -7.8909715     -7.2016118      3.0425757      50218.233      36.893836      36.893836      36.893836    
    967000   0.4582314     -7.8912743     -7.203937       3.0190244      50218.233      36.893836      36.893836      36.893836    
    968000   0.45993573    -7.8892885     -7.1993948      3.0438839      50218.233      36.893836      36.893836      36.893836    
    969000   0.45880161    -7.8924845     -7.2042919      3.0338945      50218.233      36.893836      36.893836      36.893836    
    970000   0.46009303    -7.8880238     -7.1978941      3.0605561      50218.233      36.893836      36.893836      36.893836    
    971000   0.45895333    -7.8920357     -7.2036154      3.0335517      50218.233      36.893836      36.893836      36.893836    
    972000   0.45745934    -7.8917095     -7.2055303      3.0304909      50218.233      36.893836      36.893836      36.893836    
    973000   0.46109798    -7.8922        -7.2005629      3.0378469      50218.233      36.893836      36.893836      36.893836    
    974000   0.45871906    -7.8912675     -7.2031987      3.0387428      50218.233      36.893836      36.893836      36.893836    
    975000   0.45933022    -7.8892858     -7.2003003      3.06102        50218.233      36.893836      36.893836      36.893836    
    976000   0.45893858    -7.8919495     -7.2035514      3.0317857      50218.233      36.893836      36.893836      36.893836    
    977000   0.46091713    -7.8898681     -7.1985023      3.0488739      50218.233      36.893836      36.893836      36.893836    
    978000   0.45770197    -7.8865269     -7.1999837      3.0645943      50218.233      36.893836      36.893836      36.893836    
    979000   0.45823845    -7.8937582     -7.2064103      3.0173404      50218.233      36.893836      36.893836      36.893836    
    980000   0.45668914    -7.8863478     -7.2013238      3.0698935      50218.233      36.893836      36.893836      36.893836    
    981000   0.45852054    -7.8872503     -7.1994793      3.0657767      50218.233      36.893836      36.893836      36.893836    
    982000   0.46191058    -7.8905464     -7.1976903      3.0416697      50218.233      36.893836      36.893836      36.893836    
    983000   0.46034506    -7.8905455     -7.2000377      3.0457763      50218.233      36.893836      36.893836      36.893836    
    984000   0.46262408    -7.8947158     -7.2007896      3.03152        50218.233      36.893836      36.893836      36.893836    
    985000   0.45878307    -7.889938      -7.2017732      3.0302814      50218.233      36.893836      36.893836      36.893836    
    986000   0.45845756    -7.8886126     -7.2009361      3.0605939      50218.233      36.893836      36.893836      36.893836    
    987000   0.45923802    -7.8915974     -7.2027501      3.0380406      50218.233      36.893836      36.893836      36.893836    
    988000   0.46017068    -7.8862777     -7.1960315      3.0741522      50218.233      36.893836      36.893836      36.893836    
    989000   0.4631269     -7.8919599     -7.1972794      3.0411902      50218.233      36.893836      36.893836      36.893836    
    990000   0.45841337    -7.8914377     -7.2038274      3.0352177      50218.233      36.893836      36.893836      36.893836    
    991000   0.45700688    -7.8918516     -7.206351       3.0288343      50218.233      36.893836      36.893836      36.893836    
    992000   0.45924233    -7.8940376     -7.2051839      3.0164671      50218.233      36.893836      36.893836      36.893836    
    993000   0.45909157    -7.8864307     -7.1978032      3.07926        50218.233      36.893836      36.893836      36.893836    
    994000   0.46072214    -7.8918678     -7.2007944      3.0368067      50218.233      36.893836      36.893836      36.893836    
    995000   0.45975621    -7.8904852     -7.2008606      3.0440176      50218.233      36.893836      36.893836      36.893836    
    996000   0.46183003    -7.892206      -7.1994708      3.0456638      50218.233      36.893836      36.893836      36.893836    
    997000   0.46096279    -7.8915482     -7.2001139      3.0433132      50218.233      36.893836      36.893836      36.893836    
    998000   0.46130633    -7.8918838     -7.1999341      3.0423256      50218.233      36.893836      36.893836      36.893836    
    999000   0.46068377    -7.890103      -7.1990872      3.0484166      50218.233      36.893836      36.893836      36.893836    
   1000000   0.45728111    -7.8941729     -7.208261       3.0149861      50218.233      36.893836      36.893836      36.893836    
Loop time of 1583.41 on 4 procs for 1000000 steps with 70304 atoms

Performance: 545656.901 tau/day, 631.547 timesteps/s, 44.400 Matom-step/s
95.5% CPU use with 4 MPI tasks x 1 OpenMP threads

MPI task timing breakdown:
Section |  min time  |  avg time  |  max time  |%varavg| %total
---------------------------------------------------------------
Pair    | 477.61     | 562.94     | 652.17     | 260.7 | 35.55
Neigh   | 5.9326     | 6.3606     | 6.9468     |  14.8 |  0.40
Comm    | 237.53     | 239.51     | 241.34     |  11.2 | 15.13
Output  | 0.20552    | 0.21183    | 0.2224     |   1.4 |  0.01
Modify  | 597.71     | 686.47     | 770.09     | 233.1 | 43.35
Other   |            | 87.92      |            |       |  5.55

Nlocal:          17576 ave       17621 max       17540 min
Histogram: 1 0 0 1 1 0 0 0 0 1
Nghost:          16805 ave       16817 max       16792 min
Histogram: 1 0 0 1 0 0 0 1 0 1
Neighs:              0 ave           0 max           0 min
Histogram: 4 0 0 0 0 0 0 0 0 0

Total # of neighbors = 0
Ave neighs/atom = 0
Neighbor list builds = 201323
Dangerous builds = 0
clear
OMP_NUM_THREADS environment is not set. Defaulting to 1 thread. (src/comm.cpp:98)
  using 1 OpenMP thread(s) per MPI task
package gpu 0
jump dms440.lmp

variable T equal 440
# T = 1000* (temp in LJ unit)
variable f equal 1000
log log.${T}
log log.440
