variable TLJ equal (${T}/1000)
variable TLJ equal (380/1000)
variable NCyle equal 5
variable iStep equal (${f})
variable iStep equal (1000000)
variable dumpStep equal (${f}*100)
variable dumpStep equal (1000000*100)
variable runStep equal (${f}*100*${NCyle})
variable runStep equal (1000000*100*${NCyle})
variable runStep equal (1000000*100*5)

units       lj
atom_style  atomic
dimension 3
boundary     p p p
pair_style  lj/cut 2.5
read_data  ../data/T${T}.dat
read_data  ../data/T380.dat
Reading data file ...
  orthogonal box = (0.97250269 0.97250269 0.97250269) to (37.866338 37.866338 37.866338)
  1 by 1 by 5 MPI processor grid
  reading atoms ...
  70304 atoms
  reading velocities ...
  70304 velocities
  read_data CPU = 0.209 seconds
change_box all triclinic
Changing box ...
  triclinic box = (0.97250269 0.97250269 0.97250269) to (37.866338 37.866338 37.866338) with tilt (0 0 0)
mass 1 1
mass 2 1
pair_modify shift yes
pair_coeff  1 1 1 1
pair_coeff  1 2 1.5 0.8
pair_coeff  2 2 0.5 0.88


timestep 0.01
thermo ${iStep}
thermo 1000000
reset_timestep 0
thermo_style custom step temp pe etotal press vol lx ly lz
fix             1 all nvt temp ${TLJ}  ${TLJ}  0.1
fix             1 all nvt temp 0.38  ${TLJ}  0.1
fix             1 all nvt temp 0.38  0.38  0.1
thermo_modify flush yes

fix dsf all deform 1 xy  wiggle 0.5  ${f}   units box
fix dsf all deform 1 xy  wiggle 0.5  1000000   units box
fix ps1 all ave/time 1 1 ${iStep} c_thermo_press[1] c_thermo_press[2]  c_thermo_press[3] c_thermo_press[4]  c_thermo_press[5] c_thermo_press[6]  file  stress.${T}
fix ps1 all ave/time 1 1 1000000 c_thermo_press[1] c_thermo_press[2]  c_thermo_press[3] c_thermo_press[4]  c_thermo_press[5] c_thermo_press[6]  file  stress.${T}
fix ps1 all ave/time 1 1 1000000 c_thermo_press[1] c_thermo_press[2]  c_thermo_press[3] c_thermo_press[4]  c_thermo_press[5] c_thermo_press[6]  file  stress.380
dump            1 all custom ${dumpStep} dump.${T} id type x y z
dump            1 all custom 100000000 dump.${T} id type x y z
dump            1 all custom 100000000 dump.380 id type x y z
dump_modify 1 sort id
fix nodrift all momentum 1  linear 1 1 1
fix com_seed all recenter INIT INIT INIT shift all
run ${runStep}
run 500000000
Generated 0 of 1 mixed pair_coeff terms from geometric mixing rule
Per MPI rank memory allocation (min/avg/max) = 6.668 | 8.466 | 8.923 Mbytes
   Step          Temp          PotEng         TotEng         Press          Volume           Lx             Ly             Lz      
         0   0.37918496    -8.0295222     -7.4607528      1.9016522      50218.233      36.893836      36.893836      36.893836    
   1000000   0.38157505    -8.0178308     -7.4454763      1.9992643      50218.233      36.893836      36.893836      36.893836    
   2000000   0.37958999    -8.0173082     -7.4479313      1.9910534      50218.233      36.893836      36.893836      36.893836    
   3000000   0.37978326    -8.0177654     -7.4480986      1.9931544      50218.233      36.893836      36.893836      36.893836    
   4000000   0.38072392    -8.0178674     -7.4467897      1.992186       50218.233      36.893836      36.893836      36.893836    
   5000000   0.37917225    -8.021015      -7.4522648      1.9741309      50218.233      36.893836      36.893836      36.893836    
   6000000   0.38145514    -8.0232173     -7.4510428      1.9522067      50218.233      36.893836      36.893836      36.893836    
   7000000   0.37986115    -8.0205853     -7.4508017      1.9638454      50218.233      36.893836      36.893836      36.893836    
   8000000   0.37926339    -8.0202744     -7.4513874      1.9747137      50218.233      36.893836      36.893836      36.893836    
   9000000   0.37956519    -8.0176744     -7.4483347      1.992688       50218.233      36.893836      36.893836      36.893836    
  10000000   0.38188036    -8.0199219     -7.4471095      1.9759999      50218.233      36.893836      36.893836      36.893836    
  11000000   0.37851515    -8.0203773     -7.4526126      1.9622567      50218.233      36.893836      36.893836      36.893836    
  12000000   0.38027918    -8.0231135     -7.4527029      1.9490845      50218.233      36.893836      36.893836      36.893836    
  13000000   0.38103581    -8.0212799     -7.4497343      1.9670541      50218.233      36.893836      36.893836      36.893836    
  14000000   0.37848147    -8.019224      -7.4515098      1.9780615      50218.233      36.893836      36.893836      36.893836    
  15000000   0.37931868    -8.0204454     -7.4514755      1.9616166      50218.233      36.893836      36.893836      36.893836    
  16000000   0.37839312    -8.0202703     -7.4526887      1.9680667      50218.233      36.893836      36.893836      36.893836    
  17000000   0.37693776    -8.0176288     -7.4522302      1.987071       50218.233      36.893836      36.893836      36.893836    
  18000000   0.37908219    -8.0189899     -7.4503747      1.9765628      50218.233      36.893836      36.893836      36.893836    
  19000000   0.38004124    -8.0180942     -7.4480404      1.9835502      50218.233      36.893836      36.893836      36.893836    
  20000000   0.37971596    -8.0201925     -7.4506267      1.9859529      50218.233      36.893836      36.893836      36.893836    
  21000000   0.37936559    -8.0187676     -7.4497274      1.9753235      50218.233      36.893836      36.893836      36.893836    
  22000000   0.38038766    -8.0196825     -7.4491091      1.9765286      50218.233      36.893836      36.893836      36.893836    
  23000000   0.38061641    -8.017335      -7.4464185      1.993683       50218.233      36.893836      36.893836      36.893836    
  24000000   0.3800318     -8.0204236     -7.4503841      1.9676089      50218.233      36.893836      36.893836      36.893836    
  25000000   0.38140768    -8.0183887     -7.4462853      1.9840802      50218.233      36.893836      36.893836      36.893836    
  26000000   0.3812491     -8.0209965     -7.4491309      1.9736537      50218.233      36.893836      36.893836      36.893836    
  27000000   0.38188225    -8.0220015     -7.4491862      1.9606688      50218.233      36.893836      36.893836      36.893836    
  28000000   0.38085557    -8.0169764     -7.4457012      1.9968174      50218.233      36.893836      36.893836      36.893836    
  29000000   0.38019254    -8.017294      -7.4470133      1.9948207      50218.233      36.893836      36.893836      36.893836    
  30000000   0.37846299    -8.0216781     -7.4539916      1.9545443      50218.233      36.893836      36.893836      36.893836    
  31000000   0.37820298    -8.0186801     -7.4513837      1.9820816      50218.233      36.893836      36.893836      36.893836    
  32000000   0.38249163    -8.0220436     -7.4483143      1.962158       50218.233      36.893836      36.893836      36.893836    
  33000000   0.37945182    -8.0189088     -7.4497391      1.9757648      50218.233      36.893836      36.893836      36.893836    
  34000000   0.38121445    -8.0207493     -7.4489358      1.9616199      50218.233      36.893836      36.893836      36.893836    
  35000000   0.3790637     -8.0204952     -7.4519077      1.967045       50218.233      36.893836      36.893836      36.893836    
  36000000   0.38078042    -8.0234932     -7.4523307      1.9505215      50218.233      36.893836      36.893836      36.893836    
  37000000   0.38006171    -8.0218114     -7.451727       1.9594285      50218.233      36.893836      36.893836      36.893836    
  38000000   0.37926611    -8.0218683     -7.4529772      1.9563505      50218.233      36.893836      36.893836      36.893836    
  39000000   0.37903182    -8.023121      -7.4545813      1.9477493      50218.233      36.893836      36.893836      36.893836    
  40000000   0.37995412    -8.0248343     -7.4549112      1.9344869      50218.233      36.893836      36.893836      36.893836    
  41000000   0.38127928    -8.0210635     -7.4491527      1.9593987      50218.233      36.893836      36.893836      36.893836    
  42000000   0.38065985    -8.0229813     -7.4519996      1.9475493      50218.233      36.893836      36.893836      36.893836    
  43000000   0.38032638    -8.0190284     -7.448547       1.9722062      50218.233      36.893836      36.893836      36.893836    
  44000000   0.37978272    -8.0205757     -7.4509097      1.97045        50218.233      36.893836      36.893836      36.893836    
  45000000   0.38044646    -8.0234853     -7.4528238      1.9486282      50218.233      36.893836      36.893836      36.893836    
  46000000   0.38098555    -8.0239282     -7.452458       1.94925        50218.233      36.893836      36.893836      36.893836    
  47000000   0.37879118    -8.0246466     -7.4564679      1.9425418      50218.233      36.893836      36.893836      36.893836    
  48000000   0.37942186    -8.0215464     -7.4524217      1.9531674      50218.233      36.893836      36.893836      36.893836    
  49000000   0.37948923    -8.0203695     -7.4511437      1.9766901      50218.233      36.893836      36.893836      36.893836    
  50000000   0.37999178    -8.0237697     -7.4537902      1.9479567      50218.233      36.893836      36.893836      36.893836    
  51000000   0.37939953    -8.0219279     -7.4528367      1.9525126      50218.233      36.893836      36.893836      36.893836    
  52000000   0.38101265    -8.0214916     -7.4499808      1.9569903      50218.233      36.893836      36.893836      36.893836    
  53000000   0.382252      -8.0234269     -7.4500571      1.9566973      50218.233      36.893836      36.893836      36.893836    
  54000000   0.37912843    -8.0242965     -7.455612       1.9404308      50218.233      36.893836      36.893836      36.893836    
  55000000   0.37889755    -8.0194703     -7.451132       1.9814466      50218.233      36.893836      36.893836      36.893836    
  56000000   0.38075623    -8.0247514     -7.4536252      1.9450189      50218.233      36.893836      36.893836      36.893836    
  57000000   0.38135622    -8.0203239     -7.4482977      1.9673025      50218.233      36.893836      36.893836      36.893836    
  58000000   0.37912926    -8.0222193     -7.4535335      1.9515947      50218.233      36.893836      36.893836      36.893836    
  59000000   0.38032114    -8.0211505     -7.4506769      1.9688633      50218.233      36.893836      36.893836      36.893836    
  60000000   0.38048247    -8.021546      -7.4508304      1.9637452      50218.233      36.893836      36.893836      36.893836    
  61000000   0.38014993    -8.0201311     -7.4499143      1.9779588      50218.233      36.893836      36.893836      36.893836    
  62000000   0.38123054    -8.0204915     -7.4486539      1.9766592      50218.233      36.893836      36.893836      36.893836    
  63000000   0.38183433    -8.0181756     -7.4454323      1.9916898      50218.233      36.893836      36.893836      36.893836    
  64000000   0.37856764    -8.0218976     -7.4540542      1.9608036      50218.233      36.893836      36.893836      36.893836    
  65000000   0.37915857    -8.0226299     -7.4539002      1.9490665      50218.233      36.893836      36.893836      36.893836    
  66000000   0.37972815    -8.0202219     -7.4506377      1.9685717      50218.233      36.893836      36.893836      36.893836    
  67000000   0.37945986    -8.0226009     -7.4534192      1.9552873      50218.233      36.893836      36.893836      36.893836    
  68000000   0.37954713    -8.0204903     -7.4511777      1.9601136      50218.233      36.893836      36.893836      36.893836    
  69000000   0.3792913     -8.018119      -7.4491902      1.9959562      50218.233      36.893836      36.893836      36.893836    
  70000000   0.3799648     -8.0218254     -7.4518863      1.9629899      50218.233      36.893836      36.893836      36.893836    
  71000000   0.38044293    -8.01952       -7.4488637      1.9852126      50218.233      36.893836      36.893836      36.893836    
  72000000   0.38049299    -8.0223066     -7.4515752      1.9537211      50218.233      36.893836      36.893836      36.893836    
  73000000   0.38068883    -8.020028      -7.4490029      1.9787921      50218.233      36.893836      36.893836      36.893836    
  74000000   0.38073295    -8.0191231     -7.4480318      1.9831462      50218.233      36.893836      36.893836      36.893836    
  75000000   0.3798825     -8.025358      -7.4555423      1.9276004      50218.233      36.893836      36.893836      36.893836    
  76000000   0.3792326     -8.0221813     -7.4533405      1.9580323      50218.233      36.893836      36.893836      36.893836    
  77000000   0.38032306    -8.0203371     -7.4498606      1.9713404      50218.233      36.893836      36.893836      36.893836    
  78000000   0.38017047    -8.019783      -7.4495354      1.9711226      50218.233      36.893836      36.893836      36.893836    
  79000000   0.38144131    -8.0229743     -7.4508204      1.9607796      50218.233      36.893836      36.893836      36.893836    
  80000000   0.379         -8.0217979     -7.453306       1.9637996      50218.233      36.893836      36.893836      36.893836    
  81000000   0.37934906    -8.0216562     -7.4526407      1.9738593      50218.233      36.893836      36.893836      36.893836    
  82000000   0.37780692    -8.0210059     -7.4543035      1.9715769      50218.233      36.893836      36.893836      36.893836    
  83000000   0.38034149    -8.0212935     -7.4507894      1.9622141      50218.233      36.893836      36.893836      36.893836    
  84000000   0.38033196    -8.0242308     -7.453741       1.9490477      50218.233      36.893836      36.893836      36.893836    
  85000000   0.37913829    -8.0235778     -7.4548784      1.9502499      50218.233      36.893836      36.893836      36.893836    
  86000000   0.38051784    -8.0241437     -7.453375       1.9380409      50218.233      36.893836      36.893836      36.893836    
  87000000   0.37906512    -8.0216638     -7.4530742      1.9599117      50218.233      36.893836      36.893836      36.893836    
  88000000   0.37985379    -8.0192732     -7.4495006      1.9849098      50218.233      36.893836      36.893836      36.893836    
  89000000   0.38045695    -8.0215006     -7.4508233      1.959895       50218.233      36.893836      36.893836      36.893836    
  90000000   0.37760174    -8.0228725     -7.456478       1.9428865      50218.233      36.893836      36.893836      36.893836    
  91000000   0.37968034    -8.0206488     -7.4511364      1.9711061      50218.233      36.893836      36.893836      36.893836    
  92000000   0.38111979    -8.0248604     -7.4531889      1.9341747      50218.233      36.893836      36.893836      36.893836    
  93000000   0.38114735    -8.0229092     -7.4511963      1.9655049      50218.233      36.893836      36.893836      36.893836    
  94000000   0.38193191    -8.0228514     -7.4499617      1.9579071      50218.233      36.893836      36.893836      36.893836    
  95000000   0.38044916    -8.0231353     -7.4524697      1.9570412      50218.233      36.893836      36.893836      36.893836    
  96000000   0.38172478    -8.0229295     -7.4503505      1.9514719      50218.233      36.893836      36.893836      36.893836    
  97000000   0.38019525    -8.0236266     -7.4533419      1.9456278      50218.233      36.893836      36.893836      36.893836    
  98000000   0.38068191    -8.0228483     -7.4518336      1.9578929      50218.233      36.893836      36.893836      36.893836    
  99000000   0.37775268    -8.0267816     -7.4601606      1.920961       50218.233      36.893836      36.893836      36.893836    
 100000000   0.38043808    -8.0198523     -7.4492033      1.9780377      50218.233      36.893836      36.893836      36.893836    
 101000000   0.37922924    -8.0226386     -7.4538029      1.955094       50218.233      36.893836      36.893836      36.893836    
 102000000   0.3795758     -8.0236714     -7.4543158      1.9362621      50218.233      36.893836      36.893836      36.893836    
 103000000   0.38096902    -8.0247611     -7.4533157      1.9476165      50218.233      36.893836      36.893836      36.893836    
 104000000   0.37882771    -8.0233329     -7.4550994      1.9495368      50218.233      36.893836      36.893836      36.893836    
 105000000   0.37757537    -8.0249437     -7.4585887      1.9278334      50218.233      36.893836      36.893836      36.893836    
 106000000   0.37965748    -8.0230793     -7.4536012      1.9610457      50218.233      36.893836      36.893836      36.893836    
 107000000   0.38013244    -8.0220924     -7.4519018      1.9684424      50218.233      36.893836      36.893836      36.893836    
 108000000   0.37823668    -8.0228367     -7.4554898      1.9440717      50218.233      36.893836      36.893836      36.893836    
 109000000   0.38185739    -8.0275216     -7.4547437      1.9207641      50218.233      36.893836      36.893836      36.893836    
 110000000   0.38114016    -8.0236376     -7.4519355      1.9486926      50218.233      36.893836      36.893836      36.893836    
 111000000   0.3797432     -8.023913      -7.4543063      1.9471333      50218.233      36.893836      36.893836      36.893836    
 112000000   0.38028333    -8.0250294     -7.4546125      1.9338504      50218.233      36.893836      36.893836      36.893836    
 113000000   0.37909313    -8.0231797     -7.4545481      1.9496194      50218.233      36.893836      36.893836      36.893836    
 114000000   0.38122969    -8.0220251     -7.4501887      1.963614       50218.233      36.893836      36.893836      36.893836    
 115000000   0.37869721    -8.0240235     -7.4559857      1.945467       50218.233      36.893836      36.893836      36.893836    
 116000000   0.38039912    -8.0236424     -7.4530518      1.9436469      50218.233      36.893836      36.893836      36.893836    
 117000000   0.37967961    -8.0250086     -7.4554973      1.931839       50218.233      36.893836      36.893836      36.893836    
 118000000   0.37728989    -8.0225959     -7.4566691      1.9476015      50218.233      36.893836      36.893836      36.893836    
 119000000   0.38011017    -8.0259434     -7.4557863      1.9315867      50218.233      36.893836      36.893836      36.893836    
 120000000   0.38228391    -8.0232388     -7.4498211      1.9547663      50218.233      36.893836      36.893836      36.893836    
 121000000   0.37884399    -8.0215004     -7.4532425      1.9680782      50218.233      36.893836      36.893836      36.893836    
 122000000   0.37804331    -8.0247327     -7.4576758      1.9416858      50218.233      36.893836      36.893836      36.893836    
 123000000   0.38047351    -8.0259139     -7.4552118      1.9277531      50218.233      36.893836      36.893836      36.893836    
 124000000   0.3800024     -8.0226427     -7.4526472      1.9562057      50218.233      36.893836      36.893836      36.893836    
 125000000   0.3803069     -8.0213806     -7.4509283      1.962261       50218.233      36.893836      36.893836      36.893836    
 126000000   0.38010112    -8.021139      -7.4509954      1.972052       50218.233      36.893836      36.893836      36.893836    
 127000000   0.37859615    -8.0231808     -7.4552947      1.9430705      50218.233      36.893836      36.893836      36.893836    
 128000000   0.38118178    -8.0224554     -7.4506908      1.9655345      50218.233      36.893836      36.893836      36.893836    
 129000000   0.38082181    -8.0216851     -7.4504605      1.9645095      50218.233      36.893836      36.893836      36.893836    
 130000000   0.3793112     -8.0230015     -7.4540428      1.9433537      50218.233      36.893836      36.893836      36.893836    
 131000000   0.38152048    -8.0224566     -7.4501841      1.9593623      50218.233      36.893836      36.893836      36.893836    
 132000000   0.38140629    -8.0230244     -7.4509231      1.9442429      50218.233      36.893836      36.893836      36.893836    
 133000000   0.38027591    -8.0268947     -7.456489       1.9171976      50218.233      36.893836      36.893836      36.893836    
 134000000   0.38013182    -8.0219735     -7.4517839      1.9477766      50218.233      36.893836      36.893836      36.893836    
 135000000   0.38008063    -8.0256863     -7.4555734      1.9357436      50218.233      36.893836      36.893836      36.893836    
 136000000   0.37969773    -8.0195568     -7.4500183      1.9703994      50218.233      36.893836      36.893836      36.893836    
 137000000   0.38065634    -8.0268942     -7.4559178      1.9204388      50218.233      36.893836      36.893836      36.893836    
 138000000   0.37934267    -8.0251143     -7.4561084      1.9322463      50218.233      36.893836      36.893836      36.893836    
 139000000   0.38093999    -8.022065      -7.4506632      1.9608931      50218.233      36.893836      36.893836      36.893836    
 140000000   0.38016623    -8.0219919     -7.4517507      1.9564157      50218.233      36.893836      36.893836      36.893836    
 141000000   0.38070458    -8.0226056     -7.4515569      1.9539613      50218.233      36.893836      36.893836      36.893836    
 142000000   0.38088024    -8.0246836     -7.4533714      1.942138       50218.233      36.893836      36.893836      36.893836    
 143000000   0.37805035    -8.0249668     -7.4578993      1.9326491      50218.233      36.893836      36.893836      36.893836    
 144000000   0.3801494     -8.0240613     -7.4538453      1.9446458      50218.233      36.893836      36.893836      36.893836    
 145000000   0.38140481    -8.023436      -7.4513369      1.938345       50218.233      36.893836      36.893836      36.893836    
 146000000   0.37982266    -8.0253296     -7.4556037      1.9317181      50218.233      36.893836      36.893836      36.893836    
 147000000   0.37783602    -8.0233741     -7.4566282      1.9426018      50218.233      36.893836      36.893836      36.893836    
 148000000   0.38003044    -8.0233418     -7.4533043      1.9626466      50218.233      36.893836      36.893836      36.893836    
 149000000   0.37896597    -8.0238277     -7.4553869      1.939994       50218.233      36.893836      36.893836      36.893836    
 150000000   0.38091936    -8.0256555     -7.4542845      1.9310487      50218.233      36.893836      36.893836      36.893836    
 151000000   0.38096974    -8.0228808     -7.4514343      1.9459908      50218.233      36.893836      36.893836      36.893836    
 152000000   0.3800015     -8.0293902     -7.4593961      1.9011134      50218.233      36.893836      36.893836      36.893836    
 153000000   0.37987937    -8.0268254     -7.4570145      1.9259921      50218.233      36.893836      36.893836      36.893836    
 154000000   0.38151908    -8.0233691     -7.4510986      1.9546006      50218.233      36.893836      36.893836      36.893836    
 155000000   0.37800465    -8.0220503     -7.4550514      1.9523068      50218.233      36.893836      36.893836      36.893836    
 156000000   0.3806698     -8.0243805     -7.4533839      1.9395281      50218.233      36.893836      36.893836      36.893836    
 157000000   0.37839758    -8.0260953     -7.458507       1.9225377      50218.233      36.893836      36.893836      36.893836    
 158000000   0.3808463     -8.024553      -7.4532917      1.9399852      50218.233      36.893836      36.893836      36.893836    
 159000000   0.38062816    -8.0201217     -7.4491875      1.9841308      50218.233      36.893836      36.893836      36.893836    
 160000000   0.38180068    -8.0204857     -7.4477929      1.9701146      50218.233      36.893836      36.893836      36.893836    
 161000000   0.38061881    -8.0250558     -7.4541357      1.9376486      50218.233      36.893836      36.893836      36.893836    
 162000000   0.38105048    -8.0214596     -7.449892       1.971983       50218.233      36.893836      36.893836      36.893836    
 163000000   0.37986166    -8.0238304     -7.454046       1.953541       50218.233      36.893836      36.893836      36.893836    
 164000000   0.37953394    -8.0232738     -7.453981       1.9439726      50218.233      36.893836      36.893836      36.893836    
 165000000   0.38073355    -8.0249126     -7.4538204      1.941479       50218.233      36.893836      36.893836      36.893836    
 166000000   0.38062401    -8.0232508     -7.4523229      1.9624688      50218.233      36.893836      36.893836      36.893836    
 167000000   0.38040642    -8.0223735     -7.451772       1.9504733      50218.233      36.893836      36.893836      36.893836    
 168000000   0.38036444    -8.0245414     -7.4540028      1.9383954      50218.233      36.893836      36.893836      36.893836    
 169000000   0.37985353    -8.0230055     -7.4532333      1.9519792      50218.233      36.893836      36.893836      36.893836    
 170000000   0.38137589    -8.0235934     -7.4515377      1.9509292      50218.233      36.893836      36.893836      36.893836    
 171000000   0.38128311    -8.0250617     -7.4531451      1.9340699      50218.233      36.893836      36.893836      36.893836    
 172000000   0.37897708    -8.024086      -7.4556285      1.9383759      50218.233      36.893836      36.893836      36.893836    
 173000000   0.37816274    -8.0245906     -7.4573545      1.936067       50218.233      36.893836      36.893836      36.893836    
 174000000   0.38130027    -8.020943      -7.4490007      1.9702277      50218.233      36.893836      36.893836      36.893836    
 175000000   0.37866824    -8.0216465     -7.4536522      1.9565505      50218.233      36.893836      36.893836      36.893836    
 176000000   0.37940137    -8.0203519     -7.4512579      1.9610943      50218.233      36.893836      36.893836      36.893836    
 177000000   0.38093904    -8.0229272     -7.4515267      1.9503352      50218.233      36.893836      36.893836      36.893836    
 178000000   0.37955187    -8.0229201     -7.4536004      1.9497019      50218.233      36.893836      36.893836      36.893836    
 179000000   0.38055846    -8.0208864     -7.4500568      1.9654408      50218.233      36.893836      36.893836      36.893836    
 180000000   0.37952208    -8.0227372     -7.4534622      1.9495967      50218.233      36.893836      36.893836      36.893836    
 181000000   0.37979415    -8.0209388     -7.4512557      1.9613695      50218.233      36.893836      36.893836      36.893836    
 182000000   0.37878937    -8.0201868     -7.4520108      1.9734328      50218.233      36.893836      36.893836      36.893836    
 183000000   0.38005535    -8.0237066     -7.4536317      1.9505166      50218.233      36.893836      36.893836      36.893836    
 184000000   0.37768215    -8.0215958     -7.4550806      1.9498845      50218.233      36.893836      36.893836      36.893836    
 185000000   0.38067538    -8.0229166     -7.4519117      1.9514981      50218.233      36.893836      36.893836      36.893836    
 186000000   0.37946382    -8.0233313     -7.4541437      1.9438659      50218.233      36.893836      36.893836      36.893836    
 187000000   0.37988591    -8.0238441     -7.4540233      1.9430289      50218.233      36.893836      36.893836      36.893836    
 188000000   0.37892007    -8.0250695     -7.4566975      1.9367422      50218.233      36.893836      36.893836      36.893836    
 189000000   0.38142692    -8.0196928     -7.4475606      1.9769445      50218.233      36.893836      36.893836      36.893836    
 190000000   0.37803579    -8.024685      -7.4576393      1.9440973      50218.233      36.893836      36.893836      36.893836    
 191000000   0.380281      -8.0246        -7.4541867      1.9493786      50218.233      36.893836      36.893836      36.893836    
 192000000   0.38072443    -8.0230024     -7.4519239      1.9543473      50218.233      36.893836      36.893836      36.893836    
 193000000   0.37845964    -8.0225435     -7.4548622      1.9583715      50218.233      36.893836      36.893836      36.893836    
 194000000   0.38102907    -8.0253581     -7.4538226      1.9365614      50218.233      36.893836      36.893836      36.893836    
 195000000   0.3812797     -8.0251032     -7.4531918      1.9409753      50218.233      36.893836      36.893836      36.893836    
 196000000   0.3785594     -8.0235938     -7.4557628      1.9480451      50218.233      36.893836      36.893836      36.893836    
 197000000   0.37961413    -8.026401      -7.4569879      1.9234794      50218.233      36.893836      36.893836      36.893836    
 198000000   0.37828901    -8.0238962     -7.4564708      1.9383314      50218.233      36.893836      36.893836      36.893836    
 199000000   0.38031135    -8.0252272     -7.4547683      1.9355579      50218.233      36.893836      36.893836      36.893836    
 200000000   0.37999475    -8.0242456     -7.4542616      1.9407649      50218.233      36.893836      36.893836      36.893836    
 201000000   0.38044207    -8.024864      -7.454209       1.9346128      50218.233      36.893836      36.893836      36.893836    
 202000000   0.38010466    -8.0234966     -7.4533477      1.9430657      50218.233      36.893836      36.893836      36.893836    
 203000000   0.37932377    -8.0272028     -7.4582252      1.9161588      50218.233      36.893836      36.893836      36.893836    
 204000000   0.37844435    -8.0231675     -7.4555091      1.9459315      50218.233      36.893836      36.893836      36.893836    
 205000000   0.38014658    -8.0260367     -7.455825       1.9155768      50218.233      36.893836      36.893836      36.893836    
 206000000   0.38035134    -8.0239875     -7.4534686      1.9296415      50218.233      36.893836      36.893836      36.893836    
 207000000   0.3787511     -8.0242127     -7.4560942      1.9326987      50218.233      36.893836      36.893836      36.893836    
 208000000   0.38145692    -8.0244134     -7.4522362      1.9414711      50218.233      36.893836      36.893836      36.893836    
 209000000   0.3785677     -8.0280235     -7.46018        1.9138441      50218.233      36.893836      36.893836      36.893836    
 210000000   0.38024301    -8.025861      -7.4555046      1.9265031      50218.233      36.893836      36.893836      36.893836    
 211000000   0.38002159    -8.0259098     -7.4558856      1.9286662      50218.233      36.893836      36.893836      36.893836    
 212000000   0.38157134    -8.0279672     -7.4556183      1.9080499      50218.233      36.893836      36.893836      36.893836    
 213000000   0.37998163    -8.0236834     -7.453719       1.9451908      50218.233      36.893836      36.893836      36.893836    
 214000000   0.37860499    -8.0241579     -7.4562585      1.9312098      50218.233      36.893836      36.893836      36.893836    
 215000000   0.38096855    -8.0211027     -7.449658       1.9732463      50218.233      36.893836      36.893836      36.893836    
 216000000   0.38150963    -8.0230494     -7.4507931      1.9506505      50218.233      36.893836      36.893836      36.893836    
 217000000   0.38036254    -8.0227543     -7.4522186      1.9527462      50218.233      36.893836      36.893836      36.893836    
 218000000   0.37874186    -8.0243852     -7.4562805      1.9363306      50218.233      36.893836      36.893836      36.893836    
 219000000   0.38053452    -8.0266069     -7.4558133      1.9155933      50218.233      36.893836      36.893836      36.893836    
 220000000   0.38164579    -8.0229292     -7.4504686      1.9573623      50218.233      36.893836      36.893836      36.893836    
 221000000   0.38032296    -8.0195917     -7.4491154      1.9842094      50218.233      36.893836      36.893836      36.893836    
 222000000   0.38283905    -8.024933      -7.4506826      1.9443222      50218.233      36.893836      36.893836      36.893836    
 223000000   0.38084041    -8.0232039     -7.4519515      1.9638021      50218.233      36.893836      36.893836      36.893836    
 224000000   0.38019773    -8.0223164     -7.4520279      1.9617499      50218.233      36.893836      36.893836      36.893836    
 225000000   0.38033248    -8.026516      -7.4560254      1.9229896      50218.233      36.893836      36.893836      36.893836    
 226000000   0.37922034    -8.0230182     -7.4541957      1.9515901      50218.233      36.893836      36.893836      36.893836    
 227000000   0.38250127    -8.0245568     -7.4508131      1.9450824      50218.233      36.893836      36.893836      36.893836    
 228000000   0.38026674    -8.0210386     -7.4506466      1.9713136      50218.233      36.893836      36.893836      36.893836    
 229000000   0.38123524    -8.0269653     -7.4551206      1.92417        50218.233      36.893836      36.893836      36.893836    
 230000000   0.37795871    -8.0220869     -7.4551569      1.9564672      50218.233      36.893836      36.893836      36.893836    
 231000000   0.38097291    -8.025848      -7.4543967      1.9357352      50218.233      36.893836      36.893836      36.893836    
 232000000   0.37918267    -8.0235005     -7.4547346      1.9464175      50218.233      36.893836      36.893836      36.893836    
 233000000   0.37785815    -8.0256185     -7.4588393      1.9352172      50218.233      36.893836      36.893836      36.893836    
 234000000   0.37835818    -8.0273833     -7.4598541      1.9160356      50218.233      36.893836      36.893836      36.893836    
 235000000   0.37926773    -8.0258918     -7.4569982      1.9243481      50218.233      36.893836      36.893836      36.893836    
 236000000   0.37857471    -8.0269773     -7.4591234      1.9310799      50218.233      36.893836      36.893836      36.893836    
 237000000   0.37653183    -8.0265305     -7.4617408      1.9185147      50218.233      36.893836      36.893836      36.893836    
 238000000   0.37982878    -8.0254587     -7.4557236      1.9327163      50218.233      36.893836      36.893836      36.893836    
 239000000   0.37895131    -8.0276451     -7.4592263      1.9130021      50218.233      36.893836      36.893836      36.893836    
 240000000   0.38007325    -8.023679      -7.4535772      1.9437886      50218.233      36.893836      36.893836      36.893836    
 241000000   0.38086468    -8.0246119     -7.453323       1.9333048      50218.233      36.893836      36.893836      36.893836    
 242000000   0.38099683    -8.0288685     -7.4573814      1.9104668      50218.233      36.893836      36.893836      36.893836    
 243000000   0.38037012    -8.0247532     -7.4542061      1.9293929      50218.233      36.893836      36.893836      36.893836    
 244000000   0.38375456    -8.0233865     -7.4477629      1.9517566      50218.233      36.893836      36.893836      36.893836    
 245000000   0.38129881    -8.026174      -7.4542339      1.9406791      50218.233      36.893836      36.893836      36.893836    
 246000000   0.38298514    -8.0285854     -7.4541158      1.9022318      50218.233      36.893836      36.893836      36.893836    
 247000000   0.37976141    -8.0250534     -7.4554194      1.9350587      50218.233      36.893836      36.893836      36.893836    
 248000000   0.3778317     -8.0268412     -7.4601017      1.921496       50218.233      36.893836      36.893836      36.893836    
 249000000   0.37966352    -8.0233418     -7.4538546      1.9400933      50218.233      36.893836      36.893836      36.893836    
 250000000   0.38008273    -8.0242002     -7.4540842      1.9471031      50218.233      36.893836      36.893836      36.893836    
 251000000   0.38059274    -8.0268326     -7.4559516      1.9206039      50218.233      36.893836      36.893836      36.893836    
 252000000   0.37827216    -8.0234957     -7.4560955      1.9436924      50218.233      36.893836      36.893836      36.893836    
 253000000   0.37882899    -8.0273894     -7.459154       1.9221985      50218.233      36.893836      36.893836      36.893836    
 254000000   0.3787313     -8.0258977     -7.4578088      1.9297919      50218.233      36.893836      36.893836      36.893836    
 255000000   0.38263201    -8.0239041     -7.4499643      1.9448985      50218.233      36.893836      36.893836      36.893836    
 256000000   0.38102378    -8.0231197     -7.4515921      1.9546875      50218.233      36.893836      36.893836      36.893836    
 257000000   0.37938759    -8.0266082     -7.4575349      1.9369645      50218.233      36.893836      36.893836      36.893836    
 258000000   0.37973762    -8.0263662     -7.4567679      1.9297407      50218.233      36.893836      36.893836      36.893836    
 259000000   0.37912087    -8.0228461     -7.4541729      1.9474511      50218.233      36.893836      36.893836      36.893836    
 260000000   0.37831042    -8.0236148     -7.4561572      1.9517359      50218.233      36.893836      36.893836      36.893836    
 261000000   0.37978407    -8.0242688     -7.4546008      1.9409464      50218.233      36.893836      36.893836      36.893836    
 262000000   0.37992944    -8.0246165     -7.4547304      1.9409451      50218.233      36.893836      36.893836      36.893836    
 263000000   0.38005024    -8.0223076     -7.4522404      1.9603186      50218.233      36.893836      36.893836      36.893836    
 264000000   0.38238729    -8.0222859     -7.4487131      1.9605323      50218.233      36.893836      36.893836      36.893836    
 265000000   0.37973841    -8.0264065     -7.456807       1.9191176      50218.233      36.893836      36.893836      36.893836    
 266000000   0.37991347    -8.0264329     -7.4565708      1.9330779      50218.233      36.893836      36.893836      36.893836    
 267000000   0.37736123    -8.0274069     -7.4613731      1.9098081      50218.233      36.893836      36.893836      36.893836    
 268000000   0.37986023    -8.0225715     -7.4527892      1.9543571      50218.233      36.893836      36.893836      36.893836    
 269000000   0.38040531    -8.0250416     -7.4544417      1.9371429      50218.233      36.893836      36.893836      36.893836    
 270000000   0.38041539    -8.0241597     -7.4535447      1.9426519      50218.233      36.893836      36.893836      36.893836    
 271000000   0.37983355    -8.022101      -7.4523588      1.9517685      50218.233      36.893836      36.893836      36.893836    
 272000000   0.38095372    -8.0248778     -7.4534553      1.9393043      50218.233      36.893836      36.893836      36.893836    
 273000000   0.38039664    -8.0252825     -7.4546956      1.9393475      50218.233      36.893836      36.893836      36.893836    
 274000000   0.38173467    -8.0280589     -7.4554651      1.9111696      50218.233      36.893836      36.893836      36.893836    
 275000000   0.38027076    -8.0270597     -7.4566617      1.9165291      50218.233      36.893836      36.893836      36.893836    
 276000000   0.37937515    -8.0252435     -7.4561888      1.9369711      50218.233      36.893836      36.893836      36.893836    
 277000000   0.37865117    -8.0266853     -7.4587166      1.922849       50218.233      36.893836      36.893836      36.893836    
 278000000   0.38041307    -8.0257067     -7.4550952      1.9310898      50218.233      36.893836      36.893836      36.893836    
 279000000   0.37950831    -8.0262664     -7.457012       1.9396353      50218.233      36.893836      36.893836      36.893836    
 280000000   0.38139731    -8.0241269     -7.4520391      1.9511062      50218.233      36.893836      36.893836      36.893836    
 281000000   0.37923621    -8.0231879     -7.4543417      1.9604747      50218.233      36.893836      36.893836      36.893836    
 282000000   0.37946928    -8.0264475     -7.4572517      1.9216576      50218.233      36.893836      36.893836      36.893836    
 283000000   0.37906943    -8.0251822     -7.4565861      1.9422984      50218.233      36.893836      36.893836      36.893836    
 284000000   0.38242253    -8.0214736     -7.447848       1.962215       50218.233      36.893836      36.893836      36.893836    
 285000000   0.3789249     -8.0234573     -7.4550781      1.9471854      50218.233      36.893836      36.893836      36.893836    
 286000000   0.37991729    -8.0250121     -7.4551443      1.9339455      50218.233      36.893836      36.893836      36.893836    
 287000000   0.3792717     -8.0250387     -7.4561392      1.937336       50218.233      36.893836      36.893836      36.893836    
 288000000   0.38042075    -8.0246626     -7.4540396      1.9400367      50218.233      36.893836      36.893836      36.893836    
 289000000   0.37948678    -8.02806       -7.4588379      1.9142214      50218.233      36.893836      36.893836      36.893836    
 290000000   0.37962227    -8.0263782     -7.4569529      1.917706       50218.233      36.893836      36.893836      36.893836    
 291000000   0.37851584    -8.0270241     -7.4592584      1.9153085      50218.233      36.893836      36.893836      36.893836    
 292000000   0.38097671    -8.0249502     -7.4534932      1.9356486      50218.233      36.893836      36.893836      36.893836    
 293000000   0.37758042    -8.0288101     -7.4624475      1.9074785      50218.233      36.893836      36.893836      36.893836    
 294000000   0.3805143     -8.0263326     -7.4555692      1.9320313      50218.233      36.893836      36.893836      36.893836    
 295000000   0.38050908    -8.0294088     -7.4586533      1.9043343      50218.233      36.893836      36.893836      36.893836    
 296000000   0.38133358    -8.026251      -7.4542588      1.9324594      50218.233      36.893836      36.893836      36.893836    
 297000000   0.38020076    -8.0254806     -7.4551875      1.9351801      50218.233      36.893836      36.893836      36.893836    
 298000000   0.37981294    -8.0252538     -7.4555425      1.9324059      50218.233      36.893836      36.893836      36.893836    
 299000000   0.37981779    -8.0234026     -7.4536841      1.9514781      50218.233      36.893836      36.893836      36.893836    
 300000000   0.38048876    -8.0307087     -7.4599837      1.8931691      50218.233      36.893836      36.893836      36.893836    
 301000000   0.38054567    -8.0269458     -7.4561354      1.9251777      50218.233      36.893836      36.893836      36.893836    
 302000000   0.37909288    -8.0239113     -7.4552801      1.9552121      50218.233      36.893836      36.893836      36.893836    
 303000000   0.3797931     -8.0260124     -7.4563309      1.9359323      50218.233      36.893836      36.893836      36.893836    
 304000000   0.37855847    -8.0253002     -7.4574706      1.9338739      50218.233      36.893836      36.893836      36.893836    
 305000000   0.3817758     -8.0294791     -7.4568236      1.907061       50218.233      36.893836      36.893836      36.893836    
 306000000   0.37971639    -8.0259097     -7.4563432      1.9238533      50218.233      36.893836      36.893836      36.893836    
 307000000   0.37973567    -8.0255605     -7.4559651      1.9377333      50218.233      36.893836      36.893836      36.893836    
 308000000   0.37959044    -8.0286556     -7.459278       1.9140841      50218.233      36.893836      36.893836      36.893836    
 309000000   0.37999195    -8.0269315     -7.4569516      1.9259147      50218.233      36.893836      36.893836      36.893836    
 310000000   0.37943548    -8.0263626     -7.4572175      1.9271129      50218.233      36.893836      36.893836      36.893836    
 311000000   0.37869728    -8.0223396     -7.4543017      1.9476305      50218.233      36.893836      36.893836      36.893836    
 312000000   0.37972283    -8.0245128     -7.4549366      1.9423198      50218.233      36.893836      36.893836      36.893836    
 313000000   0.38214828    -8.0230166     -7.4498024      1.9750115      50218.233      36.893836      36.893836      36.893836    
 314000000   0.38110742    -8.0226002     -7.4509472      1.9438315      50218.233      36.893836      36.893836      36.893836    
 315000000   0.37888697    -8.0249765     -7.4566541      1.9288634      50218.233      36.893836      36.893836      36.893836    
 316000000   0.38305217    -8.025633      -7.4510629      1.9386179      50218.233      36.893836      36.893836      36.893836    
 317000000   0.38045232    -8.0250824     -7.454412       1.9419514      50218.233      36.893836      36.893836      36.893836    
 318000000   0.37979007    -8.0244875     -7.4548105      1.9364466      50218.233      36.893836      36.893836      36.893836    
 319000000   0.38137655    -8.0232317     -7.451175       1.9585985      50218.233      36.893836      36.893836      36.893836    
 320000000   0.38001288    -8.0204093     -7.4503981      1.9645337      50218.233      36.893836      36.893836      36.893836    
 321000000   0.37956253    -8.0241407     -7.454805       1.9379226      50218.233      36.893836      36.893836      36.893836    
 322000000   0.38112002    -8.0233467     -7.4516748      1.9511514      50218.233      36.893836      36.893836      36.893836    
 323000000   0.38089234    -8.0249395     -7.4536092      1.9405219      50218.233      36.893836      36.893836      36.893836    
 324000000   0.38124372    -8.0248635     -7.4530061      1.943425       50218.233      36.893836      36.893836      36.893836    
 325000000   0.37975256    -8.0230828     -7.4534621      1.946744       50218.233      36.893836      36.893836      36.893836    
 326000000   0.38018053    -8.0245227     -7.45426        1.929351       50218.233      36.893836      36.893836      36.893836    
 327000000   0.38023851    -8.0244918     -7.4541422      1.9299624      50218.233      36.893836      36.893836      36.893836    
 328000000   0.37935893    -8.0229616     -7.4539313      1.9507303      50218.233      36.893836      36.893836      36.893836    
 329000000   0.38073918    -8.0241011     -7.4530004      1.927203       50218.233      36.893836      36.893836      36.893836    
 330000000   0.37939251    -8.0252527     -7.456172       1.9364706      50218.233      36.893836      36.893836      36.893836    
 331000000   0.38221393    -8.0248858     -7.451573       1.9428163      50218.233      36.893836      36.893836      36.893836    
 332000000   0.38085581    -8.0249558     -7.4536802      1.9417591      50218.233      36.893836      36.893836      36.893836    
 333000000   0.3800282     -8.0241943     -7.4541601      1.9391835      50218.233      36.893836      36.893836      36.893836    
 334000000   0.37939051    -8.0269943     -7.4579167      1.9296594      50218.233      36.893836      36.893836      36.893836    
 335000000   0.38059889    -8.0224578     -7.4515676      1.9623964      50218.233      36.893836      36.893836      36.893836    
 336000000   0.38138361    -8.0256697     -7.4536024      1.9286841      50218.233      36.893836      36.893836      36.893836    
 337000000   0.37792942    -8.0281375     -7.4612514      1.9088803      50218.233      36.893836      36.893836      36.893836    
 338000000   0.37948932    -8.0259615     -7.4567356      1.9265935      50218.233      36.893836      36.893836      36.893836    
 339000000   0.3802245     -8.0237665     -7.4534378      1.9424229      50218.233      36.893836      36.893836      36.893836    
 340000000   0.37932451    -8.0254956     -7.4565169      1.9253118      50218.233      36.893836      36.893836      36.893836    
 341000000   0.38146851    -8.0273807     -7.455186       1.9185465      50218.233      36.893836      36.893836      36.893836    
 342000000   0.38054084    -8.0283637     -7.4575606      1.9148843      50218.233      36.893836      36.893836      36.893836    
 343000000   0.38163745    -8.0242051     -7.4517571      1.9394227      50218.233      36.893836      36.893836      36.893836    
 344000000   0.37898352    -8.0265225     -7.4580553      1.9308534      50218.233      36.893836      36.893836      36.893836    
 345000000   0.38119207    -8.0268825     -7.4551025      1.9244882      50218.233      36.893836      36.893836      36.893836    
 346000000   0.37847565    -8.026115      -7.4584096      1.9281847      50218.233      36.893836      36.893836      36.893836    
 347000000   0.38007569    -8.0269912     -7.4568857      1.9233443      50218.233      36.893836      36.893836      36.893836    
 348000000   0.37913381    -8.022167      -7.4534743      1.9596051      50218.233      36.893836      36.893836      36.893836    
 349000000   0.38092649    -8.0255545     -7.4541729      1.9398482      50218.233      36.893836      36.893836      36.893836    
 350000000   0.38092388    -8.024099      -7.4527213      1.9442419      50218.233      36.893836      36.893836      36.893836    
 351000000   0.37992351    -8.0281457     -7.4582685      1.9195249      50218.233      36.893836      36.893836      36.893836    
 352000000   0.37958333    -8.0238674     -7.4545005      1.9559048      50218.233      36.893836      36.893836      36.893836    
 353000000   0.38201527    -8.0299983     -7.4569836      1.9088095      50218.233      36.893836      36.893836      36.893836    
 354000000   0.38173648    -8.0281092     -7.4555127      1.922239       50218.233      36.893836      36.893836      36.893836    
 355000000   0.37915239    -8.0281362     -7.4594157      1.9120936      50218.233      36.893836      36.893836      36.893836    
 356000000   0.38219174    -8.0240702     -7.4507907      1.9470123      50218.233      36.893836      36.893836      36.893836    
 357000000   0.38134317    -8.0244667     -7.45246        1.9467072      50218.233      36.893836      36.893836      36.893836    
 358000000   0.38078625    -8.0273582     -7.4561869      1.9230642      50218.233      36.893836      36.893836      36.893836    
 359000000   0.37918914    -8.0280715     -7.4592959      1.9173943      50218.233      36.893836      36.893836      36.893836    
 360000000   0.37883876    -8.0256795     -7.4574294      1.9287307      50218.233      36.893836      36.893836      36.893836    
 361000000   0.37999121    -8.0238192     -7.4538405      1.9461782      50218.233      36.893836      36.893836      36.893836    
 362000000   0.37922633    -8.0235271     -7.4546957      1.9487331      50218.233      36.893836      36.893836      36.893836    
 363000000   0.38151992    -8.0265365     -7.4542647      1.9257146      50218.233      36.893836      36.893836      36.893836    
 364000000   0.38030481    -8.0239813     -7.4535322      1.9486671      50218.233      36.893836      36.893836      36.893836    
 365000000   0.37827661    -8.0247043     -7.4572974      1.9459909      50218.233      36.893836      36.893836      36.893836    
 366000000   0.379229      -8.0228913     -7.4540559      1.9568194      50218.233      36.893836      36.893836      36.893836    
 367000000   0.37902128    -8.0251815     -7.4566577      1.9292623      50218.233      36.893836      36.893836      36.893836    
 368000000   0.37951306    -8.0244043     -7.4551428      1.9393461      50218.233      36.893836      36.893836      36.893836    
 369000000   0.37743132    -8.0254664     -7.4593275      1.9339732      50218.233      36.893836      36.893836      36.893836    
 370000000   0.38113443    -8.0270641     -7.4553706      1.9319387      50218.233      36.893836      36.893836      36.893836    
 371000000   0.3786211     -8.0248123     -7.4568887      1.9434725      50218.233      36.893836      36.893836      36.893836    
 372000000   0.38017104    -8.0267936     -7.4565451      1.9229939      50218.233      36.893836      36.893836      36.893836    
 373000000   0.37895788    -8.0242905     -7.4558617      1.9597148      50218.233      36.893836      36.893836      36.893836    
 374000000   0.37907417    -8.0274157     -7.4588125      1.9230201      50218.233      36.893836      36.893836      36.893836    
 375000000   0.38111814    -8.0247176     -7.4530485      1.9382309      50218.233      36.893836      36.893836      36.893836    
 376000000   0.38153442    -8.028876      -7.4565825      1.9132778      50218.233      36.893836      36.893836      36.893836    
 377000000   0.37834905    -8.026826      -7.4593105      1.9249743      50218.233      36.893836      36.893836      36.893836    
 378000000   0.37948987    -8.0249991     -7.4557724      1.9467157      50218.233      36.893836      36.893836      36.893836    
 379000000   0.38080536    -8.0259139     -7.4547139      1.9398239      50218.233      36.893836      36.893836      36.893836    
 380000000   0.38063357    -8.0246845     -7.4537422      1.947729       50218.233      36.893836      36.893836      36.893836    
 381000000   0.37964648    -8.0259225     -7.4564608      1.9295967      50218.233      36.893836      36.893836      36.893836    
 382000000   0.38065659    -8.0266679     -7.4556912      1.934616       50218.233      36.893836      36.893836      36.893836    
 383000000   0.37995252    -8.0238198     -7.4538991      1.9538625      50218.233      36.893836      36.893836      36.893836    
 384000000   0.38080889    -8.0242199     -7.4530147      1.9439542      50218.233      36.893836      36.893836      36.893836    
 385000000   0.37811136    -8.0249485     -7.4577896      1.9347829      50218.233      36.893836      36.893836      36.893836    
 386000000   0.38026297    -8.0272369     -7.4568505      1.9210097      50218.233      36.893836      36.893836      36.893836    
 387000000   0.38284594    -8.0254408     -7.4511801      1.9339378      50218.233      36.893836      36.893836      36.893836    
 388000000   0.37871847    -8.026889      -7.4588194      1.9312016      50218.233      36.893836      36.893836      36.893836    
 389000000   0.37832983    -8.0276572     -7.4601705      1.9155732      50218.233      36.893836      36.893836      36.893836    
 390000000   0.38057015    -8.0239211     -7.453074       1.947444       50218.233      36.893836      36.893836      36.893836    
 391000000   0.37982874    -8.0264311     -7.4566961      1.9337475      50218.233      36.893836      36.893836      36.893836    
 392000000   0.37994378    -8.0251903     -7.4552827      1.9384364      50218.233      36.893836      36.893836      36.893836    
 393000000   0.38129807    -8.0255163     -7.4535773      1.9348499      50218.233      36.893836      36.893836      36.893836    
 394000000   0.3776348     -8.0266231     -7.4601789      1.9139203      50218.233      36.893836      36.893836      36.893836    
 395000000   0.37857961    -8.0242346     -7.4563733      1.9392303      50218.233      36.893836      36.893836      36.893836    
 396000000   0.37917878    -8.0261029     -7.4573428      1.9291881      50218.233      36.893836      36.893836      36.893836    
 397000000   0.37844275    -8.026387      -7.458731       1.9202804      50218.233      36.893836      36.893836      36.893836    
 398000000   0.38195089    -8.0266657     -7.4537475      1.9313044      50218.233      36.893836      36.893836      36.893836    
 399000000   0.38059463    -8.028632      -7.4577482      1.910693       50218.233      36.893836      36.893836      36.893836    
 400000000   0.38086135    -8.0288458     -7.4575619      1.9060136      50218.233      36.893836      36.893836      36.893836    
 401000000   0.38238474    -8.0261402     -7.4525712      1.9257227      50218.233      36.893836      36.893836      36.893836    
 402000000   0.37926982    -8.0260905     -7.4571938      1.9253179      50218.233      36.893836      36.893836      36.893836    
 403000000   0.37929469    -8.0254683     -7.4565344      1.9365602      50218.233      36.893836      36.893836      36.893836    
 404000000   0.37931787    -8.0288009     -7.4598322      1.9146733      50218.233      36.893836      36.893836      36.893836    
 405000000   0.38019536    -8.02407       -7.453785       1.938285       50218.233      36.893836      36.893836      36.893836    
 406000000   0.38076839    -8.0259978     -7.4548533      1.9421523      50218.233      36.893836      36.893836      36.893836    
 407000000   0.37864349    -8.0223229     -7.4543658      1.9591867      50218.233      36.893836      36.893836      36.893836    
 408000000   0.37971463    -8.0282557     -7.4586918      1.9131661      50218.233      36.893836      36.893836      36.893836    
 409000000   0.37995527    -8.0263113     -7.4563865      1.9352192      50218.233      36.893836      36.893836      36.893836    
 410000000   0.37913703    -8.0263482     -7.4576507      1.9394999      50218.233      36.893836      36.893836      36.893836    
 411000000   0.37928115    -8.0247882     -7.4558746      1.937323       50218.233      36.893836      36.893836      36.893836    
 412000000   0.37956362    -8.0273612     -7.4580239      1.9260286      50218.233      36.893836      36.893836      36.893836    
 413000000   0.37866984    -8.0253121     -7.4573154      1.9362433      50218.233      36.893836      36.893836      36.893836    
 414000000   0.38028083    -8.0270059     -7.4565928      1.9247663      50218.233      36.893836      36.893836      36.893836    
 415000000   0.37983191    -8.0259136     -7.4561738      1.9343841      50218.233      36.893836      36.893836      36.893836    
 416000000   0.38028414    -8.0273327     -7.4569146      1.9221202      50218.233      36.893836      36.893836      36.893836    
 417000000   0.38112969    -8.0246941     -7.4530077      1.9418518      50218.233      36.893836      36.893836      36.893836    
 418000000   0.38195178    -8.0230187     -7.4500991      1.9528769      50218.233      36.893836      36.893836      36.893836    
 419000000   0.37992226    -8.0247517     -7.4548764      1.9428367      50218.233      36.893836      36.893836      36.893836    
 420000000   0.38054867    -8.0256897     -7.4548748      1.933619       50218.233      36.893836      36.893836      36.893836    
 421000000   0.37927411    -8.0243614     -7.4554583      1.9456335      50218.233      36.893836      36.893836      36.893836    
 422000000   0.38026561    -8.0242643     -7.453874       1.9435676      50218.233      36.893836      36.893836      36.893836    
 423000000   0.37943398    -8.0264132     -7.4572703      1.9246554      50218.233      36.893836      36.893836      36.893836    
 424000000   0.38112687    -8.0251272     -7.453445       1.9401826      50218.233      36.893836      36.893836      36.893836    
 425000000   0.38053915    -8.0242594     -7.4534588      1.9475583      50218.233      36.893836      36.893836      36.893836    
 426000000   0.38062868    -8.0230258     -7.4520909      1.9547195      50218.233      36.893836      36.893836      36.893836    
 427000000   0.37909175    -8.0256302     -7.4570007      1.9294688      50218.233      36.893836      36.893836      36.893836    
 428000000   0.38082884    -8.0296444     -7.4584092      1.892932       50218.233      36.893836      36.893836      36.893836    
 429000000   0.37950478    -8.0272341     -7.4579851      1.9199869      50218.233      36.893836      36.893836      36.893836    
 430000000   0.37960832    -8.0285763     -7.4591719      1.9082034      50218.233      36.893836      36.893836      36.893836    
 431000000   0.3778199     -8.0284934     -7.4617716      1.9126311      50218.233      36.893836      36.893836      36.893836    
 432000000   0.37778331    -8.0256145     -7.4589476      1.929426       50218.233      36.893836      36.893836      36.893836    
 433000000   0.3805604     -8.0256124     -7.45478        1.9290811      50218.233      36.893836      36.893836      36.893836    
 434000000   0.38143572    -8.0259989     -7.4538534      1.9336158      50218.233      36.893836      36.893836      36.893836    
 435000000   0.38173642    -8.0256936     -7.4530971      1.9332738      50218.233      36.893836      36.893836      36.893836    
 436000000   0.37971312    -8.0262972     -7.4567356      1.9282019      50218.233      36.893836      36.893836      36.893836    
 437000000   0.37984835    -8.0255346     -7.4557702      1.9202796      50218.233      36.893836      36.893836      36.893836    
 438000000   0.38015539    -8.0257532     -7.4555282      1.9246678      50218.233      36.893836      36.893836      36.893836    
 439000000   0.37926458    -8.0258058     -7.456917       1.9342176      50218.233      36.893836      36.893836      36.893836    
 440000000   0.38185741    -8.0278857     -7.4551077      1.9064086      50218.233      36.893836      36.893836      36.893836    
 441000000   0.38064622    -8.0279193     -7.4569581      1.9106967      50218.233      36.893836      36.893836      36.893836    
 442000000   0.37921713    -8.0271034     -7.4582858      1.9172339      50218.233      36.893836      36.893836      36.893836    
 443000000   0.37977425    -8.0275929     -7.4579396      1.9188048      50218.233      36.893836      36.893836      36.893836    
 444000000   0.38037164    -8.02769       -7.4571406      1.9264947      50218.233      36.893836      36.893836      36.893836    
 445000000   0.37923689    -8.0294768     -7.4606296      1.9051535      50218.233      36.893836      36.893836      36.893836    
 446000000   0.3823011     -8.0261863     -7.4527428      1.9277286      50218.233      36.893836      36.893836      36.893836    
 447000000   0.38028847    -8.0274667     -7.4570421      1.9136431      50218.233      36.893836      36.893836      36.893836    
 448000000   0.38256667    -8.0287628     -7.4549209      1.9187814      50218.233      36.893836      36.893836      36.893836    
 449000000   0.38010004    -8.027521      -7.457379       1.9174564      50218.233      36.893836      36.893836      36.893836    
 450000000   0.3773049     -8.0264373     -7.460488       1.9218288      50218.233      36.893836      36.893836      36.893836    
 451000000   0.38015429    -8.0278432     -7.4576198      1.9037692      50218.233      36.893836      36.893836      36.893836    
 452000000   0.37958252    -8.0259872     -7.4566215      1.9299306      50218.233      36.893836      36.893836      36.893836    
 453000000   0.38069071    -8.0267193     -7.4556914      1.9199782      50218.233      36.893836      36.893836      36.893836    
 454000000   0.37729614    -8.0276323     -7.4616961      1.9199001      50218.233      36.893836      36.893836      36.893836    
 455000000   0.38059767    -8.0250923     -7.4542039      1.9290936      50218.233      36.893836      36.893836      36.893836    
 456000000   0.37887093    -8.0262866     -7.4579883      1.9173809      50218.233      36.893836      36.893836      36.893836    
 457000000   0.38005415    -8.0288621     -7.4587889      1.9031298      50218.233      36.893836      36.893836      36.893836    
 458000000   0.37833689    -8.0271601     -7.4596629      1.9191368      50218.233      36.893836      36.893836      36.893836    
 459000000   0.37944439    -8.0289675     -7.459809       1.9067455      50218.233      36.893836      36.893836      36.893836    
 460000000   0.37991532    -8.0302636     -7.4603987      1.9040743      50218.233      36.893836      36.893836      36.893836    
 461000000   0.37849242    -8.0256725     -7.457942       1.9419808      50218.233      36.893836      36.893836      36.893836    
 462000000   0.38233663    -8.0264209     -7.4529241      1.9315499      50218.233      36.893836      36.893836      36.893836    
 463000000   0.38087137    -8.0267889     -7.45549        1.9294122      50218.233      36.893836      36.893836      36.893836    
 464000000   0.38191732    -8.0279433     -7.4550754      1.9148574      50218.233      36.893836      36.893836      36.893836    
 465000000   0.37670169    -8.0281732     -7.4631287      1.9188229      50218.233      36.893836      36.893836      36.893836    
 466000000   0.37868982    -8.0263866     -7.4583599      1.927187       50218.233      36.893836      36.893836      36.893836    
 467000000   0.37852301    -8.0277603     -7.4599838      1.9137544      50218.233      36.893836      36.893836      36.893836    
 468000000   0.3811373     -8.0243313     -7.4526334      1.9453107      50218.233      36.893836      36.893836      36.893836    
 469000000   0.37878604    -8.0285999     -7.4604289      1.9144909      50218.233      36.893836      36.893836      36.893836    
 470000000   0.37899449    -8.0262176     -7.457734       1.9242105      50218.233      36.893836      36.893836      36.893836    
 471000000   0.3796694     -8.0284013     -7.4589054      1.9075542      50218.233      36.893836      36.893836      36.893836    
 472000000   0.38064712    -8.0246595     -7.453697       1.9458817      50218.233      36.893836      36.893836      36.893836    
 473000000   0.38131958    -8.0255253     -7.4535541      1.9316133      50218.233      36.893836      36.893836      36.893836    
 474000000   0.38147051    -8.0265808     -7.4543832      1.9291391      50218.233      36.893836      36.893836      36.893836    
 475000000   0.37998163    -8.0297256     -7.4597613      1.908873       50218.233      36.893836      36.893836      36.893836    
 476000000   0.38132363    -8.0239882     -7.4520109      1.9470694      50218.233      36.893836      36.893836      36.893836    
 477000000   0.38182115    -8.0260002     -7.4532766      1.9325667      50218.233      36.893836      36.893836      36.893836    
 478000000   0.38055965    -8.0268871     -7.4560558      1.9204027      50218.233      36.893836      36.893836      36.893836    
 479000000   0.37997494    -8.0278849     -7.4579306      1.91288        50218.233      36.893836      36.893836      36.893836    
 480000000   0.38073081    -8.02391       -7.4528219      1.9444924      50218.233      36.893836      36.893836      36.893836    
 481000000   0.3821649     -8.0242785     -7.4510393      1.9474078      50218.233      36.893836      36.893836      36.893836    
 482000000   0.38189075    -8.0260714     -7.4532434      1.9333728      50218.233      36.893836      36.893836      36.893836    
 483000000   0.3794676     -8.0285142     -7.4593209      1.9130088      50218.233      36.893836      36.893836      36.893836    
 484000000   0.3796241     -8.0267844     -7.4573563      1.9154165      50218.233      36.893836      36.893836      36.893836    
 485000000   0.37884941    -8.0264376     -7.4581715      1.9270269      50218.233      36.893836      36.893836      36.893836    
 486000000   0.37933294    -8.0289174     -7.4599261      1.9069593      50218.233      36.893836      36.893836      36.893836    
 487000000   0.38151655    -8.0236735     -7.4514068      1.9500512      50218.233      36.893836      36.893836      36.893836    
 488000000   0.38069307    -8.0274004     -7.4563689      1.9245713      50218.233      36.893836      36.893836      36.893836    
 489000000   0.37792517    -8.0285174     -7.4616377      1.9081712      50218.233      36.893836      36.893836      36.893836    
 490000000   0.38072431    -8.0257301     -7.4546518      1.9238233      50218.233      36.893836      36.893836      36.893836    
 491000000   0.37914726    -8.0247229     -7.4560101      1.9394659      50218.233      36.893836      36.893836      36.893836    
 492000000   0.3796222     -8.029809      -7.4603837      1.903793       50218.233      36.893836      36.893836      36.893836    
 493000000   0.37835405    -8.0267175     -7.4591945      1.9178714      50218.233      36.893836      36.893836      36.893836    
 494000000   0.37817335    -8.0267861     -7.4595342      1.9107957      50218.233      36.893836      36.893836      36.893836    
 495000000   0.38057843    -8.0268295     -7.45597        1.9176162      50218.233      36.893836      36.893836      36.893836    
 496000000   0.37970115    -8.0295163     -7.4599726      1.8939083      50218.233      36.893836      36.893836      36.893836    
 497000000   0.38031806    -8.0311748     -7.4607059      1.8857806      50218.233      36.893836      36.893836      36.893836    
 498000000   0.37944789    -8.0284479     -7.4592842      1.9142031      50218.233      36.893836      36.893836      36.893836    
 499000000   0.37928607    -8.0278709     -7.4589499      1.9088237      50218.233      36.893836      36.893836      36.893836    
 500000000   0.38030682    -8.0288519     -7.4583998      1.9063228      50218.233      36.893836      36.893836      36.893836    
Loop time of 730039 on 5 procs for 500000000 steps with 70304 atoms

Performance: 591749.192 tau/day, 684.895 timesteps/s, 48.151 Matom-step/s
94.7% CPU use with 5 MPI tasks x 1 OpenMP threads

MPI task timing breakdown:
Section |  min time  |  avg time  |  max time  |%varavg| %total
---------------------------------------------------------------
Pair    | 2.5691e+05 | 2.7309e+05 | 2.8668e+05 |1845.6 | 37.41
Neigh   | 2218.7     | 2344.3     | 2456.3     | 207.0 |  0.32
Comm    | 1.1173e+05 | 1.1199e+05 | 1.1238e+05 |  78.6 | 15.34
Output  | 0.090741   | 0.094002   | 0.099793   |   1.0 |  0.00
Modify  | 2.9212e+05 | 3.0571e+05 | 3.2153e+05 |1706.7 | 41.88
Other   |            | 3.689e+04  |            |       |  5.05

Nlocal:        14060.8 ave       14102 max       14028 min
Histogram: 1 0 1 0 1 1 0 0 0 1
Nghost:          18713 ave       18736 max       18675 min
Histogram: 1 0 0 0 0 0 2 0 1 1
Neighs:              0 ave           0 max           0 min
Histogram: 5 0 0 0 0 0 0 0 0 0

Total # of neighbors = 0
Ave neighs/atom = 0
Neighbor list builds = 91593255
Dangerous builds = 0
Total wall time: 1563:45:39
