variable TLJ equal (${T}/1000)
variable TLJ equal (460/1000)
variable NCyle equal 5
variable iStep equal (${f})
variable iStep equal (1000000)
variable dumpStep equal (${f}*100)
variable dumpStep equal (1000000*100)
variable runStep equal (${f}*100*${NCyle})
variable runStep equal (1000000*100*${NCyle})
variable runStep equal (1000000*100*5)

units       lj
atom_style  atomic
dimension 3
boundary     p p p
pair_style  lj/cut 2.5
read_data  ../data/T${T}.dat
read_data  ../data/T460.dat
Reading data file ...
  orthogonal box = (0.97250269 0.97250269 0.97250269) to (37.866338 37.866338 37.866338)
  1 by 1 by 5 MPI processor grid
  reading atoms ...
  70304 atoms
  reading velocities ...
  70304 velocities
  read_data CPU = 0.211 seconds
change_box all triclinic
Changing box ...
  triclinic box = (0.97250269 0.97250269 0.97250269) to (37.866338 37.866338 37.866338) with tilt (0 0 0)
mass 1 1
mass 2 1
pair_modify shift yes
pair_coeff  1 1 1 1
pair_coeff  1 2 1.5 0.8
pair_coeff  2 2 0.5 0.88


timestep 0.01
thermo ${iStep}
thermo 1000000
reset_timestep 0
thermo_style custom step temp pe etotal press vol lx ly lz
fix             1 all nvt temp ${TLJ}  ${TLJ}  0.1
fix             1 all nvt temp 0.46  ${TLJ}  0.1
fix             1 all nvt temp 0.46  0.46  0.1
thermo_modify flush yes

fix dsf all deform 1 xy  wiggle 0.5  ${f}   units box
fix dsf all deform 1 xy  wiggle 0.5  1000000   units box
fix ps1 all ave/time 1 1 ${iStep} c_thermo_press[1] c_thermo_press[2]  c_thermo_press[3] c_thermo_press[4]  c_thermo_press[5] c_thermo_press[6]  file  stress.${T}
fix ps1 all ave/time 1 1 1000000 c_thermo_press[1] c_thermo_press[2]  c_thermo_press[3] c_thermo_press[4]  c_thermo_press[5] c_thermo_press[6]  file  stress.${T}
fix ps1 all ave/time 1 1 1000000 c_thermo_press[1] c_thermo_press[2]  c_thermo_press[3] c_thermo_press[4]  c_thermo_press[5] c_thermo_press[6]  file  stress.460
dump            1 all custom ${dumpStep} dump.${T} id type x y z
dump            1 all custom 100000000 dump.${T} id type x y z
dump            1 all custom 100000000 dump.460 id type x y z
dump_modify 1 sort id
fix nodrift all momentum 1  linear 1 1 1
fix com_seed all recenter INIT INIT INIT shift all
run ${runStep}
run 500000000
Generated 0 of 1 mixed pair_coeff terms from geometric mixing rule
Per MPI rank memory allocation (min/avg/max) = 6.665 | 8.016 | 8.92 Mbytes
   Step          Temp          PotEng         TotEng         Press          Volume           Lx             Ly             Lz      
         0   0.4590978     -7.8986281     -7.2099911      2.9759023      50218.233      36.893836      36.893836      36.893836    
   1000000   0.45952998    -7.8932868     -7.2040017      3.0179144      50218.233      36.893836      36.893836      36.893836    
   2000000   0.46080167    -7.8912045     -7.2000118      3.0469387      50218.233      36.893836      36.893836      36.893836    
   3000000   0.45778985    -7.8932291     -7.206554       3.0140305      50218.233      36.893836      36.893836      36.893836    
   4000000   0.46213599    -7.8904304     -7.1972362      3.0325556      50218.233      36.893836      36.893836      36.893836    
   5000000   0.46144098    -7.8945316     -7.20238        3.0234384      50218.233      36.893836      36.893836      36.893836    
   6000000   0.46031465    -7.8915938     -7.2011317      3.0352796      50218.233      36.893836      36.893836      36.893836    
   7000000   0.46041593    -7.8936489     -7.2030348      3.0213353      50218.233      36.893836      36.893836      36.893836    
   8000000   0.46125139    -7.8914901     -7.1996229      3.028902       50218.233      36.893836      36.893836      36.893836    
   9000000   0.45977145    -7.8939576     -7.2043103      3.0126733      50218.233      36.893836      36.893836      36.893836    
  10000000   0.46012056    -7.8953611     -7.20519        2.9940127      50218.233      36.893836      36.893836      36.893836    
  11000000   0.46071007    -7.8952774     -7.2042222      3.0118674      50218.233      36.893836      36.893836      36.893836    
  12000000   0.45893884    -7.8987257     -7.2103272      2.9766576      50218.233      36.893836      36.893836      36.893836    
  13000000   0.45928923    -7.8986365     -7.2097124      2.9810988      50218.233      36.893836      36.893836      36.893836    
  14000000   0.46099758    -7.8967758     -7.2052893      2.9988232      50218.233      36.893836      36.893836      36.893836    
  15000000   0.4597272     -7.8972157     -7.2076347      2.9961701      50218.233      36.893836      36.893836      36.893836    
  16000000   0.45993984    -7.8963929     -7.2064929      2.9925119      50218.233      36.893836      36.893836      36.893836    
  17000000   0.46009721    -7.8946325     -7.2044965      3.0092423      50218.233      36.893836      36.893836      36.893836    
  18000000   0.46404633    -7.8942083     -7.1981487      3.0205398      50218.233      36.893836      36.893836      36.893836    
  19000000   0.46171917    -7.894933      -7.2023641      3.0159094      50218.233      36.893836      36.893836      36.893836    
  20000000   0.46029667    -7.8966065     -7.2061713      3.0019428      50218.233      36.893836      36.893836      36.893836    
  21000000   0.46044146    -7.8963454     -7.2056931      3.0026531      50218.233      36.893836      36.893836      36.893836    
  22000000   0.45952515    -7.8966306     -7.2073527      3.0008923      50218.233      36.893836      36.893836      36.893836    
  23000000   0.4607851     -7.8950716     -7.2039038      3.0020611      50218.233      36.893836      36.893836      36.893836    
  24000000   0.46001471    -7.901282      -7.2112697      2.971117       50218.233      36.893836      36.893836      36.893836    
  25000000   0.4607287     -7.8976947     -7.2066115      2.982624       50218.233      36.893836      36.893836      36.893836    
  26000000   0.45907745    -7.8979385     -7.2093321      2.9846698      50218.233      36.893836      36.893836      36.893836    
  27000000   0.46102945    -7.8954266     -7.2038922      2.9912361      50218.233      36.893836      36.893836      36.893836    
  28000000   0.46064887    -7.8968355     -7.205872       2.9874322      50218.233      36.893836      36.893836      36.893836    
  29000000   0.45797197    -7.8963459     -7.2093977      2.9964088      50218.233      36.893836      36.893836      36.893836    
  30000000   0.46046931    -7.8974264     -7.2067323      2.9922288      50218.233      36.893836      36.893836      36.893836    
  31000000   0.46139437    -7.8973416     -7.2052599      2.9970723      50218.233      36.893836      36.893836      36.893836    
  32000000   0.45861582    -7.8953634     -7.2074495      2.9971331      50218.233      36.893836      36.893836      36.893836    
  33000000   0.46031176    -7.8967878     -7.20633        2.9898899      50218.233      36.893836      36.893836      36.893836    
  34000000   0.45930768    -7.8957158     -7.206764       3.0102686      50218.233      36.893836      36.893836      36.893836    
  35000000   0.45989369    -7.8984593     -7.2086286      2.9853935      50218.233      36.893836      36.893836      36.893836    
  36000000   0.46163979    -7.8925483     -7.2000985      3.0362497      50218.233      36.893836      36.893836      36.893836    
  37000000   0.45939545    -7.897178      -7.2080946      2.9959248      50218.233      36.893836      36.893836      36.893836    
  38000000   0.45716392    -7.9019398     -7.2162037      2.9479742      50218.233      36.893836      36.893836      36.893836    
  39000000   0.45797179    -7.8948018     -7.2078539      3.0048171      50218.233      36.893836      36.893836      36.893836    
  40000000   0.45964611    -7.8995558     -7.2100964      2.96258        50218.233      36.893836      36.893836      36.893836    
  41000000   0.4591881     -7.9026995     -7.2139272      2.9533583      50218.233      36.893836      36.893836      36.893836    
  42000000   0.4602332     -7.9021632     -7.2118232      2.9543743      50218.233      36.893836      36.893836      36.893836    
  43000000   0.46116921    -7.9012986     -7.2095547      2.9540127      50218.233      36.893836      36.893836      36.893836    
  44000000   0.46069966    -7.9021198     -7.2110802      2.9550453      50218.233      36.893836      36.893836      36.893836    
  45000000   0.45983654    -7.8982561     -7.2085111      2.9838829      50218.233      36.893836      36.893836      36.893836    
  46000000   0.46032985    -7.9012554     -7.2107705      2.9556276      50218.233      36.893836      36.893836      36.893836    
  47000000   0.45966361    -7.8998706     -7.210385       2.9743902      50218.233      36.893836      36.893836      36.893836    
  48000000   0.46055237    -7.9032489     -7.2124302      2.9497586      50218.233      36.893836      36.893836      36.893836    
  49000000   0.45964972    -7.8983176     -7.2088529      2.9784997      50218.233      36.893836      36.893836      36.893836    
  50000000   0.46341179    -7.9019604     -7.2068526      2.9679762      50218.233      36.893836      36.893836      36.893836    
  51000000   0.45991736    -7.9008087     -7.2109425      2.9500681      50218.233      36.893836      36.893836      36.893836    
  52000000   0.46036453    -7.8993621     -7.2088251      2.9743206      50218.233      36.893836      36.893836      36.893836    
  53000000   0.4603991     -7.8956553     -7.2050665      3.0050811      50218.233      36.893836      36.893836      36.893836    
  54000000   0.46207168    -7.8936549     -7.2005573      3.0225469      50218.233      36.893836      36.893836      36.893836    
  55000000   0.45965957    -7.9005663     -7.2110868      2.9754577      50218.233      36.893836      36.893836      36.893836    
  56000000   0.46007945    -7.8985762     -7.2084668      2.9801154      50218.233      36.893836      36.893836      36.893836    
  57000000   0.4615212     -7.901236      -7.2089641      2.9607344      50218.233      36.893836      36.893836      36.893836    
  58000000   0.4613809     -7.9003771     -7.2083156      2.9669095      50218.233      36.893836      36.893836      36.893836    
  59000000   0.46064546    -7.8997725     -7.2088141      2.9698166      50218.233      36.893836      36.893836      36.893836    
  60000000   0.45753404    -7.9014775     -7.2151862      2.9496954      50218.233      36.893836      36.893836      36.893836    
  61000000   0.46088577    -7.898625      -7.2073062      2.9824346      50218.233      36.893836      36.893836      36.893836    
  62000000   0.46205302    -7.8973999     -7.2043302      3.0015942      50218.233      36.893836      36.893836      36.893836    
  63000000   0.46127901    -7.8965668     -7.2046581      2.9977399      50218.233      36.893836      36.893836      36.893836    
  64000000   0.45923394    -7.9016687     -7.2128276      2.9536108      50218.233      36.893836      36.893836      36.893836    
  65000000   0.45961879    -7.9023697     -7.2129513      2.9499914      50218.233      36.893836      36.893836      36.893836    
  66000000   0.4603883     -7.8950947     -7.2045221      3.0055958      50218.233      36.893836      36.893836      36.893836    
  67000000   0.45865944    -7.9024705     -7.2144911      2.9612101      50218.233      36.893836      36.893836      36.893836    
  68000000   0.46200224    -7.9021161     -7.2091226      2.9577354      50218.233      36.893836      36.893836      36.893836    
  69000000   0.45947452    -7.904049      -7.2148471      2.9447064      50218.233      36.893836      36.893836      36.893836    
  70000000   0.46005647    -7.9022951     -7.2122202      2.9451073      50218.233      36.893836      36.893836      36.893836    
  71000000   0.45947352    -7.8994648     -7.2102644      2.9832682      50218.233      36.893836      36.893836      36.893836    
  72000000   0.45991576    -7.901295      -7.2114311      2.9473505      50218.233      36.893836      36.893836      36.893836    
  73000000   0.46169363    -7.9004647     -7.2079341      2.9656688      50218.233      36.893836      36.893836      36.893836    
  74000000   0.4613521     -7.901534      -7.2095157      2.9632362      50218.233      36.893836      36.893836      36.893836    
  75000000   0.46212836    -7.9012947     -7.208112       2.9710527      50218.233      36.893836      36.893836      36.893836    
  76000000   0.46008506    -7.9001801     -7.2100623      2.9678051      50218.233      36.893836      36.893836      36.893836    
  77000000   0.46138443    -7.9008111     -7.2087443      2.9703089      50218.233      36.893836      36.893836      36.893836    
  78000000   0.46136291    -7.8986167     -7.2065822      2.9848172      50218.233      36.893836      36.893836      36.893836    
  79000000   0.46264096    -7.8951173     -7.2011657      3.0266951      50218.233      36.893836      36.893836      36.893836    
  80000000   0.45937412    -7.9014144     -7.212363       2.9569786      50218.233      36.893836      36.893836      36.893836    
  81000000   0.45829597    -7.899049      -7.2116148      2.9735622      50218.233      36.893836      36.893836      36.893836    
  82000000   0.46099844    -7.9021711     -7.2106833      2.9657128      50218.233      36.893836      36.893836      36.893836    
  83000000   0.46180294    -7.900501      -7.2078064      2.9729403      50218.233      36.893836      36.893836      36.893836    
  84000000   0.45963446    -7.9018572     -7.2124154      2.956433       50218.233      36.893836      36.893836      36.893836    
  85000000   0.45823784    -7.9032101     -7.2158631      2.9531553      50218.233      36.893836      36.893836      36.893836    
  86000000   0.46036926    -7.9021069     -7.2115629      2.9607921      50218.233      36.893836      36.893836      36.893836    
  87000000   0.45876318    -7.9007919     -7.2126569      2.9729358      50218.233      36.893836      36.893836      36.893836    
  88000000   0.46068573    -7.9023447     -7.211326       2.9540653      50218.233      36.893836      36.893836      36.893836    
  89000000   0.46151437    -7.9055182     -7.2132565      2.9377857      50218.233      36.893836      36.893836      36.893836    
  90000000   0.45964246    -7.901766      -7.2123121      2.9587909      50218.233      36.893836      36.893836      36.893836    
  91000000   0.46242074    -7.9055579     -7.2119366      2.9314646      50218.233      36.893836      36.893836      36.893836    
  92000000   0.45920008    -7.9032785     -7.2144881      2.9517648      50218.233      36.893836      36.893836      36.893836    
  93000000   0.46085304    -7.903029      -7.2117593      2.9487959      50218.233      36.893836      36.893836      36.893836    
  94000000   0.46029714    -7.9069163     -7.2164804      2.9172487      50218.233      36.893836      36.893836      36.893836    
  95000000   0.46138938    -7.9007117     -7.2086375      2.9684689      50218.233      36.893836      36.893836      36.893836    
  96000000   0.46115624    -7.901837      -7.2101125      2.9562557      50218.233      36.893836      36.893836      36.893836    
  97000000   0.45961401    -7.8984216     -7.2090104      2.9902473      50218.233      36.893836      36.893836      36.893836    
  98000000   0.459532      -7.903493      -7.2142048      2.9482128      50218.233      36.893836      36.893836      36.893836    
  99000000   0.46009977    -7.9015276     -7.2113877      2.9522267      50218.233      36.893836      36.893836      36.893836    
 100000000   0.46002485    -7.9069133     -7.2168858      2.9147166      50218.233      36.893836      36.893836      36.893836    
 101000000   0.45879738    -7.8990571     -7.2108708      2.9805778      50218.233      36.893836      36.893836      36.893836    
 102000000   0.46033851    -7.9003384     -7.2098405      2.957365       50218.233      36.893836      36.893836      36.893836    
 103000000   0.46136169    -7.9039745     -7.2119418      2.9401954      50218.233      36.893836      36.893836      36.893836    
 104000000   0.45966028    -7.9024113     -7.2129307      2.9510221      50218.233      36.893836      36.893836      36.893836    
 105000000   0.4637802     -7.9026421     -7.2069817      2.9573998      50218.233      36.893836      36.893836      36.893836    
 106000000   0.45668066    -7.905689      -7.2206778      2.920454       50218.233      36.893836      36.893836      36.893836    
 107000000   0.45898344    -7.9028097     -7.2143443      2.942916       50218.233      36.893836      36.893836      36.893836    
 108000000   0.45777961    -7.909071      -7.2224113      2.8856443      50218.233      36.893836      36.893836      36.893836    
 109000000   0.46134978    -7.9007297     -7.2087149      2.9660177      50218.233      36.893836      36.893836      36.893836    
 110000000   0.46048564    -7.9028828     -7.2121641      2.9543834      50218.233      36.893836      36.893836      36.893836    
 111000000   0.45938596    -7.9035784     -7.2145093      2.9447582      50218.233      36.893836      36.893836      36.893836    
 112000000   0.45874171    -7.9050541     -7.2169513      2.9302621      50218.233      36.893836      36.893836      36.893836    
 113000000   0.46104919    -7.9044773     -7.2129134      2.921502       50218.233      36.893836      36.893836      36.893836    
 114000000   0.45940036    -7.9022077     -7.2131169      2.9539317      50218.233      36.893836      36.893836      36.893836    
 115000000   0.45849929    -7.9016364     -7.2138972      2.9585585      50218.233      36.893836      36.893836      36.893836    
 116000000   0.46132822    -7.899362      -7.2073795      2.9716197      50218.233      36.893836      36.893836      36.893836    
 117000000   0.46233889    -7.8992826     -7.2057841      2.9772615      50218.233      36.893836      36.893836      36.893836    
 118000000   0.4615755     -7.9019391     -7.2095857      2.9601949      50218.233      36.893836      36.893836      36.893836    
 119000000   0.45951762    -7.9025299     -7.2132632      2.9444921      50218.233      36.893836      36.893836      36.893836    
 120000000   0.45868549    -7.9043974     -7.2163789      2.9335067      50218.233      36.893836      36.893836      36.893836    
 121000000   0.46069059    -7.8995509     -7.2085248      2.9771154      50218.233      36.893836      36.893836      36.893836    
 122000000   0.45861745    -7.9029105     -7.2149941      2.9477977      50218.233      36.893836      36.893836      36.893836    
 123000000   0.46064962    -7.9024887     -7.2115241      2.9410891      50218.233      36.893836      36.893836      36.893836    
 124000000   0.45873688    -7.9055427     -7.2174472      2.9264551      50218.233      36.893836      36.893836      36.893836    
 125000000   0.46074195    -7.9051112     -7.2140081      2.9324509      50218.233      36.893836      36.893836      36.893836    
 126000000   0.46056235    -7.9058459     -7.2150122      2.9349405      50218.233      36.893836      36.893836      36.893836    
 127000000   0.45844787    -7.9045471     -7.2168851      2.9419947      50218.233      36.893836      36.893836      36.893836    
 128000000   0.45882814    -7.8989254     -7.2106929      2.9803557      50218.233      36.893836      36.893836      36.893836    
 129000000   0.46179692    -7.8996584     -7.2069729      2.9668568      50218.233      36.893836      36.893836      36.893836    
 130000000   0.46117024    -7.8991613     -7.2074157      2.9901202      50218.233      36.893836      36.893836      36.893836    
 131000000   0.45904755    -7.901957      -7.2133955      2.9556134      50218.233      36.893836      36.893836      36.893836    
 132000000   0.46000709    -7.8980676     -7.2080668      2.9722958      50218.233      36.893836      36.893836      36.893836    
 133000000   0.46083917    -7.9021435     -7.2108946      2.9600932      50218.233      36.893836      36.893836      36.893836    
 134000000   0.46018361    -7.9044039     -7.2141383      2.936952       50218.233      36.893836      36.893836      36.893836    
 135000000   0.45783937    -7.9015922     -7.2148429      2.961821       50218.233      36.893836      36.893836      36.893836    
 136000000   0.45920481    -7.9016779     -7.2128805      2.9522247      50218.233      36.893836      36.893836      36.893836    
 137000000   0.46090503    -7.9021362     -7.2107885      2.9565201      50218.233      36.893836      36.893836      36.893836    
 138000000   0.45870385    -7.9080948     -7.2200488      2.9113904      50218.233      36.893836      36.893836      36.893836    
 139000000   0.4594401     -7.9035941     -7.2144437      2.9405206      50218.233      36.893836      36.893836      36.893836    
 140000000   0.45971592    -7.9045732     -7.2150091      2.9309408      50218.233      36.893836      36.893836      36.893836    
 141000000   0.46014777    -7.903806      -7.2135942      2.9359292      50218.233      36.893836      36.893836      36.893836    
 142000000   0.46252124    -7.902113      -7.208341       2.9438728      50218.233      36.893836      36.893836      36.893836    
 143000000   0.46118277    -7.9021979     -7.2104335      2.9531973      50218.233      36.893836      36.893836      36.893836    
 144000000   0.46046581    -7.9049692     -7.2142803      2.9311526      50218.233      36.893836      36.893836      36.893836    
 145000000   0.45758566    -7.9021457     -7.215777       2.9501557      50218.233      36.893836      36.893836      36.893836    
 146000000   0.4598517     -7.9049581     -7.2151903      2.9389414      50218.233      36.893836      36.893836      36.893836    
 147000000   0.4583288     -7.9008428     -7.2133593      2.9580806      50218.233      36.893836      36.893836      36.893836    
 148000000   0.46176692    -7.9031257     -7.2104852      2.944894       50218.233      36.893836      36.893836      36.893836    
 149000000   0.45758241    -7.901563      -7.2151991      2.9468217      50218.233      36.893836      36.893836      36.893836    
 150000000   0.45695654    -7.9049487     -7.2195236      2.9224776      50218.233      36.893836      36.893836      36.893836    
 151000000   0.45825045    -7.90032       -7.2129541      2.9670007      50218.233      36.893836      36.893836      36.893836    
 152000000   0.45757471    -7.8999812     -7.2136289      2.9713966      50218.233      36.893836      36.893836      36.893836    
 153000000   0.45846726    -7.9018312     -7.2141401      2.9606476      50218.233      36.893836      36.893836      36.893836    
 154000000   0.45924042    -7.8997929     -7.2109421      2.9760585      50218.233      36.893836      36.893836      36.893836    
 155000000   0.45948655    -7.9036061     -7.214386       2.9484899      50218.233      36.893836      36.893836      36.893836    
 156000000   0.46081477    -7.9032521     -7.2120398      2.9511597      50218.233      36.893836      36.893836      36.893836    
 157000000   0.46005905    -7.898487      -7.2084082      2.9853825      50218.233      36.893836      36.893836      36.893836    
 158000000   0.46199185    -7.9009012     -7.2079233      2.9623537      50218.233      36.893836      36.893836      36.893836    
 159000000   0.46033754    -7.9026427     -7.2121462      2.952099       50218.233      36.893836      36.893836      36.893836    
 160000000   0.459744      -7.9016003     -7.2119941      2.9651436      50218.233      36.893836      36.893836      36.893836    
 161000000   0.46173451    -7.8999693     -7.2073774      2.9741497      50218.233      36.893836      36.893836      36.893836    
 162000000   0.45846183    -7.9024132     -7.2147302      2.9350588      50218.233      36.893836      36.893836      36.893836    
 163000000   0.45924738    -7.9053732     -7.2165119      2.933199       50218.233      36.893836      36.893836      36.893836    
 164000000   0.46008947    -7.9018291     -7.2117047      2.9618542      50218.233      36.893836      36.893836      36.893836    
 165000000   0.46078062    -7.9021086     -7.2109475      2.9489073      50218.233      36.893836      36.893836      36.893836    
 166000000   0.46129309    -7.9014276     -7.2094978      2.9635367      50218.233      36.893836      36.893836      36.893836    
 167000000   0.4589016     -7.898793      -7.2104504      2.9757002      50218.233      36.893836      36.893836      36.893836    
 168000000   0.45965324    -7.9010736     -7.2116036      2.9648842      50218.233      36.893836      36.893836      36.893836    
 169000000   0.46119406    -7.9002663     -7.2084851      2.9677079      50218.233      36.893836      36.893836      36.893836    
 170000000   0.46052982    -7.9037785     -7.2129936      2.9370161      50218.233      36.893836      36.893836      36.893836    
 171000000   0.4601181     -7.9009785     -7.2108111      2.9723061      50218.233      36.893836      36.893836      36.893836    
 172000000   0.46062275    -7.9018147     -7.2108904      2.9581813      50218.233      36.893836      36.893836      36.893836    
 173000000   0.45964085    -7.9040265     -7.2145751      2.9394496      50218.233      36.893836      36.893836      36.893836    
 174000000   0.46074312    -7.9052791     -7.2141742      2.9303829      50218.233      36.893836      36.893836      36.893836    
 175000000   0.46248263    -7.9056665     -7.2119524      2.9389105      50218.233      36.893836      36.893836      36.893836    
 176000000   0.45849224    -7.9035901     -7.2158615      2.940583       50218.233      36.893836      36.893836      36.893836    
 177000000   0.46135417    -7.9029715     -7.2109501      2.9424214      50218.233      36.893836      36.893836      36.893836    
 178000000   0.45876674    -7.9038126     -7.2156723      2.9469297      50218.233      36.893836      36.893836      36.893836    
 179000000   0.45798598    -7.9049255     -7.2179563      2.9436307      50218.233      36.893836      36.893836      36.893836    
 180000000   0.4625061     -7.9037936     -7.2100443      2.948291       50218.233      36.893836      36.893836      36.893836    
 181000000   0.46023447    -7.9013802     -7.2110383      2.9759776      50218.233      36.893836      36.893836      36.893836    
 182000000   0.45962353    -7.9029542     -7.2135287      2.9470954      50218.233      36.893836      36.893836      36.893836    
 183000000   0.46007565    -7.9014555     -7.2113518      2.9694491      50218.233      36.893836      36.893836      36.893836    
 184000000   0.45977043    -7.9052417     -7.2155959      2.9311916      50218.233      36.893836      36.893836      36.893836    
 185000000   0.45991771    -7.9044119     -7.2145451      2.9474332      50218.233      36.893836      36.893836      36.893836    
 186000000   0.45949237    -7.9063184     -7.2170896      2.9321332      50218.233      36.893836      36.893836      36.893836    
 187000000   0.45783919    -7.9028801     -7.2161311      2.9490086      50218.233      36.893836      36.893836      36.893836    
 188000000   0.46055847    -7.9008072     -7.2099794      2.9679519      50218.233      36.893836      36.893836      36.893836    
 189000000   0.45784465    -7.9040981     -7.2173409      2.9457784      50218.233      36.893836      36.893836      36.893836    
 190000000   0.45989088    -7.9028678     -7.2130413      2.9548342      50218.233      36.893836      36.893836      36.893836    
 191000000   0.45808865    -7.9067487     -7.2196255      2.9155984      50218.233      36.893836      36.893836      36.893836    
 192000000   0.4578182     -7.9076914     -7.2209739      2.9063172      50218.233      36.893836      36.893836      36.893836    
 193000000   0.45966456    -7.9040492     -7.2145622      2.933458       50218.233      36.893836      36.893836      36.893836    
 194000000   0.45984897    -7.8995361     -7.2097724      2.9778701      50218.233      36.893836      36.893836      36.893836    
 195000000   0.45970808    -7.9031341     -7.2135818      2.9494792      50218.233      36.893836      36.893836      36.893836    
 196000000   0.45932991    -7.9045062     -7.2155212      2.9390679      50218.233      36.893836      36.893836      36.893836    
 197000000   0.45793574    -7.9004949     -7.213601       2.9556708      50218.233      36.893836      36.893836      36.893836    
 198000000   0.4605123     -7.9007813     -7.2100227      2.9624781      50218.233      36.893836      36.893836      36.893836    
 199000000   0.45959758    -7.9035503     -7.2141637      2.9467251      50218.233      36.893836      36.893836      36.893836    
 200000000   0.459815      -7.9095241     -7.2198114      2.8936237      50218.233      36.893836      36.893836      36.893836    
 201000000   0.46167579    -7.9070375     -7.2145337      2.9318568      50218.233      36.893836      36.893836      36.893836    
 202000000   0.45957374    -7.9009629     -7.2116121      2.9627597      50218.233      36.893836      36.893836      36.893836    
 203000000   0.46043029    -7.910757      -7.2201214      2.8999558      50218.233      36.893836      36.893836      36.893836    
 204000000   0.45993151    -7.9064628     -7.2165753      2.9183553      50218.233      36.893836      36.893836      36.893836    
 205000000   0.45924799    -7.9044734     -7.2156112      2.9434691      50218.233      36.893836      36.893836      36.893836    
 206000000   0.4606508     -7.9116317     -7.2206653      2.8810292      50218.233      36.893836      36.893836      36.893836    
 207000000   0.45898444    -7.9023041     -7.2138372      2.9450762      50218.233      36.893836      36.893836      36.893836    
 208000000   0.46058908    -7.906318      -7.2154442      2.9422159      50218.233      36.893836      36.893836      36.893836    
 209000000   0.45796659    -7.9046544     -7.2177143      2.9329262      50218.233      36.893836      36.893836      36.893836    
 210000000   0.45956346    -7.9056907     -7.2163554      2.9198154      50218.233      36.893836      36.893836      36.893836    
 211000000   0.46065105    -7.9105882     -7.2196215      2.8922114      50218.233      36.893836      36.893836      36.893836    
 212000000   0.46330632    -7.9058205     -7.2108709      2.9468198      50218.233      36.893836      36.893836      36.893836    
 213000000   0.45958601    -7.9067866     -7.2174174      2.9345289      50218.233      36.893836      36.893836      36.893836    
 214000000   0.45931921    -7.9082282     -7.2192592      2.921591       50218.233      36.893836      36.893836      36.893836    
 215000000   0.46136054    -7.9037008     -7.2116699      2.962078       50218.233      36.893836      36.893836      36.893836    
 216000000   0.46055408    -7.9065142     -7.2156929      2.9197635      50218.233      36.893836      36.893836      36.893836    
 217000000   0.45882536    -7.9021151     -7.2138868      2.9511305      50218.233      36.893836      36.893836      36.893836    
 218000000   0.45815369    -7.9047344     -7.2175136      2.9268699      50218.233      36.893836      36.893836      36.893836    
 219000000   0.45943127    -7.9063971     -7.21726        2.9237022      50218.233      36.893836      36.893836      36.893836    
 220000000   0.46011634    -7.9052625     -7.2150978      2.9328704      50218.233      36.893836      36.893836      36.893836    
 221000000   0.46187933    -7.9085635     -7.2157544      2.9057999      50218.233      36.893836      36.893836      36.893836    
 222000000   0.45930519    -7.9021836     -7.2132356      2.9460918      50218.233      36.893836      36.893836      36.893836    
 223000000   0.46090667    -7.9034908     -7.2121406      2.9422126      50218.233      36.893836      36.893836      36.893836    
 224000000   0.45974763    -7.9060808     -7.2164692      2.9305633      50218.233      36.893836      36.893836      36.893836    
 225000000   0.45970481    -7.902875      -7.2133276      2.9492656      50218.233      36.893836      36.893836      36.893836    
 226000000   0.46197334    -7.904208      -7.2112578      2.9430533      50218.233      36.893836      36.893836      36.893836    
 227000000   0.4607645     -7.9063899     -7.215253       2.9307863      50218.233      36.893836      36.893836      36.893836    
 228000000   0.4576164     -7.9039873     -7.2175724      2.9360193      50218.233      36.893836      36.893836      36.893836    
 229000000   0.46078229    -7.9043673     -7.2132037      2.9412078      50218.233      36.893836      36.893836      36.893836    
 230000000   0.4577121     -7.9056644     -7.219106       2.9293359      50218.233      36.893836      36.893836      36.893836    
 231000000   0.45808492    -7.9075091     -7.2203915      2.9149811      50218.233      36.893836      36.893836      36.893836    
 232000000   0.46118447    -7.9028721     -7.2111053      2.9512901      50218.233      36.893836      36.893836      36.893836    
 233000000   0.4624655     -7.9070856     -7.2133972      2.9141928      50218.233      36.893836      36.893836      36.893836    
 234000000   0.46006729    -7.9029446     -7.2128535      2.9581286      50218.233      36.893836      36.893836      36.893836    
 235000000   0.45935199    -7.9048256     -7.2158074      2.9332794      50218.233      36.893836      36.893836      36.893836    
 236000000   0.45873408    -7.904878      -7.2167866      2.927051       50218.233      36.893836      36.893836      36.893836    
 237000000   0.45993659    -7.9077349     -7.2178399      2.9213151      50218.233      36.893836      36.893836      36.893836    
 238000000   0.45957304    -7.9051937     -7.2158439      2.9280916      50218.233      36.893836      36.893836      36.893836    
 239000000   0.46123019    -7.9037531     -7.2119176      2.9438512      50218.233      36.893836      36.893836      36.893836    
 240000000   0.46124846    -7.9024474     -7.2105845      2.9529992      50218.233      36.893836      36.893836      36.893836    
 241000000   0.45979595    -7.9026674     -7.2129833      2.9432663      50218.233      36.893836      36.893836      36.893836    
 242000000   0.45963495    -7.9020372     -7.2125946      2.9498085      50218.233      36.893836      36.893836      36.893836    
 243000000   0.45866023    -7.9056248     -7.2176442      2.9265802      50218.233      36.893836      36.893836      36.893836    
 244000000   0.45894231    -7.9075767     -7.219173       2.914931       50218.233      36.893836      36.893836      36.893836    
 245000000   0.46074076    -7.9037892     -7.2126879      2.946368       50218.233      36.893836      36.893836      36.893836    
 246000000   0.461053      -7.9061418     -7.2145721      2.9359301      50218.233      36.893836      36.893836      36.893836    
 247000000   0.46106367    -7.9090373     -7.2174517      2.9067159      50218.233      36.893836      36.893836      36.893836    
 248000000   0.4581598     -7.9047507     -7.2175207      2.9209713      50218.233      36.893836      36.893836      36.893836    
 249000000   0.4602196     -7.9079283     -7.2176087      2.9085705      50218.233      36.893836      36.893836      36.893836    
 250000000   0.46026225    -7.9033411     -7.2129576      2.9498789      50218.233      36.893836      36.893836      36.893836    
 251000000   0.45865384    -7.9038169     -7.2158459      2.9508269      50218.233      36.893836      36.893836      36.893836    
 252000000   0.45869505    -7.9069085     -7.2188757      2.9197669      50218.233      36.893836      36.893836      36.893836    
 253000000   0.45657467    -7.9060084     -7.2211562      2.9296835      50218.233      36.893836      36.893836      36.893836    
 254000000   0.45950862    -7.908032      -7.2187789      2.9150939      50218.233      36.893836      36.893836      36.893836    
 255000000   0.45869491    -7.9066694     -7.2186368      2.9237344      50218.233      36.893836      36.893836      36.893836    
 256000000   0.46072341    -7.9090996     -7.2180244      2.9091442      50218.233      36.893836      36.893836      36.893836    
 257000000   0.45996333    -7.9086442     -7.218709       2.9109246      50218.233      36.893836      36.893836      36.893836    
 258000000   0.46065055    -7.9056815     -7.2147155      2.9307075      50218.233      36.893836      36.893836      36.893836    
 259000000   0.46142823    -7.9067174     -7.2145849      2.9346249      50218.233      36.893836      36.893836      36.893836    
 260000000   0.45986841    -7.9035082     -7.2137154      2.9460404      50218.233      36.893836      36.893836      36.893836    
 261000000   0.46072729    -7.906953      -7.2158719      2.9220884      50218.233      36.893836      36.893836      36.893836    
 262000000   0.46037287    -7.9086785     -7.218129       2.9034789      50218.233      36.893836      36.893836      36.893836    
 263000000   0.46079276    -7.9050057     -7.2138264      2.9359499      50218.233      36.893836      36.893836      36.893836    
 264000000   0.46307434    -7.9105063     -7.2159047      2.9077767      50218.233      36.893836      36.893836      36.893836    
 265000000   0.46182226    -7.9008759     -7.2081523      2.9730894      50218.233      36.893836      36.893836      36.893836    
 266000000   0.45757145    -7.9027913     -7.2164439      2.9496889      50218.233      36.893836      36.893836      36.893836    
 267000000   0.46241154    -7.905848      -7.2122406      2.9397983      50218.233      36.893836      36.893836      36.893836    
 268000000   0.45816672    -7.9062609     -7.2190206      2.9323914      50218.233      36.893836      36.893836      36.893836    
 269000000   0.46023027    -7.9082041     -7.2178685      2.9176029      50218.233      36.893836      36.893836      36.893836    
 270000000   0.46298232    -7.9102827     -7.2158191      2.9009318      50218.233      36.893836      36.893836      36.893836    
 271000000   0.4577656     -7.9088895     -7.2222509      2.9094816      50218.233      36.893836      36.893836      36.893836    
 272000000   0.46089414    -7.9032117     -7.2118803      2.9489048      50218.233      36.893836      36.893836      36.893836    
 273000000   0.45906254    -7.9077735     -7.2191895      2.9148308      50218.233      36.893836      36.893836      36.893836    
 274000000   0.45900515    -7.9089819     -7.220484       2.898725       50218.233      36.893836      36.893836      36.893836    
 275000000   0.45899843    -7.905722      -7.2172342      2.9262406      50218.233      36.893836      36.893836      36.893836    
 276000000   0.45767781    -7.907569      -7.2210621      2.9216001      50218.233      36.893836      36.893836      36.893836    
 277000000   0.45914465    -7.906432      -7.2177248      2.9193673      50218.233      36.893836      36.893836      36.893836    
 278000000   0.46004299    -7.9117048     -7.2216501      2.8835534      50218.233      36.893836      36.893836      36.893836    
 279000000   0.46132545    -7.9073412     -7.2153628      2.9182701      50218.233      36.893836      36.893836      36.893836    
 280000000   0.45829657    -7.9055194     -7.2180843      2.924971       50218.233      36.893836      36.893836      36.893836    
 281000000   0.45789261    -7.9058298     -7.2190006      2.9207998      50218.233      36.893836      36.893836      36.893836    
 282000000   0.46138903    -7.9074043     -7.2153306      2.9166284      50218.233      36.893836      36.893836      36.893836    
 283000000   0.45760982    -7.9092471     -7.2228421      2.8974428      50218.233      36.893836      36.893836      36.893836    
 284000000   0.46152461    -7.9125231     -7.2202461      2.8755923      50218.233      36.893836      36.893836      36.893836    
 285000000   0.45910988    -7.9115534     -7.2228984      2.8924953      50218.233      36.893836      36.893836      36.893836    
 286000000   0.4579853     -7.9042944     -7.2173262      2.9347899      50218.233      36.893836      36.893836      36.893836    
 287000000   0.46087977    -7.9095813     -7.2182715      2.9026261      50218.233      36.893836      36.893836      36.893836    
 288000000   0.46050711    -7.9079773     -7.2172264      2.9172405      50218.233      36.893836      36.893836      36.893836    
 289000000   0.46107566    -7.909375      -7.2177713      2.9101266      50218.233      36.893836      36.893836      36.893836    
 290000000   0.4611965     -7.9057848     -7.2139999      2.94019        50218.233      36.893836      36.893836      36.893836    
 291000000   0.45953784    -7.9060725     -7.2167755      2.9239371      50218.233      36.893836      36.893836      36.893836    
 292000000   0.4597563     -7.9048073     -7.2151827      2.9465325      50218.233      36.893836      36.893836      36.893836    
 293000000   0.46272732    -7.9099063     -7.2158252      2.9088035      50218.233      36.893836      36.893836      36.893836    
 294000000   0.45818034    -7.9111284     -7.2238677      2.8927829      50218.233      36.893836      36.893836      36.893836    
 295000000   0.45994374    -7.9079009     -7.2179951      2.9243329      50218.233      36.893836      36.893836      36.893836    
 296000000   0.45842679    -7.9124608     -7.2248304      2.8801815      50218.233      36.893836      36.893836      36.893836    
 297000000   0.45946349    -7.9078826     -7.2186972      2.9124002      50218.233      36.893836      36.893836      36.893836    
 298000000   0.45912486    -7.9081066     -7.2194291      2.9134409      50218.233      36.893836      36.893836      36.893836    
 299000000   0.46120431    -7.9129246     -7.2211279      2.8830334      50218.233      36.893836      36.893836      36.893836    
 300000000   0.45886773    -7.9084568     -7.220165       2.9058048      50218.233      36.893836      36.893836      36.893836    
 301000000   0.4583183     -7.9088597     -7.2213921      2.8968554      50218.233      36.893836      36.893836      36.893836    
 302000000   0.45921025    -7.9104009     -7.2215954      2.8988372      50218.233      36.893836      36.893836      36.893836    
 303000000   0.46090149    -7.9102993     -7.2189569      2.8934068      50218.233      36.893836      36.893836      36.893836    
 304000000   0.45771781    -7.908881      -7.2223141      2.9093053      50218.233      36.893836      36.893836      36.893836    
 305000000   0.46169594    -7.9088515     -7.2163174      2.9110747      50218.233      36.893836      36.893836      36.893836    
 306000000   0.4615127     -7.9067176     -7.2144584      2.9138223      50218.233      36.893836      36.893836      36.893836    
 307000000   0.46096788    -7.9091192     -7.2176772      2.9090304      50218.233      36.893836      36.893836      36.893836    
 308000000   0.46096501    -7.9075528     -7.2161151      2.9066345      50218.233      36.893836      36.893836      36.893836    
 309000000   0.45997479    -7.9088006     -7.2188482      2.9074633      50218.233      36.893836      36.893836      36.893836    
 310000000   0.46044062    -7.9080028     -7.2173517      2.9174588      50218.233      36.893836      36.893836      36.893836    
 311000000   0.46133312    -7.9073241     -7.2153342      2.9133813      50218.233      36.893836      36.893836      36.893836    
 312000000   0.45793207    -7.909395      -7.2225067      2.8945162      50218.233      36.893836      36.893836      36.893836    
 313000000   0.45992117    -7.90692       -7.2170481      2.9210499      50218.233      36.893836      36.893836      36.893836    
 314000000   0.46078217    -7.9035193     -7.2123559      2.9416184      50218.233      36.893836      36.893836      36.893836    
 315000000   0.46204167    -7.9075092     -7.2144565      2.9175015      50218.233      36.893836      36.893836      36.893836    
 316000000   0.45825611    -7.9057875     -7.2184131      2.9234531      50218.233      36.893836      36.893836      36.893836    
 317000000   0.45888926    -7.9053366     -7.2170125      2.9300706      50218.233      36.893836      36.893836      36.893836    
 318000000   0.46032992    -7.9080266     -7.2175416      2.9133913      50218.233      36.893836      36.893836      36.893836    
 319000000   0.4597138     -7.9066598     -7.2170989      2.9102337      50218.233      36.893836      36.893836      36.893836    
 320000000   0.46149868    -7.9034267     -7.2111885      2.9490815      50218.233      36.893836      36.893836      36.893836    
 321000000   0.46182744    -7.9059459     -7.2132145      2.9231452      50218.233      36.893836      36.893836      36.893836    
 322000000   0.45891081    -7.9086153     -7.2202589      2.9051126      50218.233      36.893836      36.893836      36.893836    
 323000000   0.45766657    -7.9066757     -7.2201856      2.9232339      50218.233      36.893836      36.893836      36.893836    
 324000000   0.45995891    -7.910392      -7.2204634      2.8885053      50218.233      36.893836      36.893836      36.893836    
 325000000   0.4599941     -7.9078785     -7.2178972      2.9134495      50218.233      36.893836      36.893836      36.893836    
 326000000   0.45918151    -7.9062108     -7.2174483      2.92985        50218.233      36.893836      36.893836      36.893836    
 327000000   0.46132536    -7.9099237     -7.2179455      2.9032152      50218.233      36.893836      36.893836      36.893836    
 328000000   0.45816746    -7.9106446     -7.2234032      2.8864144      50218.233      36.893836      36.893836      36.893836    
 329000000   0.45970004    -7.9114328     -7.2218926      2.8918365      50218.233      36.893836      36.893836      36.893836    
 330000000   0.45785435    -7.9073251     -7.2205533      2.9055317      50218.233      36.893836      36.893836      36.893836    
 331000000   0.46024486    -7.9063902     -7.2160327      2.9227905      50218.233      36.893836      36.893836      36.893836    
 332000000   0.46050052    -7.908806      -7.218065       2.8950357      50218.233      36.893836      36.893836      36.893836    
 333000000   0.4624602     -7.9090122     -7.2153318      2.8994901      50218.233      36.893836      36.893836      36.893836    
 334000000   0.46103915    -7.908035      -7.2164861      2.9054875      50218.233      36.893836      36.893836      36.893836    
 335000000   0.46061826    -7.9034482     -7.2125307      2.9477972      50218.233      36.893836      36.893836      36.893836    
 336000000   0.45910004    -7.9064253     -7.2177851      2.9222595      50218.233      36.893836      36.893836      36.893836    
 337000000   0.45932832    -7.9111012     -7.2221185      2.8915957      50218.233      36.893836      36.893836      36.893836    
 338000000   0.46086136    -7.9056429     -7.2143607      2.9284479      50218.233      36.893836      36.893836      36.893836    
 339000000   0.46022729    -7.9089504     -7.2186193      2.8933786      50218.233      36.893836      36.893836      36.893836    
 340000000   0.4582575     -7.9095406     -7.2221642      2.8898979      50218.233      36.893836      36.893836      36.893836    
 341000000   0.45963843    -7.908025      -7.2185772      2.9023986      50218.233      36.893836      36.893836      36.893836    
 342000000   0.46081737    -7.9088232     -7.2176069      2.895348       50218.233      36.893836      36.893836      36.893836    
 343000000   0.45990273    -7.9107692     -7.2209249      2.8796921      50218.233      36.893836      36.893836      36.893836    
 344000000   0.45945272    -7.9151527     -7.2259834      2.8519775      50218.233      36.893836      36.893836      36.893836    
 345000000   0.45991594    -7.9109368     -7.2210727      2.8899308      50218.233      36.893836      36.893836      36.893836    
 346000000   0.46128296    -7.9101813     -7.2182667      2.8959383      50218.233      36.893836      36.893836      36.893836    
 347000000   0.45915407    -7.9096939     -7.2209726      2.8811717      50218.233      36.893836      36.893836      36.893836    
 348000000   0.4586321     -7.9104499     -7.2225116      2.8902398      50218.233      36.893836      36.893836      36.893836    
 349000000   0.46053555    -7.9052784     -7.2144849      2.9174958      50218.233      36.893836      36.893836      36.893836    
 350000000   0.46197286    -7.9101484     -7.217199       2.89392        50218.233      36.893836      36.893836      36.893836    
 351000000   0.46018285    -7.9113126     -7.2210481      2.8872279      50218.233      36.893836      36.893836      36.893836    
 352000000   0.4584952     -7.9074202     -7.2196871      2.9111049      50218.233      36.893836      36.893836      36.893836    
 353000000   0.45923593    -7.9059358     -7.2170917      2.9378528      50218.233      36.893836      36.893836      36.893836    
 354000000   0.45830583    -7.9067299     -7.219281       2.9185335      50218.233      36.893836      36.893836      36.893836    
 355000000   0.46039312    -7.9092294     -7.2186496      2.9047432      50218.233      36.893836      36.893836      36.893836    
 356000000   0.45946529    -7.9116744     -7.2224863      2.8836658      50218.233      36.893836      36.893836      36.893836    
 357000000   0.45778826    -7.9098127     -7.22314        2.9029845      50218.233      36.893836      36.893836      36.893836    
 358000000   0.46249848    -7.9155346     -7.2217967      2.8676158      50218.233      36.893836      36.893836      36.893836    
 359000000   0.45968874    -7.9119381     -7.2224148      2.8809744      50218.233      36.893836      36.893836      36.893836    
 360000000   0.45869184    -7.9067448     -7.2187168      2.9254676      50218.233      36.893836      36.893836      36.893836    
 361000000   0.4595048     -7.908838      -7.2195906      2.9069402      50218.233      36.893836      36.893836      36.893836    
 362000000   0.45911097    -7.9094993     -7.2208426      2.8984953      50218.233      36.893836      36.893836      36.893836    
 363000000   0.46052461    -7.9054911     -7.214714       2.9219554      50218.233      36.893836      36.893836      36.893836    
 364000000   0.46055066    -7.909022      -7.2182058      2.9118963      50218.233      36.893836      36.893836      36.893836    
 365000000   0.46045539    -7.9037133     -7.2130401      2.9465151      50218.233      36.893836      36.893836      36.893836    
 366000000   0.46028079    -7.907428      -7.2170167      2.9104922      50218.233      36.893836      36.893836      36.893836    
 367000000   0.45874119    -7.9073193     -7.2192173      2.9085353      50218.233      36.893836      36.893836      36.893836    
 368000000   0.45872599    -7.9082087     -7.2201295      2.9126045      50218.233      36.893836      36.893836      36.893836    
 369000000   0.46233325    -7.9093566     -7.2158666      2.8976484      50218.233      36.893836      36.893836      36.893836    
 370000000   0.46046817    -7.9073537     -7.2166612      2.9151636      50218.233      36.893836      36.893836      36.893836    
 371000000   0.45890833    -7.9072358     -7.2188831      2.9260665      50218.233      36.893836      36.893836      36.893836    
 372000000   0.46230448    -7.9067984     -7.2133515      2.9231607      50218.233      36.893836      36.893836      36.893836    
 373000000   0.45826564    -7.9083055     -7.2209168      2.8960292      50218.233      36.893836      36.893836      36.893836    
 374000000   0.45914376    -7.9070689     -7.218363       2.9062252      50218.233      36.893836      36.893836      36.893836    
 375000000   0.45982686    -7.9088813     -7.2191508      2.9149722      50218.233      36.893836      36.893836      36.893836    
 376000000   0.45969421    -7.9058401     -7.2163086      2.9236204      50218.233      36.893836      36.893836      36.893836    
 377000000   0.45958947    -7.9087956     -7.2194212      2.8962884      50218.233      36.893836      36.893836      36.893836    
 378000000   0.46106837    -7.9053328     -7.2137401      2.9302111      50218.233      36.893836      36.893836      36.893836    
 379000000   0.45704006    -7.9081317     -7.2225813      2.9097552      50218.233      36.893836      36.893836      36.893836    
 380000000   0.46215423    -7.9097547     -7.2165332      2.9048905      50218.233      36.893836      36.893836      36.893836    
 381000000   0.46141619    -7.911264      -7.2191496      2.8910358      50218.233      36.893836      36.893836      36.893836    
 382000000   0.46076953    -7.9090548     -7.2179103      2.8990638      50218.233      36.893836      36.893836      36.893836    
 383000000   0.45837047    -7.9009164     -7.2133705      2.9568333      50218.233      36.893836      36.893836      36.893836    
 384000000   0.45940033    -7.9055136     -7.2164229      2.930677       50218.233      36.893836      36.893836      36.893836    
 385000000   0.45947697    -7.9100758     -7.2208701      2.905223       50218.233      36.893836      36.893836      36.893836    
 386000000   0.46079358    -7.9078004     -7.2166198      2.9174001      50218.233      36.893836      36.893836      36.893836    
 387000000   0.46136123    -7.9063736     -7.2143416      2.9243865      50218.233      36.893836      36.893836      36.893836    
 388000000   0.46049109    -7.9037012     -7.2129744      2.9429991      50218.233      36.893836      36.893836      36.893836    
 389000000   0.46003402    -7.9049301     -7.2148889      2.937643       50218.233      36.893836      36.893836      36.893836    
 390000000   0.45699707    -7.9070567     -7.2215708      2.9167999      50218.233      36.893836      36.893836      36.893836    
 391000000   0.460927      -7.9078509     -7.2164702      2.9097829      50218.233      36.893836      36.893836      36.893836    
 392000000   0.45952239    -7.9054782     -7.2162044      2.9209914      50218.233      36.893836      36.893836      36.893836    
 393000000   0.45895573    -7.9062622     -7.2178384      2.9162289      50218.233      36.893836      36.893836      36.893836    
 394000000   0.45940432    -7.9052479     -7.2161512      2.9238492      50218.233      36.893836      36.893836      36.893836    
 395000000   0.46083046    -7.907842      -7.2166062      2.9056941      50218.233      36.893836      36.893836      36.893836    
 396000000   0.45993169    -7.9084958     -7.2186081      2.9051712      50218.233      36.893836      36.893836      36.893836    
 397000000   0.46103533    -7.907454      -7.2159109      2.9158135      50218.233      36.893836      36.893836      36.893836    
 398000000   0.46013643    -7.9081042     -7.2179094      2.9030459      50218.233      36.893836      36.893836      36.893836    
 399000000   0.45897       -7.9066951     -7.2182499      2.9093896      50218.233      36.893836      36.893836      36.893836    
 400000000   0.46283231    -7.9095657     -7.2153271      2.9000533      50218.233      36.893836      36.893836      36.893836    
 401000000   0.45971366    -7.9087888     -7.2192281      2.9054425      50218.233      36.893836      36.893836      36.893836    
 402000000   0.46023523    -7.904601      -7.214258       2.9397117      50218.233      36.893836      36.893836      36.893836    
 403000000   0.46004696    -7.9117109     -7.2216503      2.8683444      50218.233      36.893836      36.893836      36.893836    
 404000000   0.45891317    -7.9072761     -7.2189162      2.9143089      50218.233      36.893836      36.893836      36.893836    
 405000000   0.45991961    -7.9087275     -7.2188578      2.9169574      50218.233      36.893836      36.893836      36.893836    
 406000000   0.45820432    -7.9071683     -7.2198716      2.9083398      50218.233      36.893836      36.893836      36.893836    
 407000000   0.46127511    -7.9072626     -7.2153598      2.9148596      50218.233      36.893836      36.893836      36.893836    
 408000000   0.46042026    -7.9089424     -7.2183218      2.9015041      50218.233      36.893836      36.893836      36.893836    
 409000000   0.45791102    -7.9060801     -7.2192234      2.9183789      50218.233      36.893836      36.893836      36.893836    
 410000000   0.45836592    -7.9060605     -7.2185214      2.9239105      50218.233      36.893836      36.893836      36.893836    
 411000000   0.46090261    -7.9079234     -7.2165793      2.9183568      50218.233      36.893836      36.893836      36.893836    
 412000000   0.46124959    -7.9100276     -7.2181631      2.8932119      50218.233      36.893836      36.893836      36.893836    
 413000000   0.45721828    -7.9045571     -7.2187395      2.9385615      50218.233      36.893836      36.893836      36.893836    
 414000000   0.46014293    -7.9091733     -7.2189687      2.9061744      50218.233      36.893836      36.893836      36.893836    
 415000000   0.46176785    -7.910474      -7.217832       2.8968899      50218.233      36.893836      36.893836      36.893836    
 416000000   0.45974391    -7.9045588     -7.2149528      2.9388257      50218.233      36.893836      36.893836      36.893836    
 417000000   0.45808352    -7.9089974     -7.2218819      2.901187       50218.233      36.893836      36.893836      36.893836    
 418000000   0.45907102    -7.9102956     -7.2216989      2.8884431      50218.233      36.893836      36.893836      36.893836    
 419000000   0.46055895    -7.910438      -7.2196094      2.895211       50218.233      36.893836      36.893836      36.893836    
 420000000   0.46142026    -7.9077138     -7.2155933      2.9248158      50218.233      36.893836      36.893836      36.893836    
 421000000   0.45989882    -7.9076941     -7.2178557      2.9204623      50218.233      36.893836      36.893836      36.893836    
 422000000   0.46055739    -7.9067279     -7.2159017      2.9191679      50218.233      36.893836      36.893836      36.893836    
 423000000   0.46145881    -7.9053054     -7.213127       2.9280043      50218.233      36.893836      36.893836      36.893836    
 424000000   0.45731919    -7.9078527     -7.2218837      2.9067572      50218.233      36.893836      36.893836      36.893836    
 425000000   0.46104727    -7.9040334     -7.2124723      2.9501232      50218.233      36.893836      36.893836      36.893836    
 426000000   0.46086532    -7.908425      -7.2171369      2.9082265      50218.233      36.893836      36.893836      36.893836    
 427000000   0.46090597    -7.9093179     -7.2179688      2.9030143      50218.233      36.893836      36.893836      36.893836    
 428000000   0.45989084    -7.909172      -7.2193456      2.8967338      50218.233      36.893836      36.893836      36.893836    
 429000000   0.45702335    -7.9092023     -7.223677       2.8933813      50218.233      36.893836      36.893836      36.893836    
 430000000   0.45917238    -7.9043203     -7.2155715      2.93615        50218.233      36.893836      36.893836      36.893836    
 431000000   0.45720709    -7.9087308     -7.2229299      2.908158       50218.233      36.893836      36.893836      36.893836    
 432000000   0.45982387    -7.9086855     -7.2189596      2.8995073      50218.233      36.893836      36.893836      36.893836    
 433000000   0.45944856    -7.9094799     -7.2203169      2.8891234      50218.233      36.893836      36.893836      36.893836    
 434000000   0.4596319     -7.9051304     -7.2156924      2.9247296      50218.233      36.893836      36.893836      36.893836    
 435000000   0.45908766    -7.905629      -7.2170073      2.9240216      50218.233      36.893836      36.893836      36.893836    
 436000000   0.46073486    -7.9057111     -7.2146187      2.9251519      50218.233      36.893836      36.893836      36.893836    
 437000000   0.46074425    -7.9125939     -7.2214874      2.8773972      50218.233      36.893836      36.893836      36.893836    
 438000000   0.4595926     -7.9055497     -7.2161706      2.9269142      50218.233      36.893836      36.893836      36.893836    
 439000000   0.45894308    -7.9061277     -7.2177228      2.9364366      50218.233      36.893836      36.893836      36.893836    
 440000000   0.46219209    -7.9067741     -7.2134958      2.9290188      50218.233      36.893836      36.893836      36.893836    
 441000000   0.46037044    -7.9086025     -7.2180566      2.9115776      50218.233      36.893836      36.893836      36.893836    
 442000000   0.45986565    -7.9055938     -7.2158052      2.9312774      50218.233      36.893836      36.893836      36.893836    
 443000000   0.46190998    -7.9088439     -7.2159888      2.9082112      50218.233      36.893836      36.893836      36.893836    
 444000000   0.46055       -7.9064352     -7.21562        2.9191358      50218.233      36.893836      36.893836      36.893836    
 445000000   0.46114256    -7.9104015     -7.2186975      2.8930497      50218.233      36.893836      36.893836      36.893836    
 446000000   0.45973075    -7.9062885     -7.2167022      2.9160711      50218.233      36.893836      36.893836      36.893836    
 447000000   0.4582461     -7.9031825     -7.2158231      2.9445854      50218.233      36.893836      36.893836      36.893836    
 448000000   0.46218892    -7.911075      -7.2178015      2.8901633      50218.233      36.893836      36.893836      36.893836    
 449000000   0.46132043    -7.9104598     -7.218489       2.8863263      50218.233      36.893836      36.893836      36.893836    
 450000000   0.46019104    -7.910323      -7.2200462      2.8865818      50218.233      36.893836      36.893836      36.893836    
 451000000   0.46135031    -7.9097809     -7.2177652      2.9021476      50218.233      36.893836      36.893836      36.893836    
 452000000   0.4609516     -7.9083024     -7.2168848      2.9028321      50218.233      36.893836      36.893836      36.893836    
 453000000   0.45701466    -7.9068722     -7.22136        2.9176094      50218.233      36.893836      36.893836      36.893836    
 454000000   0.46031172    -7.9108857     -7.220428       2.8869241      50218.233      36.893836      36.893836      36.893836    
 455000000   0.45822124    -7.9088564     -7.2215343      2.9045672      50218.233      36.893836      36.893836      36.893836    
 456000000   0.46141833    -7.9049523     -7.2128346      2.9233086      50218.233      36.893836      36.893836      36.893836    
 457000000   0.45981638    -7.9062686     -7.2165539      2.9197189      50218.233      36.893836      36.893836      36.893836    
 458000000   0.45761302    -7.9048116     -7.2184019      2.928024       50218.233      36.893836      36.893836      36.893836    
 459000000   0.46118363    -7.90678       -7.2150144      2.9188448      50218.233      36.893836      36.893836      36.893836    
 460000000   0.46033823    -7.9080488     -7.2175513      2.9136897      50218.233      36.893836      36.893836      36.893836    
 461000000   0.46166148    -7.904713      -7.2122306      2.9325251      50218.233      36.893836      36.893836      36.893836    
 462000000   0.45865261    -7.9089775     -7.2210083      2.8988667      50218.233      36.893836      36.893836      36.893836    
 463000000   0.46060296    -7.9068266     -7.2159319      2.9229056      50218.233      36.893836      36.893836      36.893836    
 464000000   0.45928477    -7.9093653     -7.220448       2.8996644      50218.233      36.893836      36.893836      36.893836    
 465000000   0.45571115    -7.911473      -7.227916       2.8767423      50218.233      36.893836      36.893836      36.893836    
 466000000   0.46204023    -7.9075349     -7.2144844      2.9138331      50218.233      36.893836      36.893836      36.893836    
 467000000   0.45725989    -7.9108743     -7.2249943      2.8882285      50218.233      36.893836      36.893836      36.893836    
 468000000   0.46075113    -7.9078839     -7.216767       2.9083508      50218.233      36.893836      36.893836      36.893836    
 469000000   0.46286264    -7.9077321     -7.213448       2.9197255      50218.233      36.893836      36.893836      36.893836    
 470000000   0.45818713    -7.908702      -7.221431       2.8946856      50218.233      36.893836      36.893836      36.893836    
 471000000   0.46034813    -7.9063168     -7.2158045      2.920425       50218.233      36.893836      36.893836      36.893836    
 472000000   0.46013207    -7.9101651     -7.2199769      2.8842113      50218.233      36.893836      36.893836      36.893836    
 473000000   0.46113876    -7.9079163     -7.216218       2.9063142      50218.233      36.893836      36.893836      36.893836    
 474000000   0.46115615    -7.905836      -7.2141117      2.9274627      50218.233      36.893836      36.893836      36.893836    
 475000000   0.46132466    -7.9056995     -7.2137224      2.9330741      50218.233      36.893836      36.893836      36.893836    
 476000000   0.45937953    -7.9072517     -7.2181922      2.9028654      50218.233      36.893836      36.893836      36.893836    
 477000000   0.46232331    -7.9073579     -7.2138828      2.9190504      50218.233      36.893836      36.893836      36.893836    
 478000000   0.46002091    -7.9070591     -7.2170375      2.9182574      50218.233      36.893836      36.893836      36.893836    
 479000000   0.4580232     -7.9073775     -7.2203524      2.9068548      50218.233      36.893836      36.893836      36.893836    
 480000000   0.46010896    -7.9096358     -7.2194822      2.9084823      50218.233      36.893836      36.893836      36.893836    
 481000000   0.46095521    -7.9069967     -7.2155737      2.9245495      50218.233      36.893836      36.893836      36.893836    
 482000000   0.46227175    -7.9100997     -7.2167019      2.9037296      50218.233      36.893836      36.893836      36.893836    
 483000000   0.45991822    -7.9050028     -7.2151353      2.9460909      50218.233      36.893836      36.893836      36.893836    
 484000000   0.45838441    -7.9092671     -7.2217003      2.9005933      50218.233      36.893836      36.893836      36.893836    
 485000000   0.46179565    -7.9096699     -7.2169863      2.8943446      50218.233      36.893836      36.893836      36.893836    
 486000000   0.46135376    -7.9081485     -7.2161277      2.9127813      50218.233      36.893836      36.893836      36.893836    
 487000000   0.46056158    -7.9136932     -7.2228606      2.8729103      50218.233      36.893836      36.893836      36.893836    
 488000000   0.45941807    -7.913079      -7.2239617      2.8806775      50218.233      36.893836      36.893836      36.893836    
 489000000   0.46038958    -7.90671       -7.2161355      2.9025227      50218.233      36.893836      36.893836      36.893836    
 490000000   0.45907431    -7.9146927     -7.226091       2.8596729      50218.233      36.893836      36.893836      36.893836    
 491000000   0.45966695    -7.9139856     -7.224495       2.8660831      50218.233      36.893836      36.893836      36.893836    
 492000000   0.45957312    -7.9081868     -7.2188369      2.9037426      50218.233      36.893836      36.893836      36.893836    
 493000000   0.46148973    -7.9116641     -7.2194394      2.8824016      50218.233      36.893836      36.893836      36.893836    
 494000000   0.46194067    -7.9072272     -7.2143261      2.916684       50218.233      36.893836      36.893836      36.893836    
 495000000   0.46019837    -7.9062776     -7.2159899      2.9296018      50218.233      36.893836      36.893836      36.893836    
 496000000   0.45764055    -7.908323      -7.2218719      2.9121521      50218.233      36.893836      36.893836      36.893836    
 497000000   0.46058708    -7.9087502     -7.2178794      2.9079742      50218.233      36.893836      36.893836      36.893836    
 498000000   0.45724067    -7.9099023     -7.224051       2.895395       50218.233      36.893836      36.893836      36.893836    
 499000000   0.45957771    -7.9088249     -7.2194681      2.8984317      50218.233      36.893836      36.893836      36.893836    
 500000000   0.46055944    -7.9077476     -7.2169183      2.9154453      50218.233      36.893836      36.893836      36.893836    
Loop time of 836776 on 5 procs for 500000000 steps with 70304 atoms

Performance: 516267.246 tau/day, 597.532 timesteps/s, 42.009 Matom-step/s
94.4% CPU use with 5 MPI tasks x 1 OpenMP threads

MPI task timing breakdown:
Section |  min time  |  avg time  |  max time  |%varavg| %total
---------------------------------------------------------------
Pair    | 3.2212e+05 | 3.4726e+05 | 3.8549e+05 |4152.8 | 41.50
Neigh   | 2517.9     | 2631.2     | 2724.2     | 151.3 |  0.31
Comm    | 1.1625e+05 | 1.172e+05  | 1.1819e+05 | 220.2 | 14.01
Output  | 0.09055    | 0.09373    | 0.099139   |   1.0 |  0.00
Modify  | 2.9256e+05 | 3.3089e+05 | 3.5718e+05 |4343.9 | 39.54
Other   |            | 3.879e+04  |            |       |  4.64

Nlocal:        14060.8 ave       14091 max       14013 min
Histogram: 1 0 0 0 0 1 1 0 0 2
Nghost:        18762.8 ave       18789 max       18714 min
Histogram: 1 0 0 0 0 0 1 1 1 1
Neighs:              0 ave           0 max           0 min
Histogram: 5 0 0 0 0 0 0 0 0 0

Total # of neighbors = 0
Ave neighs/atom = 0
Neighbor list builds = 100665415
Dangerous builds = 0
clear
OMP_NUM_THREADS environment is not set. Defaulting to 1 thread. (src/comm.cpp:98)
  using 1 OpenMP thread(s) per MPI task
package gpu 0
jump dms440.lmp

variable T equal 440
# T = 1000* (temp in LJ unit)
variable f equal 1000000
log log.${T}
log log.440
