variable TLJ equal (${T}/1000)
variable TLJ equal (440/1000)
variable NCyle equal 5
variable iStep equal (${f})
variable iStep equal (1000000)
variable dumpStep equal (${f}*100)
variable dumpStep equal (1000000*100)
variable runStep equal (${f}*100*${NCyle})
variable runStep equal (1000000*100*${NCyle})
variable runStep equal (1000000*100*5)

units       lj
atom_style  atomic
dimension 3
boundary     p p p
pair_style  lj/cut 2.5
read_data  ../data/T${T}.dat
read_data  ../data/T440.dat
Reading data file ...
  orthogonal box = (0.97250269 0.97250269 0.97250269) to (37.866338 37.866338 37.866338)
  1 by 1 by 5 MPI processor grid
  reading atoms ...
  70304 atoms
  reading velocities ...
  70304 velocities
  read_data CPU = 0.209 seconds
change_box all triclinic
Changing box ...
  triclinic box = (0.97250269 0.97250269 0.97250269) to (37.866338 37.866338 37.866338) with tilt (0 0 0)
mass 1 1
mass 2 1
pair_modify shift yes
pair_coeff  1 1 1 1
pair_coeff  1 2 1.5 0.8
pair_coeff  2 2 0.5 0.88


timestep 0.01
thermo ${iStep}
thermo 1000000
reset_timestep 0
thermo_style custom step temp pe etotal press vol lx ly lz
fix             1 all nvt temp ${TLJ}  ${TLJ}  0.1
fix             1 all nvt temp 0.44  ${TLJ}  0.1
fix             1 all nvt temp 0.44  0.44  0.1
thermo_modify flush yes

fix dsf all deform 1 xy  wiggle 0.5  ${f}   units box
fix dsf all deform 1 xy  wiggle 0.5  1000000   units box
fix ps1 all ave/time 1 1 ${iStep} c_thermo_press[1] c_thermo_press[2]  c_thermo_press[3] c_thermo_press[4]  c_thermo_press[5] c_thermo_press[6]  file  stress.${T}
fix ps1 all ave/time 1 1 1000000 c_thermo_press[1] c_thermo_press[2]  c_thermo_press[3] c_thermo_press[4]  c_thermo_press[5] c_thermo_press[6]  file  stress.${T}
fix ps1 all ave/time 1 1 1000000 c_thermo_press[1] c_thermo_press[2]  c_thermo_press[3] c_thermo_press[4]  c_thermo_press[5] c_thermo_press[6]  file  stress.440
dump            1 all custom ${dumpStep} dump.${T} id type x y z
dump            1 all custom 100000000 dump.${T} id type x y z
dump            1 all custom 100000000 dump.440 id type x y z
dump_modify 1 sort id
fix nodrift all momentum 1  linear 1 1 1
fix com_seed all recenter INIT INIT INIT shift all
run ${runStep}
run 500000000
Generated 0 of 1 mixed pair_coeff terms from geometric mixing rule
Per MPI rank memory allocation (min/avg/max) = 6.668 | 8.471 | 8.925 Mbytes
   Step          Temp          PotEng         TotEng         Press          Volume           Lx             Ly             Lz      
         0   0.44063242    -7.9306102     -7.269671       2.7216203      50218.233      36.893836      36.893836      36.893836    
   1000000   0.44201715    -7.9253595     -7.2623432      2.7574337      50218.233      36.893836      36.893836      36.893836    
   2000000   0.43906464    -7.929027      -7.2704394      2.7182053      50218.233      36.893836      36.893836      36.893836    
   3000000   0.44027942    -7.9258848     -7.265475       2.7655214      50218.233      36.893836      36.893836      36.893836    
   4000000   0.43985919    -7.9267035     -7.2669241      2.7416845      50218.233      36.893836      36.893836      36.893836    
   5000000   0.44017992    -7.9283819     -7.2681214      2.7297332      50218.233      36.893836      36.893836      36.893836    
   6000000   0.44098613    -7.928336      -7.2668662      2.7332734      50218.233      36.893836      36.893836      36.893836    
   7000000   0.43956485    -7.9295919     -7.270254       2.7264444      50218.233      36.893836      36.893836      36.893836    
   8000000   0.4413834     -7.9310523     -7.2689866      2.7120418      50218.233      36.893836      36.893836      36.893836    
   9000000   0.43765788    -7.9304561     -7.2739786      2.7094852      50218.233      36.893836      36.893836      36.893836    
  10000000   0.43954805    -7.9297842     -7.2704715      2.7200266      50218.233      36.893836      36.893836      36.893836    
  11000000   0.44157869    -7.9285437     -7.2661851      2.7339704      50218.233      36.893836      36.893836      36.893836    
  12000000   0.44052334    -7.9311842     -7.2704086      2.7127074      50218.233      36.893836      36.893836      36.893836    
  13000000   0.44098269    -7.927269      -7.2658044      2.7496441      50218.233      36.893836      36.893836      36.893836    
  14000000   0.43998667    -7.927586      -7.2676154      2.7384877      50218.233      36.893836      36.893836      36.893836    
  15000000   0.44136356    -7.9280341     -7.2659982      2.7382355      50218.233      36.893836      36.893836      36.893836    
  16000000   0.4405        -7.9291164     -7.2683758      2.725162       50218.233      36.893836      36.893836      36.893836    
  17000000   0.44069201    -7.927803      -7.2667744      2.7464697      50218.233      36.893836      36.893836      36.893836    
  18000000   0.44053736    -7.9306969     -7.2699002      2.7101001      50218.233      36.893836      36.893836      36.893836    
  19000000   0.43818199    -7.9285655     -7.2713019      2.7238624      50218.233      36.893836      36.893836      36.893836    
  20000000   0.44127836    -7.9273024     -7.2653943      2.7585704      50218.233      36.893836      36.893836      36.893836    
  21000000   0.44159122    -7.9295286     -7.2671512      2.7258747      50218.233      36.893836      36.893836      36.893836    
  22000000   0.44206006    -7.9285882     -7.2655075      2.7262927      50218.233      36.893836      36.893836      36.893836    
  23000000   0.4378011     -7.9298803     -7.273188       2.7172469      50218.233      36.893836      36.893836      36.893836    
  24000000   0.43831369    -7.9308799     -7.2734187      2.7175129      50218.233      36.893836      36.893836      36.893836    
  25000000   0.43932525    -7.92741       -7.2684315      2.7475119      50218.233      36.893836      36.893836      36.893836    
  26000000   0.43748233    -7.9258821     -7.2696679      2.7503537      50218.233      36.893836      36.893836      36.893836    
  27000000   0.44056673    -7.9313768     -7.2705361      2.71288        50218.233      36.893836      36.893836      36.893836    
  28000000   0.44045571    -7.9329095     -7.2722353      2.710319       50218.233      36.893836      36.893836      36.893836    
  29000000   0.43939791    -7.9283826     -7.2692951      2.7325085      50218.233      36.893836      36.893836      36.893836    
  30000000   0.4422168     -7.932059      -7.2687432      2.7028517      50218.233      36.893836      36.893836      36.893836    
  31000000   0.4403673     -7.9282766     -7.267735       2.7382854      50218.233      36.893836      36.893836      36.893836    
  32000000   0.43908232    -7.9291649     -7.2705508      2.7423471      50218.233      36.893836      36.893836      36.893836    
  33000000   0.4407174     -7.9303391     -7.2692724      2.7199387      50218.233      36.893836      36.893836      36.893836    
  34000000   0.43857496    -7.9323599     -7.2745069      2.7099252      50218.233      36.893836      36.893836      36.893836    
  35000000   0.44005698    -7.9322234     -7.2721474      2.7193315      50218.233      36.893836      36.893836      36.893836    
  36000000   0.44065764    -7.935157      -7.2741799      2.6850427      50218.233      36.893836      36.893836      36.893836    
  37000000   0.44132914    -7.9271739     -7.2651896      2.7573768      50218.233      36.893836      36.893836      36.893836    
  38000000   0.44040129    -7.9335061     -7.2729136      2.699997       50218.233      36.893836      36.893836      36.893836    
  39000000   0.44003917    -7.9338216     -7.2737723      2.6980526      50218.233      36.893836      36.893836      36.893836    
  40000000   0.43632901    -7.9306845     -7.2762003      2.7084479      50218.233      36.893836      36.893836      36.893836    
  41000000   0.44125784    -7.9323205     -7.2704432      2.706346       50218.233      36.893836      36.893836      36.893836    
  42000000   0.44224868    -7.9340785     -7.2707149      2.7094615      50218.233      36.893836      36.893836      36.893836    
  43000000   0.4391927     -7.9320574     -7.2732777      2.7148957      50218.233      36.893836      36.893836      36.893836    
  44000000   0.44042472    -7.9345881     -7.2739604      2.689035       50218.233      36.893836      36.893836      36.893836    
  45000000   0.44095623    -7.9317428     -7.2703179      2.7140737      50218.233      36.893836      36.893836      36.893836    
  46000000   0.44221351    -7.9318255     -7.2685147      2.7137126      50218.233      36.893836      36.893836      36.893836    
  47000000   0.44103249    -7.9317313     -7.270192       2.7242073      50218.233      36.893836      36.893836      36.893836    
  48000000   0.4418403     -7.9350916     -7.2723406      2.6845472      50218.233      36.893836      36.893836      36.893836    
  49000000   0.43924714    -7.932923      -7.2740616      2.7031745      50218.233      36.893836      36.893836      36.893836    
  50000000   0.440304      -7.9315258     -7.2710792      2.6950534      50218.233      36.893836      36.893836      36.893836    
  51000000   0.44042634    -7.9332643     -7.2726342      2.7152286      50218.233      36.893836      36.893836      36.893836    
  52000000   0.43846318    -7.9348615     -7.2771761      2.6843956      50218.233      36.893836      36.893836      36.893836    
  53000000   0.43958053    -7.9289135     -7.2695521      2.732555       50218.233      36.893836      36.893836      36.893836    
  54000000   0.43937476    -7.9324955     -7.2734427      2.7059674      50218.233      36.893836      36.893836      36.893836    
  55000000   0.44039082    -7.9354101     -7.2748333      2.6769965      50218.233      36.893836      36.893836      36.893836    
  56000000   0.43826461    -7.9326806     -7.275293       2.70154        50218.233      36.893836      36.893836      36.893836    
  57000000   0.43904093    -7.9276872     -7.2691352      2.7369691      50218.233      36.893836      36.893836      36.893836    
  58000000   0.43974162    -7.937129      -7.2775259      2.6648081      50218.233      36.893836      36.893836      36.893836    
  59000000   0.44113709    -7.9301223     -7.2684261      2.7300499      50218.233      36.893836      36.893836      36.893836    
  60000000   0.43790455    -7.9349407     -7.2780932      2.6866166      50218.233      36.893836      36.893836      36.893836    
  61000000   0.43803027    -7.936215      -7.279179       2.6853464      50218.233      36.893836      36.893836      36.893836    
  62000000   0.43905938    -7.9334095     -7.2748298      2.701208       50218.233      36.893836      36.893836      36.893836    
  63000000   0.44048261    -7.9350583     -7.2743438      2.6996025      50218.233      36.893836      36.893836      36.893836    
  64000000   0.43989125    -7.9318687     -7.2720412      2.7189625      50218.233      36.893836      36.893836      36.893836    
  65000000   0.44127876    -7.9358501     -7.2739414      2.6824013      50218.233      36.893836      36.893836      36.893836    
  66000000   0.43966531    -7.9344542     -7.2749656      2.6964827      50218.233      36.893836      36.893836      36.893836    
  67000000   0.44025297    -7.9301827     -7.2698127      2.7123111      50218.233      36.893836      36.893836      36.893836    
  68000000   0.43901852    -7.9335919     -7.2750735      2.6954351      50218.233      36.893836      36.893836      36.893836    
  69000000   0.44143516    -7.9305672     -7.2684239      2.7094731      50218.233      36.893836      36.893836      36.893836    
  70000000   0.44020381    -7.9350732     -7.2747769      2.6869077      50218.233      36.893836      36.893836      36.893836    
  71000000   0.44125202    -7.9309138     -7.2690452      2.7164057      50218.233      36.893836      36.893836      36.893836    
  72000000   0.44339225    -7.9327539     -7.2676749      2.7086356      50218.233      36.893836      36.893836      36.893836    
  73000000   0.44023432    -7.9336973     -7.2733552      2.7013616      50218.233      36.893836      36.893836      36.893836    
  74000000   0.43917761    -7.9332418     -7.2744847      2.697192       50218.233      36.893836      36.893836      36.893836    
  75000000   0.44110015    -7.9327999     -7.2711591      2.7026029      50218.233      36.893836      36.893836      36.893836    
  76000000   0.44089592    -7.9328035     -7.271469       2.7039057      50218.233      36.893836      36.893836      36.893836    
  77000000   0.44134151    -7.9320274     -7.2700245      2.7082731      50218.233      36.893836      36.893836      36.893836    
  78000000   0.43730003    -7.931718      -7.2757773      2.703399       50218.233      36.893836      36.893836      36.893836    
  79000000   0.43988519    -7.9332761     -7.2734577      2.6922066      50218.233      36.893836      36.893836      36.893836    
  80000000   0.44064723    -7.9336733     -7.2727118      2.6960649      50218.233      36.893836      36.893836      36.893836    
  81000000   0.43944474    -7.935632      -7.2764743      2.6790481      50218.233      36.893836      36.893836      36.893836    
  82000000   0.44086047    -7.9316873     -7.270406       2.7124376      50218.233      36.893836      36.893836      36.893836    
  83000000   0.44109257    -7.9347173     -7.2730878      2.6851964      50218.233      36.893836      36.893836      36.893836    
  84000000   0.43750423    -7.9354026     -7.2791556      2.6784509      50218.233      36.893836      36.893836      36.893836    
  85000000   0.44097823    -7.9385188     -7.2770609      2.6679609      50218.233      36.893836      36.893836      36.893836    
  86000000   0.44186887    -7.9339858     -7.2711919      2.6847046      50218.233      36.893836      36.893836      36.893836    
  87000000   0.44153046    -7.9293046     -7.2670183      2.7291356      50218.233      36.893836      36.893836      36.893836    
  88000000   0.44122468    -7.9336921     -7.2718645      2.6839593      50218.233      36.893836      36.893836      36.893836    
  89000000   0.4407846     -7.9336252     -7.2724577      2.6944961      50218.233      36.893836      36.893836      36.893836    
  90000000   0.43775884    -7.93427       -7.2776411      2.6876939      50218.233      36.893836      36.893836      36.893836    
  91000000   0.44064821    -7.9377489     -7.276786       2.664005       50218.233      36.893836      36.893836      36.893836    
  92000000   0.44017345    -7.9349771     -7.2747263      2.679254       50218.233      36.893836      36.893836      36.893836    
  93000000   0.43884583    -7.9365603     -7.278301       2.675129       50218.233      36.893836      36.893836      36.893836    
  94000000   0.4396024     -7.9366802     -7.277286       2.6685099      50218.233      36.893836      36.893836      36.893836    
  95000000   0.44020055    -7.9349629     -7.2746715      2.6931604      50218.233      36.893836      36.893836      36.893836    
  96000000   0.4412754     -7.9361577     -7.274254       2.6883017      50218.233      36.893836      36.893836      36.893836    
  97000000   0.44310063    -7.9352394     -7.2705979      2.6816233      50218.233      36.893836      36.893836      36.893836    
  98000000   0.43815631    -7.9330818     -7.2758566      2.700315       50218.233      36.893836      36.893836      36.893836    
  99000000   0.44016399    -7.9332996     -7.273063       2.7010992      50218.233      36.893836      36.893836      36.893836    
 100000000   0.44289606    -7.9360287     -7.2716941      2.6813972      50218.233      36.893836      36.893836      36.893836    
 101000000   0.44092011    -7.9352642     -7.2738934      2.6818607      50218.233      36.893836      36.893836      36.893836    
 102000000   0.44153895    -7.9355002     -7.2732012      2.6761495      50218.233      36.893836      36.893836      36.893836    
 103000000   0.44188305    -7.9317299     -7.2689147      2.6998347      50218.233      36.893836      36.893836      36.893836    
 104000000   0.44062442    -7.936306      -7.2753788      2.6711729      50218.233      36.893836      36.893836      36.893836    
 105000000   0.43788747    -7.9366084     -7.2797866      2.6657898      50218.233      36.893836      36.893836      36.893836    
 106000000   0.43884234    -7.9373853     -7.2791312      2.6644893      50218.233      36.893836      36.893836      36.893836    
 107000000   0.44068459    -7.93461       -7.2735926      2.687818       50218.233      36.893836      36.893836      36.893836    
 108000000   0.44092093    -7.9377986     -7.2764266      2.6642907      50218.233      36.893836      36.893836      36.893836    
 109000000   0.44214439    -7.9353749     -7.2721677      2.6745962      50218.233      36.893836      36.893836      36.893836    
 110000000   0.43859168    -7.9343955     -7.2765173      2.6944383      50218.233      36.893836      36.893836      36.893836    
 111000000   0.4397804     -7.9373659     -7.2777047      2.6688604      50218.233      36.893836      36.893836      36.893836    
 112000000   0.44103017    -7.9345144     -7.2729785      2.6885312      50218.233      36.893836      36.893836      36.893836    
 113000000   0.44181017    -7.9350118     -7.272306       2.6834305      50218.233      36.893836      36.893836      36.893836    
 114000000   0.44152209    -7.9370069     -7.2747331      2.675681       50218.233      36.893836      36.893836      36.893836    
 115000000   0.43846178    -7.9348001     -7.2771168      2.6788999      50218.233      36.893836      36.893836      36.893836    
 116000000   0.44092193    -7.9381372     -7.2767637      2.6683053      50218.233      36.893836      36.893836      36.893836    
 117000000   0.43769219    -7.9388445     -7.2823156      2.6520597      50218.233      36.893836      36.893836      36.893836    
 118000000   0.438524      -7.9379828     -7.2802061      2.6632203      50218.233      36.893836      36.893836      36.893836    
 119000000   0.43942855    -7.9395972     -7.2804637      2.6633267      50218.233      36.893836      36.893836      36.893836    
 120000000   0.44204366    -7.9374149     -7.2743588      2.6639149      50218.233      36.893836      36.893836      36.893836    
 121000000   0.44216445    -7.9359275     -7.2726903      2.6780296      50218.233      36.893836      36.893836      36.893836    
 122000000   0.43703784    -7.9367878     -7.2812404      2.670324       50218.233      36.893836      36.893836      36.893836    
 123000000   0.44048062    -7.9337929     -7.2730813      2.6880043      50218.233      36.893836      36.893836      36.893836    
 124000000   0.44339809    -7.9358241     -7.2707364      2.6818091      50218.233      36.893836      36.893836      36.893836    
 125000000   0.43909396    -7.9333465     -7.2747149      2.7038764      50218.233      36.893836      36.893836      36.893836    
 126000000   0.44133957    -7.9365423     -7.2745424      2.6820207      50218.233      36.893836      36.893836      36.893836    
 127000000   0.43974987    -7.9360806     -7.2764651      2.6838609      50218.233      36.893836      36.893836      36.893836    
 128000000   0.4403955     -7.9371138     -7.27653        2.6750736      50218.233      36.893836      36.893836      36.893836    
 129000000   0.43951       -7.9376835     -7.2784279      2.6593737      50218.233      36.893836      36.893836      36.893836    
 130000000   0.43883458    -7.9379196     -7.2796771      2.6628914      50218.233      36.893836      36.893836      36.893836    
 131000000   0.44080936    -7.9402659     -7.2790612      2.6463109      50218.233      36.893836      36.893836      36.893836    
 132000000   0.44129055    -7.9351844     -7.273258       2.6768058      50218.233      36.893836      36.893836      36.893836    
 133000000   0.44150299    -7.9357833     -7.2735382      2.6764395      50218.233      36.893836      36.893836      36.893836    
 134000000   0.4400593     -7.9411598     -7.2810802      2.6442047      50218.233      36.893836      36.893836      36.893836    
 135000000   0.44026501    -7.9392994     -7.2789113      2.6419936      50218.233      36.893836      36.893836      36.893836    
 136000000   0.44258273    -7.937839      -7.2739744      2.6750572      50218.233      36.893836      36.893836      36.893836    
 137000000   0.44032768    -7.9415605     -7.2810784      2.6373292      50218.233      36.893836      36.893836      36.893836    
 138000000   0.44097143    -7.9341949     -7.2727471      2.6877702      50218.233      36.893836      36.893836      36.893836    
 139000000   0.43820971    -7.9405903     -7.2832851      2.6417561      50218.233      36.893836      36.893836      36.893836    
 140000000   0.43969051    -7.9352422     -7.2757158      2.6908748      50218.233      36.893836      36.893836      36.893836    
 141000000   0.44001082    -7.9327302     -7.2727234      2.706093       50218.233      36.893836      36.893836      36.893836    
 142000000   0.43813464    -7.9386756     -7.281483       2.6578415      50218.233      36.893836      36.893836      36.893836    
 143000000   0.44034456    -7.9356478     -7.2751403      2.6614439      50218.233      36.893836      36.893836      36.893836    
 144000000   0.43771369    -7.933935      -7.2773739      2.6823979      50218.233      36.893836      36.893836      36.893836    
 145000000   0.44143044    -7.9369987     -7.2748624      2.6704716      50218.233      36.893836      36.893836      36.893836    
 146000000   0.44000197    -7.9361661     -7.2761725      2.6685818      50218.233      36.893836      36.893836      36.893836    
 147000000   0.43977977    -7.9390237     -7.2793635      2.6395963      50218.233      36.893836      36.893836      36.893836    
 148000000   0.44118494    -7.9340173     -7.2722493      2.680928       50218.233      36.893836      36.893836      36.893836    
 149000000   0.44350519    -7.9375316     -7.2722833      2.66185        50218.233      36.893836      36.893836      36.893836    
 150000000   0.44008129    -7.9358287     -7.2757161      2.6689796      50218.233      36.893836      36.893836      36.893836    
 151000000   0.43884289    -7.9373372     -7.2790822      2.6547666      50218.233      36.893836      36.893836      36.893836    
 152000000   0.44020298    -7.9343041     -7.274009       2.6807692      50218.233      36.893836      36.893836      36.893836    
 153000000   0.44054227    -7.9358735     -7.2750695      2.6670265      50218.233      36.893836      36.893836      36.893836    
 154000000   0.4400636     -7.9371781     -7.2770921      2.6602676      50218.233      36.893836      36.893836      36.893836    
 155000000   0.43989103    -7.9368693     -7.2770422      2.6611427      50218.233      36.893836      36.893836      36.893836    
 156000000   0.44005667    -7.9326035     -7.2725279      2.6965685      50218.233      36.893836      36.893836      36.893836    
 157000000   0.43862151    -7.9380011     -7.2800782      2.6667874      50218.233      36.893836      36.893836      36.893836    
 158000000   0.43828356    -7.9367954     -7.2793794      2.667329       50218.233      36.893836      36.893836      36.893836    
 159000000   0.44174919    -7.9356787     -7.2730643      2.6759522      50218.233      36.893836      36.893836      36.893836    
 160000000   0.44169778    -7.9358888     -7.2733516      2.6870173      50218.233      36.893836      36.893836      36.893836    
 161000000   0.44031852    -7.9376845     -7.2772161      2.6612248      50218.233      36.893836      36.893836      36.893836    
 162000000   0.44069356    -7.9395363     -7.2785054      2.6402485      50218.233      36.893836      36.893836      36.893836    
 163000000   0.43947612    -7.9367533     -7.2775485      2.6660763      50218.233      36.893836      36.893836      36.893836    
 164000000   0.44324534    -7.9330814     -7.2682229      2.6966498      50218.233      36.893836      36.893836      36.893836    
 165000000   0.44037181    -7.9367207     -7.2761724      2.6685059      50218.233      36.893836      36.893836      36.893836    
 166000000   0.44184182    -7.9351584     -7.2724051      2.6837464      50218.233      36.893836      36.893836      36.893836    
 167000000   0.44254409    -7.9366003     -7.2727936      2.6736124      50218.233      36.893836      36.893836      36.893836    
 168000000   0.43943445    -7.9392219     -7.2800796      2.6384112      50218.233      36.893836      36.893836      36.893836    
 169000000   0.43844743    -7.9370997     -7.2794379      2.661772       50218.233      36.893836      36.893836      36.893836    
 170000000   0.43915566    -7.9383869     -7.2796628      2.6438134      50218.233      36.893836      36.893836      36.893836    
 171000000   0.43961255    -7.9344377     -7.2750283      2.6959279      50218.233      36.893836      36.893836      36.893836    
 172000000   0.44131108    -7.9383857     -7.2764285      2.6563597      50218.233      36.893836      36.893836      36.893836    
 173000000   0.44125746    -7.9362434     -7.2743667      2.6749943      50218.233      36.893836      36.893836      36.893836    
 174000000   0.44029652    -7.9366888     -7.2762535      2.6684177      50218.233      36.893836      36.893836      36.893836    
 175000000   0.43816581    -7.9387991     -7.2815598      2.6569336      50218.233      36.893836      36.893836      36.893836    
 176000000   0.43834843    -7.9360365     -7.2785232      2.673036       50218.233      36.893836      36.893836      36.893836    
 177000000   0.43988699    -7.9353959     -7.2755748      2.6858433      50218.233      36.893836      36.893836      36.893836    
 178000000   0.43678998    -7.9370126     -7.281837       2.6752509      50218.233      36.893836      36.893836      36.893836    
 179000000   0.43815677    -7.9334384     -7.2762126      2.6954168      50218.233      36.893836      36.893836      36.893836    
 180000000   0.44013804    -7.938349      -7.2781513      2.6690991      50218.233      36.893836      36.893836      36.893836    
 181000000   0.43940444    -7.9352238     -7.2761265      2.6782925      50218.233      36.893836      36.893836      36.893836    
 182000000   0.43972329    -7.9408211     -7.2812455      2.6432847      50218.233      36.893836      36.893836      36.893836    
 183000000   0.43926488    -7.9371493     -7.2782613      2.6722849      50218.233      36.893836      36.893836      36.893836    
 184000000   0.43831675    -7.9384431     -7.2809773      2.6571227      50218.233      36.893836      36.893836      36.893836    
 185000000   0.44030182    -7.9370841     -7.2766408      2.6664891      50218.233      36.893836      36.893836      36.893836    
 186000000   0.44219188    -7.9365431     -7.2732647      2.6831616      50218.233      36.893836      36.893836      36.893836    
 187000000   0.44120059    -7.9367149     -7.2749234      2.6824962      50218.233      36.893836      36.893836      36.893836    
 188000000   0.43928846    -7.9408775     -7.2819541      2.6475161      50218.233      36.893836      36.893836      36.893836    
 189000000   0.43935376    -7.939597      -7.2805757      2.6424326      50218.233      36.893836      36.893836      36.893836    
 190000000   0.4375182     -7.9393248     -7.2830569      2.6444844      50218.233      36.893836      36.893836      36.893836    
 191000000   0.43671298    -7.9376211     -7.2825609      2.6628219      50218.233      36.893836      36.893836      36.893836    
 192000000   0.44024377    -7.9392044     -7.2788481      2.6547874      50218.233      36.893836      36.893836      36.893836    
 193000000   0.44005997    -7.9357        -7.2756195      2.6771087      50218.233      36.893836      36.893836      36.893836    
 194000000   0.43989237    -7.9400681     -7.2802389      2.6400724      50218.233      36.893836      36.893836      36.893836    
 195000000   0.43909259    -7.9352275     -7.276598       2.6847778      50218.233      36.893836      36.893836      36.893836    
 196000000   0.4393708     -7.9400406     -7.2809938      2.6516726      50218.233      36.893836      36.893836      36.893836    
 197000000   0.44069663    -7.9381382     -7.2771026      2.6673384      50218.233      36.893836      36.893836      36.893836    
 198000000   0.4389452     -7.9390803     -7.2806719      2.6524259      50218.233      36.893836      36.893836      36.893836    
 199000000   0.44198005    -7.9403382     -7.2773776      2.651717       50218.233      36.893836      36.893836      36.893836    
 200000000   0.4406766     -7.9365832     -7.2755777      2.6897707      50218.233      36.893836      36.893836      36.893836    
 201000000   0.43818949    -7.9388504     -7.2815756      2.6508501      50218.233      36.893836      36.893836      36.893836    
 202000000   0.43887012    -7.9353045     -7.2770087      2.6692186      50218.233      36.893836      36.893836      36.893836    
 203000000   0.44183959    -7.9394694     -7.2767195      2.647167       50218.233      36.893836      36.893836      36.893836    
 204000000   0.44180516    -7.9387554     -7.2760571      2.6624387      50218.233      36.893836      36.893836      36.893836    
 205000000   0.43740229    -7.938619      -7.2825249      2.6462326      50218.233      36.893836      36.893836      36.893836    
 206000000   0.43853011    -7.9377446     -7.2799588      2.6725936      50218.233      36.893836      36.893836      36.893836    
 207000000   0.43777566    -7.940267      -7.2836128      2.6374125      50218.233      36.893836      36.893836      36.893836    
 208000000   0.43983786    -7.9388465     -7.2790991      2.6505859      50218.233      36.893836      36.893836      36.893836    
 209000000   0.44001834    -7.9375541     -7.277536       2.6671309      50218.233      36.893836      36.893836      36.893836    
 210000000   0.43941306    -7.9403868     -7.2812766      2.6380811      50218.233      36.893836      36.893836      36.893836    
 211000000   0.44119357    -7.9368193     -7.2750384      2.6694681      50218.233      36.893836      36.893836      36.893836    
 212000000   0.43871352    -7.9388237     -7.2807628      2.6560374      50218.233      36.893836      36.893836      36.893836    
 213000000   0.43788992    -7.9402908     -7.2834653      2.6423153      50218.233      36.893836      36.893836      36.893836    
 214000000   0.44070979    -7.9399694     -7.2789141      2.6473797      50218.233      36.893836      36.893836      36.893836    
 215000000   0.43971731    -7.935214      -7.2756475      2.678765       50218.233      36.893836      36.893836      36.893836    
 216000000   0.43951822    -7.9393252     -7.2800573      2.6526069      50218.233      36.893836      36.893836      36.893836    
 217000000   0.44258724    -7.9423971     -7.2785257      2.6385319      50218.233      36.893836      36.893836      36.893836    
 218000000   0.43885283    -7.9395079     -7.2812381      2.6487432      50218.233      36.893836      36.893836      36.893836    
 219000000   0.4391199     -7.9374137     -7.2787433      2.6753066      50218.233      36.893836      36.893836      36.893836    
 220000000   0.44178988    -7.9394044     -7.276729       2.6570824      50218.233      36.893836      36.893836      36.893836    
 221000000   0.44047857    -7.93749       -7.2767815      2.6645006      50218.233      36.893836      36.893836      36.893836    
 222000000   0.43914255    -7.9375274     -7.2788229      2.6624189      50218.233      36.893836      36.893836      36.893836    
 223000000   0.44159995    -7.9399431     -7.2775526      2.654715       50218.233      36.893836      36.893836      36.893836    
 224000000   0.43918117    -7.9407643     -7.282002       2.6340365      50218.233      36.893836      36.893836      36.893836    
 225000000   0.44072249    -7.9393625     -7.2782882      2.6644576      50218.233      36.893836      36.893836      36.893836    
 226000000   0.44136051    -7.943891      -7.2818596      2.6177657      50218.233      36.893836      36.893836      36.893836    
 227000000   0.43874037    -7.9414287     -7.2833275      2.6294557      50218.233      36.893836      36.893836      36.893836    
 228000000   0.43972807    -7.936222      -7.2766393      2.6746643      50218.233      36.893836      36.893836      36.893836    
 229000000   0.4400497     -7.9371548     -7.2770896      2.6685028      50218.233      36.893836      36.893836      36.893836    
 230000000   0.43911807    -7.9395066     -7.2808388      2.6422526      50218.233      36.893836      36.893836      36.893836    
 231000000   0.43971853    -7.9401958     -7.2806274      2.6425346      50218.233      36.893836      36.893836      36.893836    
 232000000   0.43862356    -7.9393671     -7.2814411      2.654202       50218.233      36.893836      36.893836      36.893836    
 233000000   0.43825871    -7.9410741     -7.2836954      2.6280136      50218.233      36.893836      36.893836      36.893836    
 234000000   0.44041705    -7.9380377     -7.2774215      2.6612067      50218.233      36.893836      36.893836      36.893836    
 235000000   0.44045842    -7.9412739     -7.2805957      2.6416979      50218.233      36.893836      36.893836      36.893836    
 236000000   0.43921652    -7.939224      -7.2804086      2.6549813      50218.233      36.893836      36.893836      36.893836    
 237000000   0.4374683     -7.9376157     -7.2814225      2.6532787      50218.233      36.893836      36.893836      36.893836    
 238000000   0.44129507    -7.945359      -7.2834258      2.6135915      50218.233      36.893836      36.893836      36.893836    
 239000000   0.44306634    -7.9387942     -7.2742042      2.64685        50218.233      36.893836      36.893836      36.893836    
 240000000   0.44016637    -7.9399306     -7.2796904      2.6514543      50218.233      36.893836      36.893836      36.893836    
 241000000   0.44026281    -7.9420945     -7.2817097      2.634291       50218.233      36.893836      36.893836      36.893836    
 242000000   0.44179482    -7.9432585     -7.2805757      2.6208897      50218.233      36.893836      36.893836      36.893836    
 243000000   0.44012955    -7.942643      -7.2824581      2.6217906      50218.233      36.893836      36.893836      36.893836    
 244000000   0.43988164    -7.9392589     -7.2794458      2.6568178      50218.233      36.893836      36.893836      36.893836    
 245000000   0.44175635    -7.9377045     -7.2750794      2.6519413      50218.233      36.893836      36.893836      36.893836    
 246000000   0.43896716    -7.9409662     -7.2825248      2.6326785      50218.233      36.893836      36.893836      36.893836    
 247000000   0.43808941    -7.9420927     -7.2849679      2.6288867      50218.233      36.893836      36.893836      36.893836    
 248000000   0.43855011    -7.9411835     -7.2833677      2.6255691      50218.233      36.893836      36.893836      36.893836    
 249000000   0.44040017    -7.9442265     -7.2836357      2.6129607      50218.233      36.893836      36.893836      36.893836    
 250000000   0.43966546    -7.9377779     -7.2782891      2.6694607      50218.233      36.893836      36.893836      36.893836    
 251000000   0.4376262     -7.9383384     -7.2819084      2.6576618      50218.233      36.893836      36.893836      36.893836    
 252000000   0.44291781    -7.9346914     -7.2703241      2.6880861      50218.233      36.893836      36.893836      36.893836    
 253000000   0.44054939    -7.938501      -7.2776863      2.6612554      50218.233      36.893836      36.893836      36.893836    
 254000000   0.44221628    -7.9409259     -7.2776109      2.6336443      50218.233      36.893836      36.893836      36.893836    
 255000000   0.43825637    -7.9388032     -7.281428       2.6536804      50218.233      36.893836      36.893836      36.893836    
 256000000   0.43986271    -7.9432887     -7.2835041      2.6154457      50218.233      36.893836      36.893836      36.893836    
 257000000   0.43796444    -7.9394213     -7.282484       2.6444733      50218.233      36.893836      36.893836      36.893836    
 258000000   0.43962946    -7.9404635     -7.2810287      2.6467548      50218.233      36.893836      36.893836      36.893836    
 259000000   0.43760716    -7.9390459     -7.2826444      2.6472085      50218.233      36.893836      36.893836      36.893836    
 260000000   0.43957001    -7.9368412     -7.2774956      2.6643652      50218.233      36.893836      36.893836      36.893836    
 261000000   0.43953631    -7.9376647     -7.2783696      2.6638767      50218.233      36.893836      36.893836      36.893836    
 262000000   0.43872688    -7.9396478     -7.2815669      2.6470897      50218.233      36.893836      36.893836      36.893836    
 263000000   0.44116485    -7.9380209     -7.2762831      2.6541953      50218.233      36.893836      36.893836      36.893836    
 264000000   0.43983928    -7.9374031     -7.2776536      2.6556034      50218.233      36.893836      36.893836      36.893836    
 265000000   0.43980351    -7.9374205     -7.2777246      2.6652785      50218.233      36.893836      36.893836      36.893836    
 266000000   0.44034588    -7.9383834     -7.2778739      2.6604738      50218.233      36.893836      36.893836      36.893836    
 267000000   0.43970799    -7.9363501     -7.2767975      2.679083       50218.233      36.893836      36.893836      36.893836    
 268000000   0.4407679     -7.936962      -7.2758196      2.6721254      50218.233      36.893836      36.893836      36.893836    
 269000000   0.44058694    -7.936938      -7.276067       2.666451       50218.233      36.893836      36.893836      36.893836    
 270000000   0.43945031    -7.9387011     -7.279535       2.6507374      50218.233      36.893836      36.893836      36.893836    
 271000000   0.43929513    -7.9434465     -7.2845131      2.6070783      50218.233      36.893836      36.893836      36.893836    
 272000000   0.43803801    -7.9396558     -7.2826082      2.6420713      50218.233      36.893836      36.893836      36.893836    
 273000000   0.43818474    -7.9356213     -7.2783535      2.6760554      50218.233      36.893836      36.893836      36.893836    
 274000000   0.44138316    -7.9407183     -7.278653       2.6468727      50218.233      36.893836      36.893836      36.893836    
 275000000   0.4411545     -7.937445      -7.2757226      2.6778902      50218.233      36.893836      36.893836      36.893836    
 276000000   0.43896014    -7.9392464     -7.2808155      2.6444454      50218.233      36.893836      36.893836      36.893836    
 277000000   0.43872774    -7.9402335     -7.2821512      2.6498217      50218.233      36.893836      36.893836      36.893836    
 278000000   0.44129801    -7.944975      -7.2830374      2.617216       50218.233      36.893836      36.893836      36.893836    
 279000000   0.44092708    -7.9402929     -7.2789116      2.6558683      50218.233      36.893836      36.893836      36.893836    
 280000000   0.44057495    -7.940523      -7.27967        2.6514415      50218.233      36.893836      36.893836      36.893836    
 281000000   0.43803574    -7.9437173     -7.286673       2.6197811      50218.233      36.893836      36.893836      36.893836    
 282000000   0.44287384    -7.9402311     -7.2759298      2.650445       50218.233      36.893836      36.893836      36.893836    
 283000000   0.44095819    -7.9446946     -7.2832668      2.6188498      50218.233      36.893836      36.893836      36.893836    
 284000000   0.44154425    -7.938856      -7.276549       2.6623249      50218.233      36.893836      36.893836      36.893836    
 285000000   0.44201751    -7.9398141     -7.2767973      2.6551487      50218.233      36.893836      36.893836      36.893836    
 286000000   0.4397588     -7.941386      -7.2817571      2.631826       50218.233      36.893836      36.893836      36.893836    
 287000000   0.4392779     -7.9402662     -7.2813587      2.6525264      50218.233      36.893836      36.893836      36.893836    
 288000000   0.4400716     -7.9406979     -7.2805999      2.6435179      50218.233      36.893836      36.893836      36.893836    
 289000000   0.44148175    -7.9408481     -7.2786349      2.6493155      50218.233      36.893836      36.893836      36.893836    
 290000000   0.43963168    -7.9412242     -7.281786       2.6345651      50218.233      36.893836      36.893836      36.893836    
 291000000   0.44099401    -7.9413691     -7.2798875      2.6429699      50218.233      36.893836      36.893836      36.893836    
 292000000   0.44046282    -7.9383906     -7.2777057      2.669471       50218.233      36.893836      36.893836      36.893836    
 293000000   0.43880842    -7.9374246     -7.2792213      2.6812836      50218.233      36.893836      36.893836      36.893836    
 294000000   0.4394297     -7.9394328     -7.2802976      2.636709       50218.233      36.893836      36.893836      36.893836    
 295000000   0.44121188    -7.943503      -7.2816945      2.6358742      50218.233      36.893836      36.893836      36.893836    
 296000000   0.43897821    -7.9386788     -7.2802208      2.6552325      50218.233      36.893836      36.893836      36.893836    
 297000000   0.43909574    -7.9408139     -7.2821796      2.6410635      50218.233      36.893836      36.893836      36.893836    
 298000000   0.44082206    -7.9413142     -7.2800905      2.6439522      50218.233      36.893836      36.893836      36.893836    
 299000000   0.44142395    -7.9404187     -7.2782922      2.6448536      50218.233      36.893836      36.893836      36.893836    
 300000000   0.44115553    -7.9414964     -7.2797725      2.6360965      50218.233      36.893836      36.893836      36.893836    
 301000000   0.43862882    -7.9412332     -7.2832994      2.6299878      50218.233      36.893836      36.893836      36.893836    
 302000000   0.43971164    -7.9411638     -7.2816057      2.6500466      50218.233      36.893836      36.893836      36.893836    
 303000000   0.43895978    -7.9435883     -7.285158       2.6137325      50218.233      36.893836      36.893836      36.893836    
 304000000   0.43971795    -7.9410519     -7.2814844      2.6495735      50218.233      36.893836      36.893836      36.893836    
 305000000   0.44059794    -7.9416167     -7.2807292      2.6330174      50218.233      36.893836      36.893836      36.893836    
 306000000   0.44095017    -7.9426502     -7.2812344      2.6283617      50218.233      36.893836      36.893836      36.893836    
 307000000   0.43830121    -7.9421296     -7.2846871      2.6313575      50218.233      36.893836      36.893836      36.893836    
 308000000   0.44192477    -7.9423723     -7.2794946      2.6304431      50218.233      36.893836      36.893836      36.893836    
 309000000   0.43916031    -7.9433402     -7.2846091      2.6201634      50218.233      36.893836      36.893836      36.893836    
 310000000   0.43934223    -7.9385384     -7.2795345      2.6599696      50218.233      36.893836      36.893836      36.893836    
 311000000   0.44107997    -7.9435219     -7.2819114      2.624746       50218.233      36.893836      36.893836      36.893836    
 312000000   0.44141326    -7.9390608     -7.2769504      2.6432944      50218.233      36.893836      36.893836      36.893836    
 313000000   0.4408087     -7.9424563     -7.2812527      2.6328008      50218.233      36.893836      36.893836      36.893836    
 314000000   0.43911884    -7.9464369     -7.287768       2.5891016      50218.233      36.893836      36.893836      36.893836    
 315000000   0.44015156    -7.943229      -7.2830111      2.6289507      50218.233      36.893836      36.893836      36.893836    
 316000000   0.43880251    -7.9418415     -7.2836471      2.6282968      50218.233      36.893836      36.893836      36.893836    
 317000000   0.43896379    -7.9401461     -7.2817098      2.6377927      50218.233      36.893836      36.893836      36.893836    
 318000000   0.44081318    -7.9363007     -7.2750903      2.6665752      50218.233      36.893836      36.893836      36.893836    
 319000000   0.44094492    -7.9404132     -7.2790052      2.636965       50218.233      36.893836      36.893836      36.893836    
 320000000   0.44205634    -7.9402691     -7.277194       2.646068       50218.233      36.893836      36.893836      36.893836    
 321000000   0.43954347    -7.9427589     -7.2834531      2.6352048      50218.233      36.893836      36.893836      36.893836    
 322000000   0.4375471     -7.9428262     -7.2865148      2.6240491      50218.233      36.893836      36.893836      36.893836    
 323000000   0.43911393    -7.9384494     -7.2797879      2.6551944      50218.233      36.893836      36.893836      36.893836    
 324000000   0.43984661    -7.9422452     -7.2824847      2.6303086      50218.233      36.893836      36.893836      36.893836    
 325000000   0.44058557    -7.9423237     -7.2814548      2.6331798      50218.233      36.893836      36.893836      36.893836    
 326000000   0.44001808    -7.9417684     -7.2817507      2.6424717      50218.233      36.893836      36.893836      36.893836    
 327000000   0.43881885    -7.9374014     -7.2791824      2.6636013      50218.233      36.893836      36.893836      36.893836    
 328000000   0.4401923     -7.9417367     -7.2814576      2.6256336      50218.233      36.893836      36.893836      36.893836    
 329000000   0.44168635    -7.9437246     -7.2812045      2.62422        50218.233      36.893836      36.893836      36.893836    
 330000000   0.43991452    -7.9402923     -7.28043        2.6501001      50218.233      36.893836      36.893836      36.893836    
 331000000   0.4418521     -7.9408949     -7.2781262      2.6430497      50218.233      36.893836      36.893836      36.893836    
 332000000   0.44097751    -7.9404249     -7.278968       2.6567914      50218.233      36.893836      36.893836      36.893836    
 333000000   0.44050232    -7.941719      -7.280975       2.6442557      50218.233      36.893836      36.893836      36.893836    
 334000000   0.44087496    -7.9448049     -7.2835018      2.6185551      50218.233      36.893836      36.893836      36.893836    
 335000000   0.44055233    -7.9402344     -7.2794153      2.6490344      50218.233      36.893836      36.893836      36.893836    
 336000000   0.4387199     -7.944291      -7.2862205      2.6087617      50218.233      36.893836      36.893836      36.893836    
 337000000   0.43811773    -7.9412948     -7.2841275      2.6246988      50218.233      36.893836      36.893836      36.893836    
 338000000   0.43931313    -7.9395041     -7.2805438      2.6503812      50218.233      36.893836      36.893836      36.893836    
 339000000   0.43923488    -7.9450286     -7.2861857      2.6011178      50218.233      36.893836      36.893836      36.893836    
 340000000   0.43977999    -7.9438121     -7.2841515      2.6249904      50218.233      36.893836      36.893836      36.893836    
 341000000   0.44005139    -7.9406123     -7.2805446      2.6336083      50218.233      36.893836      36.893836      36.893836    
 342000000   0.44084518    -7.9435896     -7.2823312      2.6162896      50218.233      36.893836      36.893836      36.893836    
 343000000   0.44016002    -7.9454215     -7.2851909      2.6060533      50218.233      36.893836      36.893836      36.893836    
 344000000   0.44049279    -7.9423035     -7.2815737      2.641857       50218.233      36.893836      36.893836      36.893836    
 345000000   0.44258595    -7.9425542     -7.2786848      2.6386558      50218.233      36.893836      36.893836      36.893836    
 346000000   0.43688214    -7.9400475     -7.2847336      2.6380153      50218.233      36.893836      36.893836      36.893836    
 347000000   0.43891371    -7.9417839     -7.2834227      2.6261242      50218.233      36.893836      36.893836      36.893836    
 348000000   0.4406253     -7.9374572     -7.2765286      2.6670176      50218.233      36.893836      36.893836      36.893836    
 349000000   0.44019757    -7.9401091     -7.2798222      2.6603643      50218.233      36.893836      36.893836      36.893836    
 350000000   0.43941984    -7.9434374     -7.284317       2.613214       50218.233      36.893836      36.893836      36.893836    
 351000000   0.44058045    -7.9376516     -7.2767903      2.6613759      50218.233      36.893836      36.893836      36.893836    
 352000000   0.44265461    -7.9413299     -7.2773574      2.6525044      50218.233      36.893836      36.893836      36.893836    
 353000000   0.44137009    -7.9425366     -7.2804908      2.6317259      50218.233      36.893836      36.893836      36.893836    
 354000000   0.43947523    -7.9438339     -7.2846304      2.6235925      50218.233      36.893836      36.893836      36.893836    
 355000000   0.43883993    -7.9430772     -7.2848266      2.612424       50218.233      36.893836      36.893836      36.893836    
 356000000   0.44192255    -7.9413021     -7.2784277      2.6454802      50218.233      36.893836      36.893836      36.893836    
 357000000   0.44188411    -7.9414114     -7.2785947      2.64279        50218.233      36.893836      36.893836      36.893836    
 358000000   0.43862458    -7.939075      -7.2811475      2.6473074      50218.233      36.893836      36.893836      36.893836    
 359000000   0.44249664    -7.9408573     -7.2771217      2.6475036      50218.233      36.893836      36.893836      36.893836    
 360000000   0.43796384    -7.9461306     -7.2891942      2.5961326      50218.233      36.893836      36.893836      36.893836    
 361000000   0.44205757    -7.941747      -7.2786701      2.6373257      50218.233      36.893836      36.893836      36.893836    
 362000000   0.44203096    -7.9409941     -7.2779571      2.6406275      50218.233      36.893836      36.893836      36.893836    
 363000000   0.44165514    -7.9404227     -7.2779494      2.6495575      50218.233      36.893836      36.893836      36.893836    
 364000000   0.43952725    -7.9385103     -7.2792288      2.6592274      50218.233      36.893836      36.893836      36.893836    
 365000000   0.43952588    -7.9477698     -7.2884904      2.5834842      50218.233      36.893836      36.893836      36.893836    
 366000000   0.43989537    -7.9401951     -7.2803614      2.6445689      50218.233      36.893836      36.893836      36.893836    
 367000000   0.44221286    -7.9413496     -7.2780397      2.6248073      50218.233      36.893836      36.893836      36.893836    
 368000000   0.44127426    -7.9395438     -7.2776418      2.6394888      50218.233      36.893836      36.893836      36.893836    
 369000000   0.44198674    -7.9413014     -7.2783307      2.6388244      50218.233      36.893836      36.893836      36.893836    
 370000000   0.44148695    -7.940744      -7.278523       2.6367305      50218.233      36.893836      36.893836      36.893836    
 371000000   0.44086627    -7.9394909     -7.2782009      2.648977       50218.233      36.893836      36.893836      36.893836    
 372000000   0.43969909    -7.939269      -7.2797297      2.6512963      50218.233      36.893836      36.893836      36.893836    
 373000000   0.44239696    -7.9387845     -7.2751985      2.6407352      50218.233      36.893836      36.893836      36.893836    
 374000000   0.44097982    -7.9390916     -7.2776312      2.6415446      50218.233      36.893836      36.893836      36.893836    
 375000000   0.4406007     -7.9436439     -7.2827523      2.6172138      50218.233      36.893836      36.893836      36.893836    
 376000000   0.43856464    -7.9410509     -7.2832133      2.6332454      50218.233      36.893836      36.893836      36.893836    
 377000000   0.43851263    -7.9418929     -7.2841333      2.6315537      50218.233      36.893836      36.893836      36.893836    
 378000000   0.43878112    -7.9361068     -7.2779445      2.6756962      50218.233      36.893836      36.893836      36.893836    
 379000000   0.4407694     -7.94319       -7.2820453      2.6139283      50218.233      36.893836      36.893836      36.893836    
 380000000   0.43995453    -7.9417009     -7.2817785      2.6270151      50218.233      36.893836      36.893836      36.893836    
 381000000   0.44105264    -7.9431021     -7.2815325      2.6173494      50218.233      36.893836      36.893836      36.893836    
 382000000   0.4400078     -7.9410855     -7.2810832      2.6334984      50218.233      36.893836      36.893836      36.893836    
 383000000   0.43918036    -7.9395183     -7.2807572      2.6477683      50218.233      36.893836      36.893836      36.893836    
 384000000   0.43614812    -7.9436483     -7.2894355      2.6072136      50218.233      36.893836      36.893836      36.893836    
 385000000   0.43985614    -7.9439907     -7.2842158      2.6159126      50218.233      36.893836      36.893836      36.893836    
 386000000   0.44071559    -7.9400697     -7.2790057      2.6435161      50218.233      36.893836      36.893836      36.893836    
 387000000   0.43991826    -7.9424969     -7.2826289      2.6244058      50218.233      36.893836      36.893836      36.893836    
 388000000   0.44229692    -7.9412206     -7.2777846      2.6394407      50218.233      36.893836      36.893836      36.893836    
 389000000   0.44281381    -7.9384968     -7.2742856      2.6631138      50218.233      36.893836      36.893836      36.893836    
 390000000   0.44074103    -7.9407275     -7.2796253      2.6487573      50218.233      36.893836      36.893836      36.893836    
 391000000   0.44197179    -7.9426397     -7.2796915      2.6268831      50218.233      36.893836      36.893836      36.893836    
 392000000   0.43837665    -7.9423667     -7.2848111      2.6256369      50218.233      36.893836      36.893836      36.893836    
 393000000   0.44219588    -7.9424003     -7.2791159      2.6345383      50218.233      36.893836      36.893836      36.893836    
 394000000   0.44114461    -7.9419015     -7.280194       2.6287715      50218.233      36.893836      36.893836      36.893836    
 395000000   0.43959509    -7.9427083     -7.283325       2.6190063      50218.233      36.893836      36.893836      36.893836    
 396000000   0.44203761    -7.9427819     -7.2797349      2.6260335      50218.233      36.893836      36.893836      36.893836    
 397000000   0.44255867    -7.9376735     -7.273845       2.6634152      50218.233      36.893836      36.893836      36.893836    
 398000000   0.43937567    -7.9417926     -7.2827384      2.6235676      50218.233      36.893836      36.893836      36.893836    
 399000000   0.4375825     -7.9408947     -7.2845303      2.632629       50218.233      36.893836      36.893836      36.893836    
 400000000   0.44007699    -7.9452616     -7.2851555      2.6072291      50218.233      36.893836      36.893836      36.893836    
 401000000   0.43815947    -7.941942      -7.2847121      2.6225051      50218.233      36.893836      36.893836      36.893836    
 402000000   0.43890368    -7.9415554     -7.2832092      2.6376646      50218.233      36.893836      36.893836      36.893836    
 403000000   0.44078436    -7.9433704     -7.2822033      2.6229574      50218.233      36.893836      36.893836      36.893836    
 404000000   0.43897502    -7.9414744     -7.2830212      2.6370533      50218.233      36.893836      36.893836      36.893836    
 405000000   0.43885422    -7.9401091     -7.2818372      2.6281981      50218.233      36.893836      36.893836      36.893836    
 406000000   0.43936795    -7.9435194     -7.2844769      2.617327       50218.233      36.893836      36.893836      36.893836    
 407000000   0.43891442    -7.9434596     -7.2850974      2.616839       50218.233      36.893836      36.893836      36.893836    
 408000000   0.43938064    -7.9420659     -7.2830043      2.6228131      50218.233      36.893836      36.893836      36.893836    
 409000000   0.44256543    -7.9428775     -7.2790388      2.6247609      50218.233      36.893836      36.893836      36.893836    
 410000000   0.44173148    -7.9423133     -7.2797255      2.626904       50218.233      36.893836      36.893836      36.893836    
 411000000   0.43785124    -7.9432138     -7.2864463      2.6115241      50218.233      36.893836      36.893836      36.893836    
 412000000   0.44207901    -7.9438804     -7.2807713      2.6137631      50218.233      36.893836      36.893836      36.893836    
 413000000   0.43762843    -7.9451313     -7.288698       2.6050914      50218.233      36.893836      36.893836      36.893836    
 414000000   0.43961835    -7.9387442     -7.2793261      2.657252       50218.233      36.893836      36.893836      36.893836    
 415000000   0.44311864    -7.9398131     -7.2751446      2.6521429      50218.233      36.893836      36.893836      36.893836    
 416000000   0.43814505    -7.9402877     -7.2830795      2.6427914      50218.233      36.893836      36.893836      36.893836    
 417000000   0.43919839    -7.9429701     -7.2841819      2.6157654      50218.233      36.893836      36.893836      36.893836    
 418000000   0.44098416    -7.9407557     -7.2792889      2.6409421      50218.233      36.893836      36.893836      36.893836    
 419000000   0.43928848    -7.9415315     -7.2826081      2.6321198      50218.233      36.893836      36.893836      36.893836    
 420000000   0.43998643    -7.9348084     -7.2748381      2.6767284      50218.233      36.893836      36.893836      36.893836    
 421000000   0.43923442    -7.9400998     -7.2812576      2.6551251      50218.233      36.893836      36.893836      36.893836    
 422000000   0.44243301    -7.9408703     -7.2772302      2.642539       50218.233      36.893836      36.893836      36.893836    
 423000000   0.43979734    -7.936583      -7.2768963      2.6727313      50218.233      36.893836      36.893836      36.893836    
 424000000   0.44109002    -7.9440752     -7.2824496      2.6299817      50218.233      36.893836      36.893836      36.893836    
 425000000   0.44107206    -7.9356603     -7.2740616      2.6872315      50218.233      36.893836      36.893836      36.893836    
 426000000   0.43908788    -7.9357458     -7.2771233      2.6808609      50218.233      36.893836      36.893836      36.893836    
 427000000   0.44076069    -7.9418626     -7.2807309      2.6354451      50218.233      36.893836      36.893836      36.893836    
 428000000   0.43967379    -7.942512      -7.2830107      2.6322407      50218.233      36.893836      36.893836      36.893836    
 429000000   0.43963728    -7.938696      -7.2792495      2.6543138      50218.233      36.893836      36.893836      36.893836    
 430000000   0.43983218    -7.9427533     -7.2830144      2.6387129      50218.233      36.893836      36.893836      36.893836    
 431000000   0.43730202    -7.9437647     -7.287821       2.6208354      50218.233      36.893836      36.893836      36.893836    
 432000000   0.4380054     -7.9395937     -7.2825949      2.6484308      50218.233      36.893836      36.893836      36.893836    
 433000000   0.44321958    -7.9376674     -7.2728475      2.66372        50218.233      36.893836      36.893836      36.893836    
 434000000   0.43848958    -7.9404382     -7.2827132      2.6416301      50218.233      36.893836      36.893836      36.893836    
 435000000   0.44061891    -7.9416702     -7.2807513      2.6356146      50218.233      36.893836      36.893836      36.893836    
 436000000   0.44030744    -7.9443592     -7.2839075      2.6157895      50218.233      36.893836      36.893836      36.893836    
 437000000   0.44062842    -7.942349      -7.2814158      2.6251232      50218.233      36.893836      36.893836      36.893836    
 438000000   0.43901536    -7.9425667     -7.284053       2.6368627      50218.233      36.893836      36.893836      36.893836    
 439000000   0.44199744    -7.9413861     -7.2783994      2.6421242      50218.233      36.893836      36.893836      36.893836    
 440000000   0.43814546    -7.9400214     -7.2828126      2.6430814      50218.233      36.893836      36.893836      36.893836    
 441000000   0.44254184    -7.9386597     -7.2748564      2.6631034      50218.233      36.893836      36.893836      36.893836    
 442000000   0.43762835    -7.9453549     -7.2889217      2.6073444      50218.233      36.893836      36.893836      36.893836    
 443000000   0.44052767    -7.9408775     -7.2800954      2.6260556      50218.233      36.893836      36.893836      36.893836    
 444000000   0.43982895    -7.9418558     -7.2821218      2.6291512      50218.233      36.893836      36.893836      36.893836    
 445000000   0.43902065    -7.9419158     -7.2833942      2.6257163      50218.233      36.893836      36.893836      36.893836    
 446000000   0.43958604    -7.9428909     -7.2835213      2.6161599      50218.233      36.893836      36.893836      36.893836    
 447000000   0.43935619    -7.9439186     -7.2848937      2.6196861      50218.233      36.893836      36.893836      36.893836    
 448000000   0.44065288    -7.943509      -7.2825391      2.623669       50218.233      36.893836      36.893836      36.893836    
 449000000   0.43912852    -7.9457352     -7.2870518      2.6010993      50218.233      36.893836      36.893836      36.893836    
 450000000   0.43927892    -7.9379966     -7.2790876      2.6648164      50218.233      36.893836      36.893836      36.893836    
 451000000   0.44023928    -7.9440014     -7.2836519      2.6273053      50218.233      36.893836      36.893836      36.893836    
 452000000   0.44008576    -7.9438012     -7.283682       2.6212499      50218.233      36.893836      36.893836      36.893836    
 453000000   0.44039557    -7.9422187     -7.2816348      2.6199179      50218.233      36.893836      36.893836      36.893836    
 454000000   0.43888361    -7.9424279     -7.2841119      2.6312008      50218.233      36.893836      36.893836      36.893836    
 455000000   0.44171573    -7.9439        -7.2813358      2.6169039      50218.233      36.893836      36.893836      36.893836    
 456000000   0.43792792    -7.9430478     -7.2861652      2.6190754      50218.233      36.893836      36.893836      36.893836    
 457000000   0.44083017    -7.942346      -7.2811102      2.6290001      50218.233      36.893836      36.893836      36.893836    
 458000000   0.43837367    -7.9432168     -7.2856656      2.6111846      50218.233      36.893836      36.893836      36.893836    
 459000000   0.44111066    -7.9449824     -7.2833259      2.6052434      50218.233      36.893836      36.893836      36.893836    
 460000000   0.44181735    -7.9433444     -7.2806277      2.6235041      50218.233      36.893836      36.893836      36.893836    
 461000000   0.44120702    -7.9423438     -7.2805427      2.6202921      50218.233      36.893836      36.893836      36.893836    
 462000000   0.44120695    -7.9437721     -7.2819711      2.619926       50218.233      36.893836      36.893836      36.893836    
 463000000   0.43865344    -7.9425278     -7.284557       2.6257558      50218.233      36.893836      36.893836      36.893836    
 464000000   0.4403318     -7.9436071     -7.2831188      2.6265769      50218.233      36.893836      36.893836      36.893836    
 465000000   0.44112153    -7.942899      -7.2812261      2.6247105      50218.233      36.893836      36.893836      36.893836    
 466000000   0.43876502    -7.9464323     -7.2882941      2.5901396      50218.233      36.893836      36.893836      36.893836    
 467000000   0.4399186     -7.9437806     -7.2839121      2.6085953      50218.233      36.893836      36.893836      36.893836    
 468000000   0.44056523    -7.9436788     -7.2828404      2.6239069      50218.233      36.893836      36.893836      36.893836    
 469000000   0.44051083    -7.9419025     -7.2811456      2.6291353      50218.233      36.893836      36.893836      36.893836    
 470000000   0.43808264    -7.9410194     -7.2839048      2.6323749      50218.233      36.893836      36.893836      36.893836    
 471000000   0.43807361    -7.9384689     -7.2813678      2.6504046      50218.233      36.893836      36.893836      36.893836    
 472000000   0.44076692    -7.9414578     -7.2803168      2.6402656      50218.233      36.893836      36.893836      36.893836    
 473000000   0.43875054    -7.9413473     -7.2832309      2.6341147      50218.233      36.893836      36.893836      36.893836    
 474000000   0.43931644    -7.9399307     -7.2809654      2.6483542      50218.233      36.893836      36.893836      36.893836    
 475000000   0.43741669    -7.9435247     -7.2874089      2.6119813      50218.233      36.893836      36.893836      36.893836    
 476000000   0.44102586    -7.9433307     -7.2818013      2.6195334      50218.233      36.893836      36.893836      36.893836    
 477000000   0.43911149    -7.9393158     -7.280658       2.6529985      50218.233      36.893836      36.893836      36.893836    
 478000000   0.43616043    -7.9423458     -7.2881144      2.6257348      50218.233      36.893836      36.893836      36.893836    
 479000000   0.43776742    -7.9388465     -7.2822047      2.6434614      50218.233      36.893836      36.893836      36.893836    
 480000000   0.44027247    -7.9406679     -7.2802686      2.6473523      50218.233      36.893836      36.893836      36.893836    
 481000000   0.44133632    -7.9413353     -7.2793402      2.6449128      50218.233      36.893836      36.893836      36.893836    
 482000000   0.43837882    -7.9400387     -7.2824798      2.6449046      50218.233      36.893836      36.893836      36.893836    
 483000000   0.44154494    -7.9385706     -7.2762626      2.662491       50218.233      36.893836      36.893836      36.893836    
 484000000   0.43886359    -7.9418541     -7.2835681      2.6331465      50218.233      36.893836      36.893836      36.893836    
 485000000   0.43946919    -7.9442763     -7.2850819      2.5988379      50218.233      36.893836      36.893836      36.893836    
 486000000   0.44172157    -7.9407753     -7.2782024      2.6471388      50218.233      36.893836      36.893836      36.893836    
 487000000   0.44081183    -7.9424937     -7.2812854      2.6225576      50218.233      36.893836      36.893836      36.893836    
 488000000   0.44025232    -7.9438205     -7.2834514      2.6184196      50218.233      36.893836      36.893836      36.893836    
 489000000   0.44156539    -7.9411965     -7.2788578      2.6370425      50218.233      36.893836      36.893836      36.893836    
 490000000   0.44127396    -7.9431843     -7.2812828      2.623166       50218.233      36.893836      36.893836      36.893836    
 491000000   0.44024698    -7.9436301     -7.283269       2.6162987      50218.233      36.893836      36.893836      36.893836    
 492000000   0.44106695    -7.9441519     -7.2825609      2.6132265      50218.233      36.893836      36.893836      36.893836    
 493000000   0.43956715    -7.9425266     -7.2831852      2.6331048      50218.233      36.893836      36.893836      36.893836    
 494000000   0.43917374    -7.9434974     -7.2847461      2.6109568      50218.233      36.893836      36.893836      36.893836    
 495000000   0.44249738    -7.9453339     -7.2815973      2.6080632      50218.233      36.893836      36.893836      36.893836    
 496000000   0.44019011    -7.9418703     -7.2815945      2.6345746      50218.233      36.893836      36.893836      36.893836    
 497000000   0.44142154    -7.9431632     -7.2810403      2.6282877      50218.233      36.893836      36.893836      36.893836    
 498000000   0.44022719    -7.9409887     -7.2806573      2.6387832      50218.233      36.893836      36.893836      36.893836    
 499000000   0.43965181    -7.9434246     -7.2839563      2.6207548      50218.233      36.893836      36.893836      36.893836    
 500000000   0.43985466    -7.9448708     -7.2850981      2.6140699      50218.233      36.893836      36.893836      36.893836    
Loop time of 817084 on 5 procs for 500000000 steps with 70304 atoms

Performance: 528709.237 tau/day, 611.932 timesteps/s, 43.021 Matom-step/s
94.8% CPU use with 5 MPI tasks x 1 OpenMP threads

MPI task timing breakdown:
Section |  min time  |  avg time  |  max time  |%varavg| %total
---------------------------------------------------------------
Pair    | 2.9353e+05 | 3.4012e+05 | 3.9242e+05 |5733.2 | 41.63
Neigh   | 2386.1     | 2514.8     | 2677.1     | 228.4 |  0.31
Comm    | 1.1663e+05 | 1.1732e+05 | 1.1779e+05 | 127.2 | 14.36
Output  | 0.090172   | 0.093548   | 0.099072   |   1.0 |  0.00
Modify  | 2.6458e+05 | 3.1779e+05 | 3.6525e+05 |6003.1 | 38.89
Other   |            | 3.933e+04  |            |       |  4.81

Nlocal:        14060.8 ave       14088 max       14039 min
Histogram: 1 0 1 1 0 0 1 0 0 1
Nghost:        18742.2 ave       18766 max       18720 min
Histogram: 1 1 0 1 0 0 0 0 1 1
Neighs:              0 ave           0 max           0 min
Histogram: 5 0 0 0 0 0 0 0 0 0

Total # of neighbors = 0
Ave neighs/atom = 0
Neighbor list builds = 99992115
Dangerous builds = 0
clear
OMP_NUM_THREADS environment is not set. Defaulting to 1 thread. (src/comm.cpp:98)
  using 1 OpenMP thread(s) per MPI task
package gpu 0
jump dms420.lmp

variable T equal 420
# T = 1000* (temp in LJ unit)
variable f equal 1000000
log log.${T}
log log.420
