variable TLJ equal (${T}/1000)
variable TLJ equal (260/1000)
variable NCyle equal 5
variable iStep equal (${f})
variable iStep equal (1000000)
variable dumpStep equal (${f}*100)
variable dumpStep equal (1000000*100)
variable runStep equal (${f}*100*${NCyle})
variable runStep equal (1000000*100*${NCyle})
variable runStep equal (1000000*100*5)

units       lj
atom_style  atomic
dimension 3
boundary     p p p
pair_style  lj/cut 2.5
read_data  ../data/T${T}.dat
read_data  ../data/T260.dat
Reading data file ...
  orthogonal box = (0.97250269 0.97250269 0.97250269) to (37.866338 37.866338 37.866338)
  1 by 1 by 5 MPI processor grid
  reading atoms ...
  70304 atoms
  reading velocities ...
  70304 velocities
  read_data CPU = 0.209 seconds
change_box all triclinic
Changing box ...
  triclinic box = (0.97250269 0.97250269 0.97250269) to (37.866338 37.866338 37.866338) with tilt (0 0 0)
mass 1 1
mass 2 1
pair_modify shift yes
pair_coeff  1 1 1 1
pair_coeff  1 2 1.5 0.8
pair_coeff  2 2 0.5 0.88


timestep 0.01
thermo ${iStep}
thermo 1000000
reset_timestep 0
thermo_style custom step temp pe etotal press vol lx ly lz
fix             1 all nvt temp ${TLJ}  ${TLJ}  0.1
fix             1 all nvt temp 0.26  ${TLJ}  0.1
fix             1 all nvt temp 0.26  0.26  0.1
thermo_modify flush yes

fix dsf all deform 1 xy  wiggle 0.5  ${f}   units box
fix dsf all deform 1 xy  wiggle 0.5  1000000   units box
fix ps1 all ave/time 1 1 ${iStep} c_thermo_press[1] c_thermo_press[2]  c_thermo_press[3] c_thermo_press[4]  c_thermo_press[5] c_thermo_press[6]  file  stress.${T}
fix ps1 all ave/time 1 1 1000000 c_thermo_press[1] c_thermo_press[2]  c_thermo_press[3] c_thermo_press[4]  c_thermo_press[5] c_thermo_press[6]  file  stress.${T}
fix ps1 all ave/time 1 1 1000000 c_thermo_press[1] c_thermo_press[2]  c_thermo_press[3] c_thermo_press[4]  c_thermo_press[5] c_thermo_press[6]  file  stress.260
dump            1 all custom ${dumpStep} dump.${T} id type x y z
dump            1 all custom 100000000 dump.${T} id type x y z
dump            1 all custom 100000000 dump.260 id type x y z
dump_modify 1 sort id
fix nodrift all momentum 1  linear 1 1 1
fix com_seed all recenter INIT INIT INIT shift all
run ${runStep}
run 500000000
Generated 0 of 1 mixed pair_coeff terms from geometric mixing rule
Per MPI rank memory allocation (min/avg/max) = 8.916 | 8.92 | 8.925 Mbytes
   Step          Temp          PotEng         TotEng         Press          Volume           Lx             Ly             Lz      
         0   0.25969774    -8.2005087     -7.8109676      0.46562638     50218.233      36.893836      36.893836      36.893836    
   1000000   0.26008764    -8.1961123     -7.8059864      0.50918969     50218.233      36.893836      36.893836      36.893836    
   2000000   0.26105276    -8.1937111     -7.8021375      0.51848801     50218.233      36.893836      36.893836      36.893836    
   3000000   0.26045777    -8.1938465     -7.8031654      0.51080056     50218.233      36.893836      36.893836      36.893836    
   4000000   0.26001446    -8.1937772     -7.803761       0.51608937     50218.233      36.893836      36.893836      36.893836    
   5000000   0.26147206    -8.1955977     -7.8033952      0.49923839     50218.233      36.893836      36.893836      36.893836    
   6000000   0.26016995    -8.1970597     -7.8068104      0.49168209     50218.233      36.893836      36.893836      36.893836    
   7000000   0.26039241    -8.1920138     -7.8014308      0.53365605     50218.233      36.893836      36.893836      36.893836    
   8000000   0.26036676    -8.1951219     -7.8045773      0.50549809     50218.233      36.893836      36.893836      36.893836    
   9000000   0.26040911    -8.1949806     -7.8043725      0.49951692     50218.233      36.893836      36.893836      36.893836    
  10000000   0.26031219    -8.1927539     -7.8022911      0.52855296     50218.233      36.893836      36.893836      36.893836    
  11000000   0.25884962    -8.1930493     -7.8047804      0.51062984     50218.233      36.893836      36.893836      36.893836    
  12000000   0.25944281    -8.1953742     -7.8062155      0.50082243     50218.233      36.893836      36.893836      36.893836    
  13000000   0.26070836    -8.1953529     -7.8042959      0.50094808     50218.233      36.893836      36.893836      36.893836    
  14000000   0.25866205    -8.1946997     -7.8067121      0.50784642     50218.233      36.893836      36.893836      36.893836    
  15000000   0.25782808    -8.1946372     -7.8079006      0.50647442     50218.233      36.893836      36.893836      36.893836    
  16000000   0.25981956    -8.1952134     -7.8054896      0.50456739     50218.233      36.893836      36.893836      36.893836    
  17000000   0.25837546    -8.1953294     -7.8077717      0.50871417     50218.233      36.893836      36.893836      36.893836    
  18000000   0.26053993    -8.1954386     -7.8046343      0.49319614     50218.233      36.893836      36.893836      36.893836    
  19000000   0.26021101    -8.1954522     -7.8051412      0.500748       50218.233      36.893836      36.893836      36.893836    
  20000000   0.25964141    -8.1956918     -7.8062352      0.49831013     50218.233      36.893836      36.893836      36.893836    
  21000000   0.26075657    -8.1912149     -7.8000856      0.53450178     50218.233      36.893836      36.893836      36.893836    
  22000000   0.25919703    -8.1907735     -7.8019835      0.5346709      50218.233      36.893836      36.893836      36.893836    
  23000000   0.2601648     -8.1954746     -7.8052329      0.50549882     50218.233      36.893836      36.893836      36.893836    
  24000000   0.26050204    -8.1936674     -7.8029199      0.51418052     50218.233      36.893836      36.893836      36.893836    
  25000000   0.26054967    -8.1933423     -7.8025233      0.5148878      50218.233      36.893836      36.893836      36.893836    
  26000000   0.26042666    -8.1936138     -7.8029794      0.51725379     50218.233      36.893836      36.893836      36.893836    
  27000000   0.26065472    -8.1918277     -7.8008512      0.52809697     50218.233      36.893836      36.893836      36.893836    
  28000000   0.25966722    -8.191584      -7.8020887      0.53200121     50218.233      36.893836      36.893836      36.893836    
  29000000   0.25884634    -8.1940796     -7.8058156      0.51293        50218.233      36.893836      36.893836      36.893836    
  30000000   0.25919999    -8.1933458     -7.8045513      0.5124583      50218.233      36.893836      36.893836      36.893836    
  31000000   0.2594886     -8.1925579     -7.8033305      0.5254837      50218.233      36.893836      36.893836      36.893836    
  32000000   0.25997943    -8.1936081     -7.8036445      0.51308812     50218.233      36.893836      36.893836      36.893836    
  33000000   0.25967292    -8.1942662     -7.8047624      0.50744544     50218.233      36.893836      36.893836      36.893836    
  34000000   0.25849545    -8.1935295     -7.8057919      0.51885043     50218.233      36.893836      36.893836      36.893836    
  35000000   0.26023044    -8.1934181     -7.803078       0.52103299     50218.233      36.893836      36.893836      36.893836    
  36000000   0.26036116    -8.1956597     -7.8051235      0.50665286     50218.233      36.893836      36.893836      36.893836    
  37000000   0.25920693    -8.1929454     -7.8041405      0.52146988     50218.233      36.893836      36.893836      36.893836    
  38000000   0.25994391    -8.1938627     -7.8039523      0.52311523     50218.233      36.893836      36.893836      36.893836    
  39000000   0.25981655    -8.1947218     -7.8050025      0.51264125     50218.233      36.893836      36.893836      36.893836    
  40000000   0.26073921    -8.1944907     -7.8033874      0.50752097     50218.233      36.893836      36.893836      36.893836    
  41000000   0.26106508    -8.196948      -7.805356       0.49544096     50218.233      36.893836      36.893836      36.893836    
  42000000   0.26128253    -8.1965705     -7.8046523      0.49166138     50218.233      36.893836      36.893836      36.893836    
  43000000   0.25935444    -8.1948293     -7.8058031      0.49972623     50218.233      36.893836      36.893836      36.893836    
  44000000   0.26020147    -8.1954776     -7.8051809      0.50006619     50218.233      36.893836      36.893836      36.893836    
  45000000   0.2610124     -8.1939914     -7.8024784      0.5120357      50218.233      36.893836      36.893836      36.893836    
  46000000   0.25972141    -8.1956919     -7.8061153      0.5024594      50218.233      36.893836      36.893836      36.893836    
  47000000   0.25929168    -8.1956576     -7.8067256      0.50371799     50218.233      36.893836      36.893836      36.893836    
  48000000   0.26042194    -8.195997      -7.8053696      0.48673456     50218.233      36.893836      36.893836      36.893836    
  49000000   0.25929105    -8.1934132     -7.8044822      0.52093655     50218.233      36.893836      36.893836      36.893836    
  50000000   0.26031368    -8.1952542     -7.8047892      0.49961473     50218.233      36.893836      36.893836      36.893836    
  51000000   0.26194151    -8.1952729     -7.8023662      0.50933719     50218.233      36.893836      36.893836      36.893836    
  52000000   0.25970585    -8.1943404     -7.8047872      0.50929786     50218.233      36.893836      36.893836      36.893836    
  53000000   0.26010656    -8.1964972     -7.806343       0.50186304     50218.233      36.893836      36.893836      36.893836    
  54000000   0.26151554    -8.1952857     -7.803018       0.49995884     50218.233      36.893836      36.893836      36.893836    
  55000000   0.25960215    -8.1951671     -7.8057694      0.50679352     50218.233      36.893836      36.893836      36.893836    
  56000000   0.25945811    -8.1948235     -7.8056419      0.51205522     50218.233      36.893836      36.893836      36.893836    
  57000000   0.25957326    -8.1937587     -7.8044043      0.50786717     50218.233      36.893836      36.893836      36.893836    
  58000000   0.25914111    -8.193387      -7.8046809      0.514372       50218.233      36.893836      36.893836      36.893836    
  59000000   0.26135123    -8.195762      -7.8037407      0.50553316     50218.233      36.893836      36.893836      36.893836    
  60000000   0.2595923     -8.1969241     -7.8075412      0.49283405     50218.233      36.893836      36.893836      36.893836    
  61000000   0.26081947    -8.1945611     -7.8033374      0.51096991     50218.233      36.893836      36.893836      36.893836    
  62000000   0.25921422    -8.1958728     -7.807057       0.49662654     50218.233      36.893836      36.893836      36.893836    
  63000000   0.2606756     -8.1946775     -7.8036697      0.51304862     50218.233      36.893836      36.893836      36.893836    
  64000000   0.26013513    -8.1941596     -7.8039625      0.51110456     50218.233      36.893836      36.893836      36.893836    
  65000000   0.261061      -8.1956929     -7.8041069      0.49551895     50218.233      36.893836      36.893836      36.893836    
  66000000   0.25997216    -8.1933118     -7.8033591      0.52208444     50218.233      36.893836      36.893836      36.893836    
  67000000   0.26046968    -8.1932706     -7.8025716      0.52204063     50218.233      36.893836      36.893836      36.893836    
  68000000   0.25995479    -8.1945275     -7.8046009      0.51091978     50218.233      36.893836      36.893836      36.893836    
  69000000   0.26105082    -8.194898      -7.8033274      0.50424425     50218.233      36.893836      36.893836      36.893836    
  70000000   0.25931524    -8.193785      -7.8048177      0.51578314     50218.233      36.893836      36.893836      36.893836    
  71000000   0.25900448    -8.1956372     -7.807136       0.49649301     50218.233      36.893836      36.893836      36.893836    
  72000000   0.25953809    -8.1941035     -7.8048019      0.51221835     50218.233      36.893836      36.893836      36.893836    
  73000000   0.25985015    -8.1912588     -7.8014891      0.52767743     50218.233      36.893836      36.893836      36.893836    
  74000000   0.25971897    -8.1946607     -7.8050878      0.50947409     50218.233      36.893836      36.893836      36.893836    
  75000000   0.26053339    -8.1947018     -7.8039072      0.50571489     50218.233      36.893836      36.893836      36.893836    
  76000000   0.25928203    -8.1948077     -7.8058902      0.51183335     50218.233      36.893836      36.893836      36.893836    
  77000000   0.25914682    -8.1933522     -7.8046375      0.51709252     50218.233      36.893836      36.893836      36.893836    
  78000000   0.26012363    -8.1939993     -7.8038194      0.52089847     50218.233      36.893836      36.893836      36.893836    
  79000000   0.26009359    -8.1909313     -7.8007965      0.53100279     50218.233      36.893836      36.893836      36.893836    
  80000000   0.25920371    -8.1935351     -7.8047351      0.51750969     50218.233      36.893836      36.893836      36.893836    
  81000000   0.26018788    -8.1938517     -7.8035754      0.51057435     50218.233      36.893836      36.893836      36.893836    
  82000000   0.26081774    -8.1930647     -7.8018436      0.52244835     50218.233      36.893836      36.893836      36.893836    
  83000000   0.26100747    -8.1939049     -7.8023992      0.51826362     50218.233      36.893836      36.893836      36.893836    
  84000000   0.260885      -8.1928355     -7.8015136      0.53174452     50218.233      36.893836      36.893836      36.893836    
  85000000   0.25990308    -8.1965051     -7.806656       0.50057398     50218.233      36.893836      36.893836      36.893836    
  86000000   0.26095153    -8.1948944     -7.8034726      0.50406923     50218.233      36.893836      36.893836      36.893836    
  87000000   0.25953278    -8.1932548     -7.8039612      0.52078817     50218.233      36.893836      36.893836      36.893836    
  88000000   0.26053282    -8.193041      -7.8022473      0.52736507     50218.233      36.893836      36.893836      36.893836    
  89000000   0.26191488    -8.1938591     -7.8009923      0.50993033     50218.233      36.893836      36.893836      36.893836    
  90000000   0.25959275    -8.1939581     -7.8045745      0.50977644     50218.233      36.893836      36.893836      36.893836    
  91000000   0.25947633    -8.1926921     -7.8034832      0.52595926     50218.233      36.893836      36.893836      36.893836    
  92000000   0.26012871    -8.1942635     -7.804076       0.51355226     50218.233      36.893836      36.893836      36.893836    
  93000000   0.2595542     -8.1950291     -7.8057034      0.50065727     50218.233      36.893836      36.893836      36.893836    
  94000000   0.25995895    -8.1948996     -7.8049667      0.50709653     50218.233      36.893836      36.893836      36.893836    
  95000000   0.25910181    -8.195942      -7.8072948      0.48728864     50218.233      36.893836      36.893836      36.893836    
  96000000   0.2592341     -8.1968988     -7.8080532      0.49229569     50218.233      36.893836      36.893836      36.893836    
  97000000   0.26112661    -8.1939542     -7.8022699      0.5121989      50218.233      36.893836      36.893836      36.893836    
  98000000   0.26126306    -8.1961944     -7.8043054      0.49761139     50218.233      36.893836      36.893836      36.893836    
  99000000   0.26002073    -8.1931345     -7.803109       0.51884695     50218.233      36.893836      36.893836      36.893836    
 100000000   0.26199556    -8.1956859     -7.8026981      0.5000747      50218.233      36.893836      36.893836      36.893836    
 101000000   0.25978525    -8.1963222     -7.8066499      0.49180767     50218.233      36.893836      36.893836      36.893836    
 102000000   0.25942364    -8.1958264     -7.8066964      0.50182492     50218.233      36.893836      36.893836      36.893836    
 103000000   0.25875171    -8.1942199     -7.8060979      0.51168967     50218.233      36.893836      36.893836      36.893836    
 104000000   0.25913581    -8.1947442     -7.8060461      0.51526495     50218.233      36.893836      36.893836      36.893836    
 105000000   0.26052094    -8.1926754     -7.8018995      0.52184098     50218.233      36.893836      36.893836      36.893836    
 106000000   0.25980372    -8.1945335     -7.8048335      0.50688343     50218.233      36.893836      36.893836      36.893836    
 107000000   0.2597855     -8.1953831     -7.8057104      0.50165742     50218.233      36.893836      36.893836      36.893836    
 108000000   0.25999204    -8.1947572     -7.8047747      0.51287318     50218.233      36.893836      36.893836      36.893836    
 109000000   0.26004275    -8.1946764     -7.8046178      0.50517055     50218.233      36.893836      36.893836      36.893836    
 110000000   0.25816055    -8.194803      -7.8075677      0.51210163     50218.233      36.893836      36.893836      36.893836    
 111000000   0.26041336    -8.1956474     -7.8050329      0.5071141      50218.233      36.893836      36.893836      36.893836    
 112000000   0.25947502    -8.1956584     -7.8064514      0.50279734     50218.233      36.893836      36.893836      36.893836    
 113000000   0.25972995    -8.1956745     -7.8060851      0.49947565     50218.233      36.893836      36.893836      36.893836    
 114000000   0.26089574    -8.1939964     -7.8026583      0.51250743     50218.233      36.893836      36.893836      36.893836    
 115000000   0.25864338    -8.1961037     -7.8081441      0.50019616     50218.233      36.893836      36.893836      36.893836    
 116000000   0.25952211    -8.1940066     -7.804729       0.5072911      50218.233      36.893836      36.893836      36.893836    
 117000000   0.25939557    -8.1955809     -7.8064931      0.50018701     50218.233      36.893836      36.893836      36.893836    
 118000000   0.26000241    -8.1960128     -7.8060148      0.49907304     50218.233      36.893836      36.893836      36.893836    
 119000000   0.26054312    -8.192993      -7.8021839      0.52136163     50218.233      36.893836      36.893836      36.893836    
 120000000   0.25988438    -8.1957829     -7.8059619      0.49033094     50218.233      36.893836      36.893836      36.893836    
 121000000   0.25941813    -8.1936826     -7.804561       0.50871995     50218.233      36.893836      36.893836      36.893836    
 122000000   0.26037971    -8.1940195     -7.8034555      0.51494374     50218.233      36.893836      36.893836      36.893836    
 123000000   0.26055133    -8.1946079     -7.8037865      0.51373239     50218.233      36.893836      36.893836      36.893836    
 124000000   0.25908825    -8.1936825     -7.8050556      0.51208315     50218.233      36.893836      36.893836      36.893836    
 125000000   0.2608958     -8.1941        -7.8027619      0.5166908      50218.233      36.893836      36.893836      36.893836    
 126000000   0.25923538    -8.192145      -7.8032975      0.5295102      50218.233      36.893836      36.893836      36.893836    
 127000000   0.25999039    -8.1938459     -7.8038659      0.51866829     50218.233      36.893836      36.893836      36.893836    
 128000000   0.2610316     -8.1940402     -7.8024983      0.51775557     50218.233      36.893836      36.893836      36.893836    
 129000000   0.25869087    -8.1931837     -7.8051529      0.52809679     50218.233      36.893836      36.893836      36.893836    
 130000000   0.25981063    -8.19515       -7.8054396      0.50253274     50218.233      36.893836      36.893836      36.893836    
 131000000   0.25987187    -8.1957298     -7.8059276      0.49903781     50218.233      36.893836      36.893836      36.893836    
 132000000   0.26085349    -8.1921685     -7.8008938      0.5228963      50218.233      36.893836      36.893836      36.893836    
 133000000   0.26021509    -8.193665      -7.8033479      0.50682064     50218.233      36.893836      36.893836      36.893836    
 134000000   0.25930479    -8.1935682     -7.8046166      0.51585596     50218.233      36.893836      36.893836      36.893836    
 135000000   0.25947752    -8.1935807     -7.8043699      0.5201045      50218.233      36.893836      36.893836      36.893836    
 136000000   0.26106138    -8.1940459     -7.8024594      0.51749017     50218.233      36.893836      36.893836      36.893836    
 137000000   0.26007801    -8.1965273     -7.8064158      0.49192564     50218.233      36.893836      36.893836      36.893836    
 138000000   0.25948531    -8.1948163     -7.8055938      0.50947935     50218.233      36.893836      36.893836      36.893836    
 139000000   0.25912261    -8.1957537     -7.8070753      0.50530634     50218.233      36.893836      36.893836      36.893836    
 140000000   0.25915612    -8.1932936     -7.8045649      0.5117472      50218.233      36.893836      36.893836      36.893836    
 141000000   0.25853489    -8.1968222     -7.8090254      0.49011128     50218.233      36.893836      36.893836      36.893836    
 142000000   0.2598277     -8.1939504     -7.8042144      0.51546203     50218.233      36.893836      36.893836      36.893836    
 143000000   0.25908442    -8.1943467     -7.8057256      0.51123913     50218.233      36.893836      36.893836      36.893836    
 144000000   0.26167313    -8.1956864     -7.8031823      0.50804711     50218.233      36.893836      36.893836      36.893836    
 145000000   0.26056978    -8.1960668     -7.8052177      0.50481136     50218.233      36.893836      36.893836      36.893836    
 146000000   0.26018917    -8.1971415     -7.8068633      0.49061354     50218.233      36.893836      36.893836      36.893836    
 147000000   0.26079394    -8.1971011     -7.8059157      0.49492833     50218.233      36.893836      36.893836      36.893836    
 148000000   0.25916252    -8.1959694     -7.8072312      0.49843708     50218.233      36.893836      36.893836      36.893836    
 149000000   0.26013895    -8.1950216     -7.8048187      0.50542016     50218.233      36.893836      36.893836      36.893836    
 150000000   0.25918336    -8.1975515     -7.808782       0.48363742     50218.233      36.893836      36.893836      36.893836    
 151000000   0.25963978    -8.1961941     -7.8067399      0.49265844     50218.233      36.893836      36.893836      36.893836    
 152000000   0.2597569     -8.1959415     -7.8063117      0.49009542     50218.233      36.893836      36.893836      36.893836    
 153000000   0.26082228    -8.1949549     -7.803727       0.51013981     50218.233      36.893836      36.893836      36.893836    
 154000000   0.25936628    -8.1941716     -7.8051277      0.50438178     50218.233      36.893836      36.893836      36.893836    
 155000000   0.25989763    -8.1942983     -7.8044574      0.51643323     50218.233      36.893836      36.893836      36.893836    
 156000000   0.26121918    -8.1973245     -7.8055013      0.48845732     50218.233      36.893836      36.893836      36.893836    
 157000000   0.26013862    -8.1943732     -7.8041708      0.51527457     50218.233      36.893836      36.893836      36.893836    
 158000000   0.26044336    -8.1946375     -7.803978       0.50803135     50218.233      36.893836      36.893836      36.893836    
 159000000   0.261276      -8.1958597     -7.8039512      0.50760364     50218.233      36.893836      36.893836      36.893836    
 160000000   0.25931003    -8.1935415     -7.804582       0.51848716     50218.233      36.893836      36.893836      36.893836    
 161000000   0.25928081    -8.1966272     -7.8077115      0.4913624      50218.233      36.893836      36.893836      36.893836    
 162000000   0.26036018    -8.1948407     -7.804306       0.51210777     50218.233      36.893836      36.893836      36.893836    
 163000000   0.25949175    -8.1938619     -7.8046298      0.5125251      50218.233      36.893836      36.893836      36.893836    
 164000000   0.25897924    -8.1950514     -7.806588       0.50289654     50218.233      36.893836      36.893836      36.893836    
 165000000   0.261209      -8.1933345     -7.8015266      0.52021325     50218.233      36.893836      36.893836      36.893836    
 166000000   0.26066145    -8.1958283     -7.8048417      0.49885652     50218.233      36.893836      36.893836      36.893836    
 167000000   0.26016712    -8.1944891     -7.804244       0.50914368     50218.233      36.893836      36.893836      36.893836    
 168000000   0.25937526    -8.1955716     -7.8065142      0.49861256     50218.233      36.893836      36.893836      36.893836    
 169000000   0.26078009    -8.1945861     -7.8034215      0.50504586     50218.233      36.893836      36.893836      36.893836    
 170000000   0.26053331    -8.1937103     -7.8029158      0.51562496     50218.233      36.893836      36.893836      36.893836    
 171000000   0.25819787    -8.1954249     -7.8081336      0.50029581     50218.233      36.893836      36.893836      36.893836    
 172000000   0.26013148    -8.1913234     -7.8011317      0.53833023     50218.233      36.893836      36.893836      36.893836    
 173000000   0.25987359    -8.194167      -7.8043622      0.51371959     50218.233      36.893836      36.893836      36.893836    
 174000000   0.25940532    -8.1941603     -7.8050579      0.50850088     50218.233      36.893836      36.893836      36.893836    
 175000000   0.26018739    -8.1940811     -7.8038055      0.50866786     50218.233      36.893836      36.893836      36.893836    
 176000000   0.25915708    -8.1913761     -7.802646       0.52739615     50218.233      36.893836      36.893836      36.893836    
 177000000   0.26024906    -8.1918004     -7.8014324      0.53545215     50218.233      36.893836      36.893836      36.893836    
 178000000   0.2600007     -8.1948167     -7.8048212      0.50148142     50218.233      36.893836      36.893836      36.893836    
 179000000   0.25945308    -8.1952236     -7.8060495      0.50429933     50218.233      36.893836      36.893836      36.893836    
 180000000   0.26044856    -8.1955932     -7.8049259      0.49770961     50218.233      36.893836      36.893836      36.893836    
 181000000   0.26115042    -8.191091      -7.7993709      0.53865345     50218.233      36.893836      36.893836      36.893836    
 182000000   0.25999106    -8.1938137     -7.8038327      0.50780931     50218.233      36.893836      36.893836      36.893836    
 183000000   0.25917775    -8.1940122     -7.8052511      0.51266294     50218.233      36.893836      36.893836      36.893836    
 184000000   0.26010626    -8.1915602     -7.8014064      0.53402815     50218.233      36.893836      36.893836      36.893836    
 185000000   0.26026162    -8.1941496     -7.8037627      0.51071987     50218.233      36.893836      36.893836      36.893836    
 186000000   0.2598439     -8.1957793     -7.806019       0.49604324     50218.233      36.893836      36.893836      36.893836    
 187000000   0.25904973    -8.1935633     -7.8049942      0.51908901     50218.233      36.893836      36.893836      36.893836    
 188000000   0.25986768    -8.1944058     -7.8046098      0.52063555     50218.233      36.893836      36.893836      36.893836    
 189000000   0.25977794    -8.1950203     -7.805359       0.50045706     50218.233      36.893836      36.893836      36.893836    
 190000000   0.26011468    -8.1953676     -7.8052011      0.5014161      50218.233      36.893836      36.893836      36.893836    
 191000000   0.2599326     -8.1943408     -7.8044475      0.51131901     50218.233      36.893836      36.893836      36.893836    
 192000000   0.25958512    -8.1975843     -7.8082121      0.4835421      50218.233      36.893836      36.893836      36.893836    
 193000000   0.25986508    -8.1934746     -7.8036825      0.51068354     50218.233      36.893836      36.893836      36.893836    
 194000000   0.25880038    -8.1966799     -7.8084848      0.49341377     50218.233      36.893836      36.893836      36.893836    
 195000000   0.2594916     -8.1948936     -7.8056617      0.51655294     50218.233      36.893836      36.893836      36.893836    
 196000000   0.25928326    -8.1963026     -7.8073832      0.4978689      50218.233      36.893836      36.893836      36.893836    
 197000000   0.25977677    -8.1975332     -7.8078735      0.48634959     50218.233      36.893836      36.893836      36.893836    
 198000000   0.26041512    -8.1972337     -7.8066165      0.48957187     50218.233      36.893836      36.893836      36.893836    
 199000000   0.26110956    -8.1947956     -7.8031368      0.50646031     50218.233      36.893836      36.893836      36.893836    
 200000000   0.25858007    -8.1948296     -7.806965       0.508123       50218.233      36.893836      36.893836      36.893836    
 201000000   0.26135235    -8.1944999     -7.802477       0.51663142     50218.233      36.893836      36.893836      36.893836    
 202000000   0.25983505    -8.1952665     -7.8055195      0.50536848     50218.233      36.893836      36.893836      36.893836    
 203000000   0.25971763    -8.1966184     -7.8070475      0.496121       50218.233      36.893836      36.893836      36.893836    
 204000000   0.25994993    -8.1979681     -7.8080487      0.48794331     50218.233      36.893836      36.893836      36.893836    
 205000000   0.25933096    -8.195025      -7.8060341      0.50302893     50218.233      36.893836      36.893836      36.893836    
 206000000   0.26026026    -8.1926784     -7.8022935      0.52527001     50218.233      36.893836      36.893836      36.893836    
 207000000   0.26046079    -8.1950911     -7.8044055      0.51003159     50218.233      36.893836      36.893836      36.893836    
 208000000   0.26157908    -8.1982351     -7.805872       0.4813957      50218.233      36.893836      36.893836      36.893836    
 209000000   0.26045529    -8.193773      -7.8030956      0.51735963     50218.233      36.893836      36.893836      36.893836    
 210000000   0.25985948    -8.1965573     -7.8067736      0.49483344     50218.233      36.893836      36.893836      36.893836    
 211000000   0.25962944    -8.1955149     -7.8060763      0.50421209     50218.233      36.893836      36.893836      36.893836    
 212000000   0.26003595    -8.1945331     -7.8044847      0.51581387     50218.233      36.893836      36.893836      36.893836    
 213000000   0.26019643    -8.1940659     -7.8037768      0.50623191     50218.233      36.893836      36.893836      36.893836    
 214000000   0.25950584    -8.1926086     -7.8033553      0.52455399     50218.233      36.893836      36.893836      36.893836    
 215000000   0.25895434    -8.1942724     -7.8058464      0.51255078     50218.233      36.893836      36.893836      36.893836    
 216000000   0.25911364    -8.1945867     -7.8059217      0.51040041     50218.233      36.893836      36.893836      36.893836    
 217000000   0.25977693    -8.1929737     -7.8033138      0.51736657     50218.233      36.893836      36.893836      36.893836    
 218000000   0.26060246    -8.1919359     -7.8010378      0.52857652     50218.233      36.893836      36.893836      36.893836    
 219000000   0.26062044    -8.1949171     -7.803992       0.50877413     50218.233      36.893836      36.893836      36.893836    
 220000000   0.26001686    -8.1961303     -7.8061106      0.50112128     50218.233      36.893836      36.893836      36.893836    
 221000000   0.2596904     -8.1937496     -7.8042196      0.5145517      50218.233      36.893836      36.893836      36.893836    
 222000000   0.25919258    -8.1928155     -7.8040322      0.52329524     50218.233      36.893836      36.893836      36.893836    
 223000000   0.25909699    -8.1921162     -7.8034763      0.52624415     50218.233      36.893836      36.893836      36.893836    
 224000000   0.25938385    -8.195665      -7.8065947      0.50059002     50218.233      36.893836      36.893836      36.893836    
 225000000   0.26020927    -8.1950014     -7.804693       0.50596575     50218.233      36.893836      36.893836      36.893836    
 226000000   0.26056963    -8.194806      -7.8039571      0.50569079     50218.233      36.893836      36.893836      36.893836    
 227000000   0.25899806    -8.1929468     -7.8044552      0.52674989     50218.233      36.893836      36.893836      36.893836    
 228000000   0.25986498    -8.1931415     -7.8033496      0.52041898     50218.233      36.893836      36.893836      36.893836    
 229000000   0.26085063    -8.195507      -7.8042366      0.50512338     50218.233      36.893836      36.893836      36.893836    
 230000000   0.25987533    -8.1934526     -7.8036451      0.51375216     50218.233      36.893836      36.893836      36.893836    
 231000000   0.25842356    -8.1935423     -7.8059124      0.51483347     50218.233      36.893836      36.893836      36.893836    
 232000000   0.25972719    -8.1924091     -7.8028239      0.53149845     50218.233      36.893836      36.893836      36.893836    
 233000000   0.26059375    -8.1942087     -7.8033236      0.515614       50218.233      36.893836      36.893836      36.893836    
 234000000   0.26153257    -8.1954759     -7.8031826      0.50771053     50218.233      36.893836      36.893836      36.893836    
 235000000   0.25894744    -8.1941784     -7.8057628      0.51995675     50218.233      36.893836      36.893836      36.893836    
 236000000   0.26019601    -8.1952763     -7.8049879      0.49541398     50218.233      36.893836      36.893836      36.893836    
 237000000   0.26022631    -8.1932102     -7.8028763      0.51755527     50218.233      36.893836      36.893836      36.893836    
 238000000   0.26031923    -8.1937113     -7.803238       0.51446296     50218.233      36.893836      36.893836      36.893836    
 239000000   0.25891384    -8.1940062     -7.805641       0.51319657     50218.233      36.893836      36.893836      36.893836    
 240000000   0.26150332    -8.1945964     -7.802347       0.51358787     50218.233      36.893836      36.893836      36.893836    
 241000000   0.26113492    -8.19515       -7.8034532      0.50179193     50218.233      36.893836      36.893836      36.893836    
 242000000   0.2597983     -8.1947764     -7.8050845      0.50440305     50218.233      36.893836      36.893836      36.893836    
 243000000   0.25983213    -8.1949392     -7.8051966      0.51514204     50218.233      36.893836      36.893836      36.893836    
 244000000   0.26024812    -8.196279      -7.8059123      0.4955905      50218.233      36.893836      36.893836      36.893836    
 245000000   0.2596408     -8.1945518     -7.8050961      0.50579367     50218.233      36.893836      36.893836      36.893836    
 246000000   0.25857767    -8.1962427     -7.8083817      0.48959577     50218.233      36.893836      36.893836      36.893836    
 247000000   0.2601967     -8.1973084     -7.8070189      0.48808194     50218.233      36.893836      36.893836      36.893836    
 248000000   0.26097367    -8.194719      -7.803264       0.50956432     50218.233      36.893836      36.893836      36.893836    
 249000000   0.25991717    -8.1950818     -7.8052116      0.5029482      50218.233      36.893836      36.893836      36.893836    
 250000000   0.25958034    -8.1934923     -7.8041273      0.51481115     50218.233      36.893836      36.893836      36.893836    
 251000000   0.2622585     -8.1959455     -7.8025633      0.49885836     50218.233      36.893836      36.893836      36.893836    
 252000000   0.25982429    -8.1932307     -7.8034998      0.51531631     50218.233      36.893836      36.893836      36.893836    
 253000000   0.26105053    -8.1984481     -7.8068779      0.48634243     50218.233      36.893836      36.893836      36.893836    
 254000000   0.25940475    -8.1947303     -7.8056287      0.50874668     50218.233      36.893836      36.893836      36.893836    
 255000000   0.25910945    -8.1953874     -7.8067288      0.5075545      50218.233      36.893836      36.893836      36.893836    
 256000000   0.26073527    -8.1952753     -7.8041779      0.50063262     50218.233      36.893836      36.893836      36.893836    
 257000000   0.25979664    -8.1932347     -7.8035452      0.51658308     50218.233      36.893836      36.893836      36.893836    
 258000000   0.26116794    -8.1946611     -7.8029148      0.50601684     50218.233      36.893836      36.893836      36.893836    
 259000000   0.259398      -8.1952035     -7.8061121      0.50649758     50218.233      36.893836      36.893836      36.893836    
 260000000   0.26066893    -8.1942223     -7.8032245      0.50737593     50218.233      36.893836      36.893836      36.893836    
 261000000   0.26147594    -8.1958064     -7.8035981      0.50642308     50218.233      36.893836      36.893836      36.893836    
 262000000   0.25901866    -8.1948757     -7.8063532      0.50265898     50218.233      36.893836      36.893836      36.893836    
 263000000   0.26108567    -8.1927002     -7.8010773      0.52311169     50218.233      36.893836      36.893836      36.893836    
 264000000   0.26036822    -8.1923498     -7.801803       0.52615586     50218.233      36.893836      36.893836      36.893836    
 265000000   0.26055294    -8.1956352     -7.8048114      0.50123833     50218.233      36.893836      36.893836      36.893836    
 266000000   0.2591283     -8.1934276     -7.8047406      0.51084362     50218.233      36.893836      36.893836      36.893836    
 267000000   0.25832055    -8.1976337     -7.8101584      0.48356016     50218.233      36.893836      36.893836      36.893836    
 268000000   0.26007228    -8.1923416     -7.8022387      0.52167585     50218.233      36.893836      36.893836      36.893836    
 269000000   0.25982261    -8.1916839     -7.8019556      0.53376246     50218.233      36.893836      36.893836      36.893836    
 270000000   0.25949525    -8.1947044     -7.8054671      0.50381565     50218.233      36.893836      36.893836      36.893836    
 271000000   0.25992762    -8.1937033     -7.8038174      0.51079514     50218.233      36.893836      36.893836      36.893836    
 272000000   0.25947536    -8.1941732     -7.8049657      0.51076502     50218.233      36.893836      36.893836      36.893836    
 273000000   0.25923211    -8.1951889     -7.8063463      0.50256123     50218.233      36.893836      36.893836      36.893836    
 274000000   0.2588657     -8.1947246     -7.8064316      0.51232578     50218.233      36.893836      36.893836      36.893836    
 275000000   0.2601137     -8.193324      -7.803159       0.5256572      50218.233      36.893836      36.893836      36.893836    
 276000000   0.2592362     -8.1936552     -7.8048064      0.51767138     50218.233      36.893836      36.893836      36.893836    
 277000000   0.26128242    -8.1917902     -7.7998721      0.52603232     50218.233      36.893836      36.893836      36.893836    
 278000000   0.26156284    -8.1945991     -7.8022604      0.51489435     50218.233      36.893836      36.893836      36.893836    
 279000000   0.26036923    -8.1932196     -7.8026713      0.51941215     50218.233      36.893836      36.893836      36.893836    
 280000000   0.2602692     -8.1930794     -7.8026811      0.52274933     50218.233      36.893836      36.893836      36.893836    
 281000000   0.25816419    -8.1959929     -7.8087521      0.49731359     50218.233      36.893836      36.893836      36.893836    
 282000000   0.25949797    -8.1935128     -7.8042714      0.51299299     50218.233      36.893836      36.893836      36.893836    
 283000000   0.26037655    -8.1942203     -7.8036611      0.51271709     50218.233      36.893836      36.893836      36.893836    
 284000000   0.26016778    -8.1953653     -7.8051192      0.49539674     50218.233      36.893836      36.893836      36.893836    
 285000000   0.2603535     -8.1962387     -7.805714       0.49943068     50218.233      36.893836      36.893836      36.893836    
 286000000   0.25963537    -8.1935368     -7.8040893      0.51693498     50218.233      36.893836      36.893836      36.893836    
 287000000   0.26158662    -8.1946474     -7.8022731      0.51315387     50218.233      36.893836      36.893836      36.893836    
 288000000   0.25957081    -8.1942814     -7.8049307      0.50588064     50218.233      36.893836      36.893836      36.893836    
 289000000   0.25956631    -8.1937426     -7.8043986      0.51942183     50218.233      36.893836      36.893836      36.893836    
 290000000   0.25877274    -8.1925768     -7.8044232      0.51101264     50218.233      36.893836      36.893836      36.893836    
 291000000   0.25902875    -8.1947432     -7.8062056      0.50790406     50218.233      36.893836      36.893836      36.893836    
 292000000   0.25910171    -8.1921834     -7.8035363      0.53297024     50218.233      36.893836      36.893836      36.893836    
 293000000   0.2586242     -8.1958339     -7.8079031      0.49892428     50218.233      36.893836      36.893836      36.893836    
 294000000   0.25957616    -8.1950657     -7.8057069      0.50869824     50218.233      36.893836      36.893836      36.893836    
 295000000   0.25948497    -8.1968307     -7.8076088      0.49860515     50218.233      36.893836      36.893836      36.893836    
 296000000   0.25853444    -8.195562      -7.8077659      0.50587111     50218.233      36.893836      36.893836      36.893836    
 297000000   0.25945559    -8.1951457     -7.8059679      0.4971749      50218.233      36.893836      36.893836      36.893836    
 298000000   0.26126036    -8.1951502     -7.8032652      0.51209151     50218.233      36.893836      36.893836      36.893836    
 299000000   0.2613085     -8.1968801     -7.8049229      0.48903355     50218.233      36.893836      36.893836      36.893836    
 300000000   0.2607404     -8.1974344     -7.8063294      0.48179263     50218.233      36.893836      36.893836      36.893836    
 301000000   0.26055821    -8.1948483     -7.8040166      0.50921104     50218.233      36.893836      36.893836      36.893836    
 302000000   0.2595665     -8.1977634     -7.8084191      0.4855121      50218.233      36.893836      36.893836      36.893836    
 303000000   0.25976905    -8.1943671     -7.804719       0.51473932     50218.233      36.893836      36.893836      36.893836    
 304000000   0.25914044    -8.1959376     -7.8072324      0.49314691     50218.233      36.893836      36.893836      36.893836    
 305000000   0.26068317    -8.1941149     -7.8030957      0.50471327     50218.233      36.893836      36.893836      36.893836    
 306000000   0.25987558    -8.1953853     -7.8055775      0.49825982     50218.233      36.893836      36.893836      36.893836    
 307000000   0.25960262    -8.1963426     -7.8069442      0.4891041      50218.233      36.893836      36.893836      36.893836    
 308000000   0.25916317    -8.1940008     -7.8052615      0.51544286     50218.233      36.893836      36.893836      36.893836    
 309000000   0.25938245    -8.1953453     -7.8062772      0.5009243      50218.233      36.893836      36.893836      36.893836    
 310000000   0.2603949     -8.1958684     -7.8052816      0.49707475     50218.233      36.893836      36.893836      36.893836    
 311000000   0.2605931     -8.1957305     -7.8048464      0.50132601     50218.233      36.893836      36.893836      36.893836    
 312000000   0.26113871    -8.1956046     -7.8039022      0.50295468     50218.233      36.893836      36.893836      36.893836    
 313000000   0.25947089    -8.1951993     -7.8059985      0.50238542     50218.233      36.893836      36.893836      36.893836    
 314000000   0.26032994    -8.1967344     -7.8062451      0.48908723     50218.233      36.893836      36.893836      36.893836    
 315000000   0.25931077    -8.1954145     -7.8064539      0.49937569     50218.233      36.893836      36.893836      36.893836    
 316000000   0.26073488    -8.1961848     -7.8050881      0.49720196     50218.233      36.893836      36.893836      36.893836    
 317000000   0.25983194    -8.1953145     -7.8055721      0.5032486      50218.233      36.893836      36.893836      36.893836    
 318000000   0.2598579     -8.1939949     -7.8042136      0.51568965     50218.233      36.893836      36.893836      36.893836    
 319000000   0.25983666    -8.1950771     -7.8053277      0.50699605     50218.233      36.893836      36.893836      36.893836    
 320000000   0.26043396    -8.1932253     -7.8025799      0.52049037     50218.233      36.893836      36.893836      36.893836    
 321000000   0.25882426    -8.1911255     -7.8028947      0.53121512     50218.233      36.893836      36.893836      36.893836    
 322000000   0.25970153    -8.1971298     -7.8075831      0.49363099     50218.233      36.893836      36.893836      36.893836    
 323000000   0.26002606    -8.1937582     -7.8037247      0.51301877     50218.233      36.893836      36.893836      36.893836    
 324000000   0.25891474    -8.1939054     -7.8055388      0.51102754     50218.233      36.893836      36.893836      36.893836    
 325000000   0.25878491    -8.1931372     -7.8049654      0.51569131     50218.233      36.893836      36.893836      36.893836    
 326000000   0.25985363    -8.1925642     -7.8027893      0.51404779     50218.233      36.893836      36.893836      36.893836    
 327000000   0.26020434    -8.1936579     -7.803357       0.51510898     50218.233      36.893836      36.893836      36.893836    
 328000000   0.26021615    -8.1935039     -7.8031852      0.51698042     50218.233      36.893836      36.893836      36.893836    
 329000000   0.26122071    -8.1938212     -7.8019957      0.51707857     50218.233      36.893836      36.893836      36.893836    
 330000000   0.25928101    -8.1946729     -7.8057569      0.50870994     50218.233      36.893836      36.893836      36.893836    
 331000000   0.25948928    -8.194774      -7.8055456      0.51264163     50218.233      36.893836      36.893836      36.893836    
 332000000   0.26011375    -8.192957      -7.8027919      0.52030432     50218.233      36.893836      36.893836      36.893836    
 333000000   0.26043554    -8.1954918     -7.804844       0.49957047     50218.233      36.893836      36.893836      36.893836    
 334000000   0.25916574    -8.1943175     -7.8055745      0.50953935     50218.233      36.893836      36.893836      36.893836    
 335000000   0.2610101     -8.1947633     -7.8032537      0.50696537     50218.233      36.893836      36.893836      36.893836    
 336000000   0.26089968    -8.195387      -7.804043       0.50664117     50218.233      36.893836      36.893836      36.893836    
 337000000   0.25875604    -8.1953804     -7.8072519      0.49708016     50218.233      36.893836      36.893836      36.893836    
 338000000   0.25939212    -8.1946696     -7.805587       0.51067804     50218.233      36.893836      36.893836      36.893836    
 339000000   0.25869689    -8.1972039     -7.8091641      0.48458865     50218.233      36.893836      36.893836      36.893836    
 340000000   0.2602043     -8.1937766     -7.8034757      0.51633943     50218.233      36.893836      36.893836      36.893836    
 341000000   0.25922046    -8.1956698     -7.8068446      0.50266367     50218.233      36.893836      36.893836      36.893836    
 342000000   0.26079436    -8.1959103     -7.8047244      0.50649138     50218.233      36.893836      36.893836      36.893836    
 343000000   0.26058313    -8.1958013     -7.8049321      0.4988597      50218.233      36.893836      36.893836      36.893836    
 344000000   0.25930437    -8.1943704     -7.8054193      0.51379012     50218.233      36.893836      36.893836      36.893836    
 345000000   0.26008509    -8.1952735     -7.8051515      0.49931818     50218.233      36.893836      36.893836      36.893836    
 346000000   0.25898949    -8.1945473     -7.8060686      0.50965577     50218.233      36.893836      36.893836      36.893836    
 347000000   0.26078976    -8.1967918     -7.8056127      0.49056815     50218.233      36.893836      36.893836      36.893836    
 348000000   0.26032245    -8.19709       -7.8066119      0.4868228      50218.233      36.893836      36.893836      36.893836    
 349000000   0.25984571    -8.1936214     -7.8038584      0.51607771     50218.233      36.893836      36.893836      36.893836    
 350000000   0.25956051    -8.1968411     -7.8075059      0.49016392     50218.233      36.893836      36.893836      36.893836    
 351000000   0.25947856    -8.1940635     -7.8048512      0.5172429      50218.233      36.893836      36.893836      36.893836    
 352000000   0.2597693     -8.195849      -7.8062006      0.49956972     50218.233      36.893836      36.893836      36.893836    
 353000000   0.26041631    -8.1944125     -7.8037935      0.50373401     50218.233      36.893836      36.893836      36.893836    
 354000000   0.26015687    -8.1936921     -7.8034623      0.51238752     50218.233      36.893836      36.893836      36.893836    
 355000000   0.26007162    -8.1928606     -7.8027587      0.52366245     50218.233      36.893836      36.893836      36.893836    
 356000000   0.26054389    -8.1940636     -7.8032533      0.51857557     50218.233      36.893836      36.893836      36.893836    
 357000000   0.25935373    -8.1948259     -7.8058008      0.50655594     50218.233      36.893836      36.893836      36.893836    
 358000000   0.25905504    -8.1953704     -7.8067934      0.50437469     50218.233      36.893836      36.893836      36.893836    
 359000000   0.26075167    -8.1967441     -7.8056222      0.49118074     50218.233      36.893836      36.893836      36.893836    
 360000000   0.26003045    -8.1947577     -7.8047175      0.50701977     50218.233      36.893836      36.893836      36.893836    
 361000000   0.26150305    -8.1951009     -7.8028519      0.50787874     50218.233      36.893836      36.893836      36.893836    
 362000000   0.26049325    -8.1944525     -7.8037182      0.50692335     50218.233      36.893836      36.893836      36.893836    
 363000000   0.26111492    -8.1943444     -7.8026776      0.51161722     50218.233      36.893836      36.893836      36.893836    
 364000000   0.25917701    -8.1955427     -7.8067827      0.49351599     50218.233      36.893836      36.893836      36.893836    
 365000000   0.25886171    -8.1948993     -7.8066122      0.51502328     50218.233      36.893836      36.893836      36.893836    
 366000000   0.26117691    -8.1946044     -7.8028446      0.50524043     50218.233      36.893836      36.893836      36.893836    
 367000000   0.26009398    -8.1935682     -7.8034327      0.51117344     50218.233      36.893836      36.893836      36.893836    
 368000000   0.25883446    -8.1943468     -7.8061007      0.51040735     50218.233      36.893836      36.893836      36.893836    
 369000000   0.26003851    -8.1944204     -7.8043681      0.51658079     50218.233      36.893836      36.893836      36.893836    
 370000000   0.2578589     -8.1935667     -7.8067838      0.51748631     50218.233      36.893836      36.893836      36.893836    
 371000000   0.26119172    -8.1956093     -7.8038273      0.49967833     50218.233      36.893836      36.893836      36.893836    
 372000000   0.25948017    -8.1936901     -7.8044754      0.52158176     50218.233      36.893836      36.893836      36.893836    
 373000000   0.25981384    -8.1956482     -7.805933       0.50098899     50218.233      36.893836      36.893836      36.893836    
 374000000   0.25797353    -8.1923757     -7.8054209      0.52032443     50218.233      36.893836      36.893836      36.893836    
 375000000   0.25955891    -8.1920334     -7.8027005      0.51947426     50218.233      36.893836      36.893836      36.893836    
 376000000   0.25997951    -8.1951041     -7.8051404      0.50320881     50218.233      36.893836      36.893836      36.893836    
 377000000   0.26145248    -8.1919844     -7.7998112      0.52756207     50218.233      36.893836      36.893836      36.893836    
 378000000   0.25945622    -8.1930043     -7.8038255      0.52679092     50218.233      36.893836      36.893836      36.893836    
 379000000   0.25949825    -8.1935128     -7.8042709      0.51758067     50218.233      36.893836      36.893836      36.893836    
 380000000   0.26031174    -8.1950731     -7.804611       0.50809027     50218.233      36.893836      36.893836      36.893836    
 381000000   0.26131065    -8.1958202     -7.8038598      0.50590297     50218.233      36.893836      36.893836      36.893836    
 382000000   0.25923594    -8.1942019     -7.8053535      0.51028572     50218.233      36.893836      36.893836      36.893836    
 383000000   0.25809671    -8.1941309     -7.8069914      0.51054577     50218.233      36.893836      36.893836      36.893836    
 384000000   0.2592051     -8.1954003     -7.8065982      0.50725802     50218.233      36.893836      36.893836      36.893836    
 385000000   0.26119873    -8.1940024     -7.8022099      0.51727332     50218.233      36.893836      36.893836      36.893836    
 386000000   0.25990679    -8.1947053     -7.8048507      0.5104456      50218.233      36.893836      36.893836      36.893836    
 387000000   0.26082634    -8.1949984     -7.8037644      0.50938856     50218.233      36.893836      36.893836      36.893836    
 388000000   0.26059996    -8.1932427     -7.8023483      0.52668809     50218.233      36.893836      36.893836      36.893836    
 389000000   0.25968583    -8.1923512     -7.802828       0.53266321     50218.233      36.893836      36.893836      36.893836    
 390000000   0.25971644    -8.1980802     -7.8085111      0.48252711     50218.233      36.893836      36.893836      36.893836    
 391000000   0.25995487    -8.1956058     -7.805679       0.49736264     50218.233      36.893836      36.893836      36.893836    
 392000000   0.25945215    -8.1950973     -7.8059246      0.50093929     50218.233      36.893836      36.893836      36.893836    
 393000000   0.25995054    -8.1939783     -7.804058       0.52018848     50218.233      36.893836      36.893836      36.893836    
 394000000   0.25904496    -8.1955247     -7.8069627      0.49516166     50218.233      36.893836      36.893836      36.893836    
 395000000   0.25944261    -8.1946233     -7.8054649      0.50392124     50218.233      36.893836      36.893836      36.893836    
 396000000   0.25934441    -8.1958884     -7.8068773      0.49957114     50218.233      36.893836      36.893836      36.893836    
 397000000   0.26088841    -8.1919455     -7.8006184      0.53142215     50218.233      36.893836      36.893836      36.893836    
 398000000   0.26108614    -8.1949514     -7.8033278      0.5099634      50218.233      36.893836      36.893836      36.893836    
 399000000   0.25970621    -8.1934088     -7.803855       0.52229207     50218.233      36.893836      36.893836      36.893836    
 400000000   0.25825651    -8.1944974     -7.8071181      0.50608274     50218.233      36.893836      36.893836      36.893836    
 401000000   0.25899097    -8.1958238     -7.8073429      0.49328725     50218.233      36.893836      36.893836      36.893836    
 402000000   0.26034699    -8.1944317     -7.8039167      0.50187667     50218.233      36.893836      36.893836      36.893836    
 403000000   0.25928743    -8.1949891     -7.8060635      0.50061809     50218.233      36.893836      36.893836      36.893836    
 404000000   0.25963109    -8.1941292     -7.8046882      0.51991026     50218.233      36.893836      36.893836      36.893836    
 405000000   0.26067821    -8.1952454     -7.8042337      0.49859305     50218.233      36.893836      36.893836      36.893836    
 406000000   0.25966883    -8.1943134     -7.8048157      0.51526639     50218.233      36.893836      36.893836      36.893836    
 407000000   0.25949324    -8.1971126     -7.8078783      0.49370315     50218.233      36.893836      36.893836      36.893836    
 408000000   0.25895521    -8.1962993     -7.807872       0.4998166      50218.233      36.893836      36.893836      36.893836    
 409000000   0.25881338    -8.1959078     -7.8076933      0.49241665     50218.233      36.893836      36.893836      36.893836    
 410000000   0.26078178    -8.1949627     -7.8037956      0.50390429     50218.233      36.893836      36.893836      36.893836    
 411000000   0.2599955     -8.1948278     -7.8048401      0.50433124     50218.233      36.893836      36.893836      36.893836    
 412000000   0.2603325     -8.196231      -7.8057379      0.49147467     50218.233      36.893836      36.893836      36.893836    
 413000000   0.25971616    -8.194001      -7.8044323      0.5175145      50218.233      36.893836      36.893836      36.893836    
 414000000   0.25936493    -8.1936966     -7.8046547      0.52230806     50218.233      36.893836      36.893836      36.893836    
 415000000   0.25993637    -8.1917468     -7.8018478      0.5280249      50218.233      36.893836      36.893836      36.893836    
 416000000   0.25924239    -8.193443      -7.8045849      0.51507313     50218.233      36.893836      36.893836      36.893836    
 417000000   0.26100723    -8.1932574     -7.8017521      0.51885809     50218.233      36.893836      36.893836      36.893836    
 418000000   0.26018525    -8.1929833     -7.802711       0.52060341     50218.233      36.893836      36.893836      36.893836    
 419000000   0.25973208    -8.1934129     -7.8038203      0.51322072     50218.233      36.893836      36.893836      36.893836    
 420000000   0.26094512    -8.196059      -7.8046468      0.49878188     50218.233      36.893836      36.893836      36.893836    
 421000000   0.25870866    -8.1949159     -7.8068584      0.50227452     50218.233      36.893836      36.893836      36.893836    
 422000000   0.25950405    -8.1939424     -7.8046919      0.5147728      50218.233      36.893836      36.893836      36.893836    
 423000000   0.25912948    -8.1953941     -7.8067054      0.50012437     50218.233      36.893836      36.893836      36.893836    
 424000000   0.26030715    -8.1972381     -7.8067829      0.48933679     50218.233      36.893836      36.893836      36.893836    
 425000000   0.25976869    -8.1952166     -7.8055691      0.50906522     50218.233      36.893836      36.893836      36.893836    
 426000000   0.26135111    -8.1935032     -7.8014821      0.52847937     50218.233      36.893836      36.893836      36.893836    
 427000000   0.25938506    -8.1944039     -7.8053318      0.5101962      50218.233      36.893836      36.893836      36.893836    
 428000000   0.25950094    -8.196233      -7.8069872      0.50326484     50218.233      36.893836      36.893836      36.893836    
 429000000   0.25928364    -8.1950586     -7.8061386      0.50790145     50218.233      36.893836      36.893836      36.893836    
 430000000   0.2606155     -8.1937338     -7.8028161      0.51952138     50218.233      36.893836      36.893836      36.893836    
 431000000   0.26131834    -8.1952366     -7.8032647      0.50350217     50218.233      36.893836      36.893836      36.893836    
 432000000   0.25890692    -8.1941654     -7.8058106      0.51099048     50218.233      36.893836      36.893836      36.893836    
 433000000   0.26035073    -8.194163      -7.8036424      0.51532932     50218.233      36.893836      36.893836      36.893836    
 434000000   0.26005838    -8.1936489     -7.8035669      0.51959032     50218.233      36.893836      36.893836      36.893836    
 435000000   0.25949364    -8.1958612     -7.8066262      0.50124967     50218.233      36.893836      36.893836      36.893836    
 436000000   0.26058059    -8.1956465     -7.8047812      0.5033854      50218.233      36.893836      36.893836      36.893836    
 437000000   0.26163293    -8.1963717     -7.8039279      0.49916683     50218.233      36.893836      36.893836      36.893836    
 438000000   0.26122542    -8.1955582     -7.8037256      0.50221226     50218.233      36.893836      36.893836      36.893836    
 439000000   0.25891884    -8.1958558     -7.807483       0.49973079     50218.233      36.893836      36.893836      36.893836    
 440000000   0.25970533    -8.1947609     -7.8052084      0.51606788     50218.233      36.893836      36.893836      36.893836    
 441000000   0.2596824     -8.1939425     -7.8044245      0.51619262     50218.233      36.893836      36.893836      36.893836    
 442000000   0.25884264    -8.193038      -7.8047796      0.52380396     50218.233      36.893836      36.893836      36.893836    
 443000000   0.2601461     -8.1965195     -7.8063059      0.49434901     50218.233      36.893836      36.893836      36.893836    
 444000000   0.25944203    -8.1946234     -7.8054658      0.50427774     50218.233      36.893836      36.893836      36.893836    
 445000000   0.26085537    -8.194659      -7.8033815      0.5023129      50218.233      36.893836      36.893836      36.893836    
 446000000   0.26049484    -8.1942032     -7.8034665      0.51433348     50218.233      36.893836      36.893836      36.893836    
 447000000   0.25917229    -8.1949956     -7.8062427      0.50795148     50218.233      36.893836      36.893836      36.893836    
 448000000   0.25980925    -8.1945139     -7.8048056      0.50828168     50218.233      36.893836      36.893836      36.893836    
 449000000   0.26001412    -8.1961904     -7.8061748      0.49653948     50218.233      36.893836      36.893836      36.893836    
 450000000   0.26017681    -8.1967442     -7.8064846      0.50547718     50218.233      36.893836      36.893836      36.893836    
 451000000   0.2597087     -8.1959181     -7.8063606      0.49700205     50218.233      36.893836      36.893836      36.893836    
 452000000   0.25913079    -8.1956254     -7.8069347      0.5001063      50218.233      36.893836      36.893836      36.893836    
 453000000   0.25968427    -8.1973237     -7.8078028      0.49440007     50218.233      36.893836      36.893836      36.893836    
 454000000   0.26148229    -8.19477       -7.8025521      0.51084341     50218.233      36.893836      36.893836      36.893836    
 455000000   0.25974229    -8.1956936     -7.8060857      0.497323       50218.233      36.893836      36.893836      36.893836    
 456000000   0.25973883    -8.1957735     -7.8061707      0.49905301     50218.233      36.893836      36.893836      36.893836    
 457000000   0.26048727    -8.1949796     -7.8042543      0.50339251     50218.233      36.893836      36.893836      36.893836    
 458000000   0.26141256    -8.1937611     -7.8016479      0.52821652     50218.233      36.893836      36.893836      36.893836    
 459000000   0.2606371     -8.1961911     -7.805241       0.49792122     50218.233      36.893836      36.893836      36.893836    
 460000000   0.2593174     -8.1967913     -7.8078207      0.49472436     50218.233      36.893836      36.893836      36.893836    
 461000000   0.26058538    -8.1953453     -7.8044728      0.5041821      50218.233      36.893836      36.893836      36.893836    
 462000000   0.26047526    -8.1939253     -7.803218       0.51145272     50218.233      36.893836      36.893836      36.893836    
 463000000   0.25921101    -8.1958504     -7.8070394      0.49484821     50218.233      36.893836      36.893836      36.893836    
 464000000   0.26105354    -8.195369      -7.8037943      0.49625365     50218.233      36.893836      36.893836      36.893836    
 465000000   0.25993862    -8.1968322     -7.8069298      0.4909028      50218.233      36.893836      36.893836      36.893836    
 466000000   0.25998298    -8.1938274     -7.8038584      0.5169692      50218.233      36.893836      36.893836      36.893836    
 467000000   0.25899067    -8.1928593     -7.8043788      0.51489498     50218.233      36.893836      36.893836      36.893836    
 468000000   0.25999438    -8.1946629     -7.8046768      0.50901381     50218.233      36.893836      36.893836      36.893836    
 469000000   0.26146432    -8.1939624     -7.8017715      0.50879907     50218.233      36.893836      36.893836      36.893836    
 470000000   0.25899286    -8.1949137     -7.80643        0.50909968     50218.233      36.893836      36.893836      36.893836    
 471000000   0.26083162    -8.1943764     -7.8031345      0.51711688     50218.233      36.893836      36.893836      36.893836    
 472000000   0.25971725    -8.1935904     -7.80402        0.5149137      50218.233      36.893836      36.893836      36.893836    
 473000000   0.26069957    -8.1938949     -7.8028511      0.51177098     50218.233      36.893836      36.893836      36.893836    
 474000000   0.25866225    -8.194185      -7.8061971      0.50387401     50218.233      36.893836      36.893836      36.893836    
 475000000   0.25982748    -8.1948859     -7.8051503      0.49859487     50218.233      36.893836      36.893836      36.893836    
 476000000   0.25823903    -8.1948547     -7.8075016      0.50757473     50218.233      36.893836      36.893836      36.893836    
 477000000   0.25917676    -8.1944718     -7.8057122      0.5169762      50218.233      36.893836      36.893836      36.893836    
 478000000   0.26018411    -8.1938113     -7.8035407      0.5102572      50218.233      36.893836      36.893836      36.893836    
 479000000   0.26039823    -8.194338      -7.8037462      0.51130787     50218.233      36.893836      36.893836      36.893836    
 480000000   0.26087637    -8.1942641     -7.8029551      0.51533479     50218.233      36.893836      36.893836      36.893836    
 481000000   0.25889882    -8.1928567     -7.804514       0.52544832     50218.233      36.893836      36.893836      36.893836    
 482000000   0.25933898    -8.194052      -7.8050491      0.50605669     50218.233      36.893836      36.893836      36.893836    
 483000000   0.25996678    -8.1960201     -7.8060754      0.49132323     50218.233      36.893836      36.893836      36.893836    
 484000000   0.26029714    -8.1948918     -7.8044517      0.51067349     50218.233      36.893836      36.893836      36.893836    
 485000000   0.25997234    -8.1952554     -7.8053025      0.50260725     50218.233      36.893836      36.893836      36.893836    
 486000000   0.25970708    -8.1944191     -7.804864       0.51057732     50218.233      36.893836      36.893836      36.893836    
 487000000   0.26087968    -8.1953997     -7.8040858      0.51110667     50218.233      36.893836      36.893836      36.893836    
 488000000   0.25963715    -8.1953426     -7.8058924      0.50295632     50218.233      36.893836      36.893836      36.893836    
 489000000   0.26199827    -8.1948678     -7.801876       0.50398208     50218.233      36.893836      36.893836      36.893836    
 490000000   0.2601438     -8.1963216     -7.8061114      0.4947337      50218.233      36.893836      36.893836      36.893836    
 491000000   0.26003357    -8.195371      -7.8053262      0.50007185     50218.233      36.893836      36.893836      36.893836    
 492000000   0.26061375    -8.1959519     -7.8050368      0.5062426      50218.233      36.893836      36.893836      36.893836    
 493000000   0.26007615    -8.194897      -7.8047883      0.50843921     50218.233      36.893836      36.893836      36.893836    
 494000000   0.25906568    -8.1970699     -7.8084769      0.48204133     50218.233      36.893836      36.893836      36.893836    
 495000000   0.26025613    -8.1960566     -7.805678       0.49994703     50218.233      36.893836      36.893836      36.893836    
 496000000   0.25965823    -8.1966926     -7.8072108      0.48615622     50218.233      36.893836      36.893836      36.893836    
 497000000   0.25921022    -8.1946263     -7.8058165      0.50196652     50218.233      36.893836      36.893836      36.893836    
 498000000   0.25886921    -8.1946201     -7.8063218      0.50392563     50218.233      36.893836      36.893836      36.893836    
 499000000   0.2608053     -8.1959601     -7.8047578      0.50596163     50218.233      36.893836      36.893836      36.893836    
 500000000   0.260103      -8.1935455     -7.8033966      0.51491159     50218.233      36.893836      36.893836      36.893836    
Loop time of 752887 on 5 procs for 500000000 steps with 70304 atoms

Performance: 573791.433 tau/day, 664.110 timesteps/s, 46.690 Matom-step/s
94.8% CPU use with 5 MPI tasks x 1 OpenMP threads

MPI task timing breakdown:
Section |  min time  |  avg time  |  max time  |%varavg| %total
---------------------------------------------------------------
Pair    | 2.5614e+05 | 2.9809e+05 | 3.3519e+05 |4929.2 | 39.59
Neigh   | 1746.7     | 1828.5     | 2057.3     | 277.4 |  0.24
Comm    | 1.0558e+05 | 1.0665e+05 | 1.0822e+05 | 284.9 | 14.17
Output  | 0.090379   | 0.093631   | 0.099401   |   1.0 |  0.00
Modify  | 2.7032e+05 | 3.0889e+05 | 3.5228e+05 |4975.6 | 41.03
Other   |            | 3.743e+04  |            |       |  4.97

Nlocal:        14060.8 ave       14127 max       14012 min
Histogram: 2 0 0 1 0 0 0 1 0 1
Nghost:        18738.2 ave       18795 max       18680 min
Histogram: 1 0 1 0 1 0 0 0 1 1
Neighs:              0 ave           0 max           0 min
Histogram: 5 0 0 0 0 0 0 0 0 0

Total # of neighbors = 0
Ave neighs/atom = 0
Neighbor list builds = 75193950
Dangerous builds = 0
clear
OMP_NUM_THREADS environment is not set. Defaulting to 1 thread. (src/comm.cpp:98)
  using 1 OpenMP thread(s) per MPI task
package gpu 0
jump dms240.lmp

variable T equal 240
# T = 1000* (temp in LJ unit)
variable f equal 1000000
log log.${T}
log log.240
