variable TLJ equal (${T}/1000)
variable TLJ equal (340/1000)
variable NCyle equal 5
variable iStep equal (${f})
variable iStep equal (1000000)
variable dumpStep equal (${f}*100)
variable dumpStep equal (1000000*100)
variable runStep equal (${f}*100*${NCyle})
variable runStep equal (1000000*100*${NCyle})
variable runStep equal (1000000*100*5)

units       lj
atom_style  atomic
dimension 3
boundary     p p p
pair_style  lj/cut 2.5
read_data  ../data/T${T}.dat
read_data  ../data/T340.dat
Reading data file ...
  orthogonal box = (0.97250269 0.97250269 0.97250269) to (37.866338 37.866338 37.866338)
  1 by 1 by 5 MPI processor grid
  reading atoms ...
  70304 atoms
  reading velocities ...
  70304 velocities
  read_data CPU = 0.271 seconds
change_box all triclinic
Changing box ...
  triclinic box = (0.97250269 0.97250269 0.97250269) to (37.866338 37.866338 37.866338) with tilt (0 0 0)
mass 1 1
mass 2 1
pair_modify shift yes
pair_coeff  1 1 1 1
pair_coeff  1 2 1.5 0.8
pair_coeff  2 2 0.5 0.88


timestep 0.01
thermo ${iStep}
thermo 1000000
reset_timestep 0
thermo_style custom step temp pe etotal press vol lx ly lz
fix             1 all nvt temp ${TLJ}  ${TLJ}  0.1
fix             1 all nvt temp 0.34  ${TLJ}  0.1
fix             1 all nvt temp 0.34  0.34  0.1
thermo_modify flush yes

fix dsf all deform 1 xy  wiggle 0.5  ${f}   units box
fix dsf all deform 1 xy  wiggle 0.5  1000000   units box
fix ps1 all ave/time 1 1 ${iStep} c_thermo_press[1] c_thermo_press[2]  c_thermo_press[3] c_thermo_press[4]  c_thermo_press[5] c_thermo_press[6]  file  stress.${T}
fix ps1 all ave/time 1 1 1000000 c_thermo_press[1] c_thermo_press[2]  c_thermo_press[3] c_thermo_press[4]  c_thermo_press[5] c_thermo_press[6]  file  stress.${T}
fix ps1 all ave/time 1 1 1000000 c_thermo_press[1] c_thermo_press[2]  c_thermo_press[3] c_thermo_press[4]  c_thermo_press[5] c_thermo_press[6]  file  stress.340
dump            1 all custom ${dumpStep} dump.${T} id type x y z
dump            1 all custom 100000000 dump.${T} id type x y z
dump            1 all custom 100000000 dump.340 id type x y z
dump_modify 1 sort id
fix nodrift all momentum 1  linear 1 1 1
fix com_seed all recenter INIT INIT INIT shift all
run ${runStep}
run 500000000
Generated 0 of 1 mixed pair_coeff terms from geometric mixing rule
Per MPI rank memory allocation (min/avg/max) = 6.666 | 8.467 | 8.92 Mbytes
   Step          Temp          PotEng         TotEng         Press          Volume           Lx             Ly             Lz      
         0   0.33992576    -8.0851126     -7.5752312      1.4377135      50218.233      36.893836      36.893836      36.893836    
   1000000   0.33902847    -8.0786017     -7.5700662      1.4848445      50218.233      36.893836      36.893836      36.893836    
   2000000   0.33993849    -8.0794763     -7.5695759      1.4808612      50218.233      36.893836      36.893836      36.893836    
   3000000   0.3395839     -8.0780095     -7.5686409      1.488032       50218.233      36.893836      36.893836      36.893836    
   4000000   0.33879569    -8.0781369     -7.5699506      1.4825549      50218.233      36.893836      36.893836      36.893836    
   5000000   0.34046872    -8.0781955     -7.5674997      1.4906711      50218.233      36.893836      36.893836      36.893836    
   6000000   0.34035452    -8.07655       -7.5660255      1.4899645      50218.233      36.893836      36.893836      36.893836    
   7000000   0.34093112    -8.0768761     -7.5654866      1.4915072      50218.233      36.893836      36.893836      36.893836    
   8000000   0.33985441    -8.0766856     -7.5669113      1.4997034      50218.233      36.893836      36.893836      36.893836    
   9000000   0.33843102    -8.0779621     -7.5703228      1.4842475      50218.233      36.893836      36.893836      36.893836    
  10000000   0.33915524    -8.0774546     -7.5687289      1.4887305      50218.233      36.893836      36.893836      36.893836    
  11000000   0.34020269    -8.0768373     -7.5665405      1.5013895      50218.233      36.893836      36.893836      36.893836    
  12000000   0.34008585    -8.0797404     -7.5696189      1.4833325      50218.233      36.893836      36.893836      36.893836    
  13000000   0.34011462    -8.0783439     -7.5681793      1.47836        50218.233      36.893836      36.893836      36.893836    
  14000000   0.34105121    -8.0794741     -7.5679045      1.4897635      50218.233      36.893836      36.893836      36.893836    
  15000000   0.33895896    -8.0771646     -7.5687334      1.4898569      50218.233      36.893836      36.893836      36.893836    
  16000000   0.34115237    -8.0778519     -7.5661307      1.4884125      50218.233      36.893836      36.893836      36.893836    
  17000000   0.33854451    -8.0780189     -7.5702094      1.4840515      50218.233      36.893836      36.893836      36.893836    
  18000000   0.34138083    -8.0773439     -7.56528        1.5024187      50218.233      36.893836      36.893836      36.893836    
  19000000   0.33810802    -8.0781038     -7.5709489      1.4882995      50218.233      36.893836      36.893836      36.893836    
  20000000   0.33863364    -8.0756426     -7.5676994      1.5186201      50218.233      36.893836      36.893836      36.893836    
  21000000   0.3415268     -8.0806972     -7.5684143      1.4682748      50218.233      36.893836      36.893836      36.893836    
  22000000   0.33968334    -8.0769791     -7.5674614      1.50253        50218.233      36.893836      36.893836      36.893836    
  23000000   0.33942581    -8.0765355     -7.5674041      1.491265       50218.233      36.893836      36.893836      36.893836    
  24000000   0.34072812    -8.0758304     -7.5647455      1.5039389      50218.233      36.893836      36.893836      36.893836    
  25000000   0.34282766    -8.0770912     -7.562857       1.5008181      50218.233      36.893836      36.893836      36.893836    
  26000000   0.33813455    -8.0794809     -7.5722863      1.478158       50218.233      36.893836      36.893836      36.893836    
  27000000   0.33947976    -8.0770747     -7.5678623      1.490289       50218.233      36.893836      36.893836      36.893836    
  28000000   0.33912692    -8.0762679     -7.5675848      1.5030078      50218.233      36.893836      36.893836      36.893836    
  29000000   0.33769944    -8.078119      -7.5715771      1.4782305      50218.233      36.893836      36.893836      36.893836    
  30000000   0.33976042    -8.0765668     -7.5669334      1.505802       50218.233      36.893836      36.893836      36.893836    
  31000000   0.34021473    -8.0787129     -7.5683981      1.4771993      50218.233      36.893836      36.893836      36.893836    
  32000000   0.33828812    -8.0759503     -7.5685253      1.5053552      50218.233      36.893836      36.893836      36.893836    
  33000000   0.34120003    -8.0730909     -7.5612981      1.5315562      50218.233      36.893836      36.893836      36.893836    
  34000000   0.3389653     -8.0775651     -7.5691244      1.4945513      50218.233      36.893836      36.893836      36.893836    
  35000000   0.33911435    -8.0751454     -7.5664811      1.5057037      50218.233      36.893836      36.893836      36.893836    
  36000000   0.33927021    -8.0741503     -7.5652522      1.5154482      50218.233      36.893836      36.893836      36.893836    
  37000000   0.33988007    -8.0771992     -7.5673863      1.4911908      50218.233      36.893836      36.893836      36.893836    
  38000000   0.34244992    -8.0786712     -7.5650036      1.4864903      50218.233      36.893836      36.893836      36.893836    
  39000000   0.33923677    -8.0798882     -7.5710403      1.4689207      50218.233      36.893836      36.893836      36.893836    
  40000000   0.33936717    -8.0829812     -7.5739377      1.4475367      50218.233      36.893836      36.893836      36.893836    
  41000000   0.34019332    -8.0764743     -7.5661916      1.5046155      50218.233      36.893836      36.893836      36.893836    
  42000000   0.3392844     -8.0750933     -7.566174       1.5102891      50218.233      36.893836      36.893836      36.893836    
  43000000   0.34188005    -8.0768873     -7.5640745      1.5016374      50218.233      36.893836      36.893836      36.893836    
  44000000   0.34122128    -8.0770354     -7.5652107      1.495436       50218.233      36.893836      36.893836      36.893836    
  45000000   0.33875952    -8.0809563     -7.5728242      1.4642027      50218.233      36.893836      36.893836      36.893836    
  46000000   0.33878327    -8.079035      -7.5708674      1.4772767      50218.233      36.893836      36.893836      36.893836    
  47000000   0.34040575    -8.0805852     -7.5699838      1.4713265      50218.233      36.893836      36.893836      36.893836    
  48000000   0.33909371    -8.0802073     -7.571574       1.463942       50218.233      36.893836      36.893836      36.893836    
  49000000   0.33984299    -8.0784588     -7.5687015      1.4824237      50218.233      36.893836      36.893836      36.893836    
  50000000   0.34083492    -8.079364      -7.5681189      1.484661       50218.233      36.893836      36.893836      36.893836    
  51000000   0.34113323    -8.0779829     -7.5662904      1.4868676      50218.233      36.893836      36.893836      36.893836    
  52000000   0.34015369    -8.0789829     -7.5687596      1.4781232      50218.233      36.893836      36.893836      36.893836    
  53000000   0.34095281    -8.0791437     -7.5677218      1.4803832      50218.233      36.893836      36.893836      36.893836    
  54000000   0.3400468     -8.0797613     -7.5696984      1.4656559      50218.233      36.893836      36.893836      36.893836    
  55000000   0.34044554    -8.0758491     -7.565188       1.4923743      50218.233      36.893836      36.893836      36.893836    
  56000000   0.33976758    -8.0785112     -7.5688671      1.4707055      50218.233      36.893836      36.893836      36.893836    
  57000000   0.33866125    -8.0798912     -7.5719066      1.4737759      50218.233      36.893836      36.893836      36.893836    
  58000000   0.33985079    -8.0770247     -7.5672558      1.491211       50218.233      36.893836      36.893836      36.893836    
  59000000   0.34222254    -8.0791974     -7.5658709      1.4779805      50218.233      36.893836      36.893836      36.893836    
  60000000   0.3390311     -8.0800588     -7.5715194      1.4648223      50218.233      36.893836      36.893836      36.893836    
  61000000   0.33948015    -8.0808911     -7.5716781      1.4752728      50218.233      36.893836      36.893836      36.893836    
  62000000   0.34104838    -8.0777764     -7.5662111      1.4882557      50218.233      36.893836      36.893836      36.893836    
  63000000   0.33954607    -8.0773886     -7.5680768      1.4986116      50218.233      36.893836      36.893836      36.893836    
  64000000   0.33898405    -8.0776257     -7.5691569      1.4961417      50218.233      36.893836      36.893836      36.893836    
  65000000   0.33953194    -8.0769148     -7.5676241      1.488805       50218.233      36.893836      36.893836      36.893836    
  66000000   0.33877347    -8.0775381     -7.5693851      1.4891981      50218.233      36.893836      36.893836      36.893836    
  67000000   0.34036054    -8.078858      -7.5683244      1.4772442      50218.233      36.893836      36.893836      36.893836    
  68000000   0.34182344    -8.0745565     -7.5618287      1.5178889      50218.233      36.893836      36.893836      36.893836    
  69000000   0.33900298    -8.0764421     -7.5679448      1.5031793      50218.233      36.893836      36.893836      36.893836    
  70000000   0.34027933    -8.0784871     -7.5680753      1.47718        50218.233      36.893836      36.893836      36.893836    
  71000000   0.34019569    -8.0773757     -7.5670894      1.4972751      50218.233      36.893836      36.893836      36.893836    
  72000000   0.33800967    -8.0767379     -7.5697306      1.5001414      50218.233      36.893836      36.893836      36.893836    
  73000000   0.34062932    -8.0785663     -7.5676296      1.4825783      50218.233      36.893836      36.893836      36.893836    
  74000000   0.33988532    -8.0764229     -7.5666022      1.5028209      50218.233      36.893836      36.893836      36.893836    
  75000000   0.33936577    -8.0794052     -7.5703638      1.4767022      50218.233      36.893836      36.893836      36.893836    
  76000000   0.34023633    -8.0770427     -7.5666955      1.4950974      50218.233      36.893836      36.893836      36.893836    
  77000000   0.34091315    -8.0781806     -7.5668182      1.4848893      50218.233      36.893836      36.893836      36.893836    
  78000000   0.34216209    -8.0784394     -7.5652036      1.4890602      50218.233      36.893836      36.893836      36.893836    
  79000000   0.34162822    -8.0778998     -7.5654648      1.4900646      50218.233      36.893836      36.893836      36.893836    
  80000000   0.34031193    -8.0790954     -7.5686348      1.4821162      50218.233      36.893836      36.893836      36.893836    
  81000000   0.34050072    -8.0778623     -7.5671185      1.4838401      50218.233      36.893836      36.893836      36.893836    
  82000000   0.3392213     -8.0774372     -7.5686125      1.4903062      50218.233      36.893836      36.893836      36.893836    
  83000000   0.34095272    -8.0777922     -7.5663704      1.495246       50218.233      36.893836      36.893836      36.893836    
  84000000   0.33964682    -8.0798168     -7.5703538      1.4750268      50218.233      36.893836      36.893836      36.893836    
  85000000   0.33814909    -8.0770477     -7.5698313      1.4888422      50218.233      36.893836      36.893836      36.893836    
  86000000   0.33967545    -8.0794472     -7.5699412      1.4848004      50218.233      36.893836      36.893836      36.893836    
  87000000   0.34131623    -8.0805651     -7.568598       1.4771497      50218.233      36.893836      36.893836      36.893836    
  88000000   0.34004712    -8.0781567     -7.5680933      1.4908376      50218.233      36.893836      36.893836      36.893836    
  89000000   0.33835623    -8.0799208     -7.5723937      1.4743357      50218.233      36.893836      36.893836      36.893836    
  90000000   0.33959298    -8.0792031     -7.5698209      1.4736521      50218.233      36.893836      36.893836      36.893836    
  91000000   0.33963753    -8.0783289     -7.5688799      1.4937851      50218.233      36.893836      36.893836      36.893836    
  92000000   0.3392064     -8.079562      -7.5707596      1.4743658      50218.233      36.893836      36.893836      36.893836    
  93000000   0.33948247    -8.081143      -7.5719265      1.4586664      50218.233      36.893836      36.893836      36.893836    
  94000000   0.33966864    -8.0806997     -7.5712039      1.4657603      50218.233      36.893836      36.893836      36.893836    
  95000000   0.33988376    -8.0784668     -7.5686484      1.4806227      50218.233      36.893836      36.893836      36.893836    
  96000000   0.33993619    -8.0801819     -7.5702849      1.4640969      50218.233      36.893836      36.893836      36.893836    
  97000000   0.33987377    -8.0814747     -7.5716713      1.4566077      50218.233      36.893836      36.893836      36.893836    
  98000000   0.33674209    -8.0815327     -7.5764268      1.4598563      50218.233      36.893836      36.893836      36.893836    
  99000000   0.34014236    -8.0819272     -7.5717209      1.470003       50218.233      36.893836      36.893836      36.893836    
 100000000   0.3401835     -8.0783194     -7.5680514      1.4859054      50218.233      36.893836      36.893836      36.893836    
 101000000   0.33961676    -8.0816106     -7.5721927      1.4579043      50218.233      36.893836      36.893836      36.893836    
 102000000   0.3386128     -8.0804795     -7.5725676      1.4640897      50218.233      36.893836      36.893836      36.893836    
 103000000   0.34056179    -8.07879       -7.5679546      1.4854965      50218.233      36.893836      36.893836      36.893836    
 104000000   0.34044884    -8.078748      -7.568082       1.4725205      50218.233      36.893836      36.893836      36.893836    
 105000000   0.33811782    -8.0808144     -7.5736449      1.4641248      50218.233      36.893836      36.893836      36.893836    
 106000000   0.34083216    -8.0815215     -7.5702805      1.4577436      50218.233      36.893836      36.893836      36.893836    
 107000000   0.34040367    -8.0825743     -7.571976       1.4466283      50218.233      36.893836      36.893836      36.893836    
 108000000   0.34015473    -8.0822073     -7.5719824      1.4589659      50218.233      36.893836      36.893836      36.893836    
 109000000   0.33944385    -8.0787049     -7.5695464      1.4853898      50218.233      36.893836      36.893836      36.893836    
 110000000   0.34114797    -8.0809729     -7.5692583      1.4597741      50218.233      36.893836      36.893836      36.893836    
 111000000   0.34091928    -8.0816659     -7.5702943      1.461258       50218.233      36.893836      36.893836      36.893836    
 112000000   0.33977125    -8.0787121     -7.5690625      1.4893134      50218.233      36.893836      36.893836      36.893836    
 113000000   0.33820911    -8.0796998     -7.5723933      1.4781681      50218.233      36.893836      36.893836      36.893836    
 114000000   0.33782061    -8.0811376     -7.5744138      1.4587381      50218.233      36.893836      36.893836      36.893836    
 115000000   0.33873915    -8.080949      -7.5728475      1.4638987      50218.233      36.893836      36.893836      36.893836    
 116000000   0.34012634    -8.0791266     -7.5689444      1.4830917      50218.233      36.893836      36.893836      36.893836    
 117000000   0.34043932    -8.0791612     -7.5685095      1.4773475      50218.233      36.893836      36.893836      36.893836    
 118000000   0.33903838    -8.0799192     -7.5713688      1.4742324      50218.233      36.893836      36.893836      36.893836    
 119000000   0.3413026     -8.0813054     -7.5693587      1.4703858      50218.233      36.893836      36.893836      36.893836    
 120000000   0.33843282    -8.0788733     -7.5712313      1.4787442      50218.233      36.893836      36.893836      36.893836    
 121000000   0.34008368    -8.0784503     -7.568332       1.4896574      50218.233      36.893836      36.893836      36.893836    
 122000000   0.3409865     -8.0786332     -7.5671607      1.4725186      50218.233      36.893836      36.893836      36.893836    
 123000000   0.33805426    -8.0792263     -7.5721521      1.4767866      50218.233      36.893836      36.893836      36.893836    
 124000000   0.33964705    -8.0783129     -7.5688496      1.4861566      50218.233      36.893836      36.893836      36.893836    
 125000000   0.33986324    -8.077389      -7.5676014      1.4858073      50218.233      36.893836      36.893836      36.893836    
 126000000   0.34123576    -8.0797137     -7.5678673      1.4754625      50218.233      36.893836      36.893836      36.893836    
 127000000   0.33954886    -8.0813494     -7.5720333      1.4611872      50218.233      36.893836      36.893836      36.893836    
 128000000   0.34186134    -8.0824338     -7.5696491      1.4562631      50218.233      36.893836      36.893836      36.893836    
 129000000   0.340746      -8.0753763     -7.5642646      1.5065088      50218.233      36.893836      36.893836      36.893836    
 130000000   0.34093746    -8.0789608     -7.5675619      1.4804127      50218.233      36.893836      36.893836      36.893836    
 131000000   0.33966241    -8.0747494     -7.5652631      1.5102135      50218.233      36.893836      36.893836      36.893836    
 132000000   0.33954199    -8.0803188     -7.5710131      1.4611274      50218.233      36.893836      36.893836      36.893836    
 133000000   0.33841167    -8.0803649     -7.5727546      1.4681354      50218.233      36.893836      36.893836      36.893836    
 134000000   0.33905931    -8.0811756     -7.5725939      1.4588194      50218.233      36.893836      36.893836      36.893836    
 135000000   0.34140483    -8.0817376     -7.5696376      1.4693243      50218.233      36.893836      36.893836      36.893836    
 136000000   0.33984734    -8.0787494     -7.5689856      1.4724725      50218.233      36.893836      36.893836      36.893836    
 137000000   0.34112735    -8.0824312     -7.5707475      1.4608579      50218.233      36.893836      36.893836      36.893836    
 138000000   0.33925663    -8.0823991     -7.5735214      1.4517247      50218.233      36.893836      36.893836      36.893836    
 139000000   0.34207484    -8.0778264     -7.5647215      1.4854909      50218.233      36.893836      36.893836      36.893836    
 140000000   0.33959616    -8.0788027     -7.5694157      1.4854758      50218.233      36.893836      36.893836      36.893836    
 141000000   0.34197767    -8.079437      -7.5664778      1.4784574      50218.233      36.893836      36.893836      36.893836    
 142000000   0.34142192    -8.0791487     -7.5670231      1.4740128      50218.233      36.893836      36.893836      36.893836    
 143000000   0.33958271    -8.0813353     -7.5719685      1.4573171      50218.233      36.893836      36.893836      36.893836    
 144000000   0.34050689    -8.0817478     -7.5709947      1.4680646      50218.233      36.893836      36.893836      36.893836    
 145000000   0.34101436    -8.0850098     -7.5734955      1.4292971      50218.233      36.893836      36.893836      36.893836    
 146000000   0.33982235    -8.0812319     -7.5715056      1.4542665      50218.233      36.893836      36.893836      36.893836    
 147000000   0.34039027    -8.0792404     -7.5686622      1.4889991      50218.233      36.893836      36.893836      36.893836    
 148000000   0.33887208    -8.0772817     -7.5689808      1.4968219      50218.233      36.893836      36.893836      36.893836    
 149000000   0.33934713    -8.0798826     -7.5708692      1.4694543      50218.233      36.893836      36.893836      36.893836    
 150000000   0.34141282    -8.0779068     -7.5657948      1.4938191      50218.233      36.893836      36.893836      36.893836    
 151000000   0.34012117    -8.0796614     -7.5694869      1.4814492      50218.233      36.893836      36.893836      36.893836    
 152000000   0.34164817    -8.0852094     -7.5727445      1.4293858      50218.233      36.893836      36.893836      36.893836    
 153000000   0.33931318    -8.0809066     -7.5719441      1.4642494      50218.233      36.893836      36.893836      36.893836    
 154000000   0.3401343     -8.0816376     -7.5714434      1.4577877      50218.233      36.893836      36.893836      36.893836    
 155000000   0.34033047    -8.080087      -7.5695985      1.4672346      50218.233      36.893836      36.893836      36.893836    
 156000000   0.33923529    -8.0784793     -7.5696336      1.4853449      50218.233      36.893836      36.893836      36.893836    
 157000000   0.34045109    -8.0792867     -7.5686173      1.4786601      50218.233      36.893836      36.893836      36.893836    
 158000000   0.33954615    -8.0799133     -7.5706014      1.4687711      50218.233      36.893836      36.893836      36.893836    
 159000000   0.33990423    -8.0813564     -7.5715073      1.4619976      50218.233      36.893836      36.893836      36.893836    
 160000000   0.34044654    -8.0787899     -7.5681274      1.4697012      50218.233      36.893836      36.893836      36.893836    
 161000000   0.33895139    -8.0795972     -7.5711774      1.4833479      50218.233      36.893836      36.893836      36.893836    
 162000000   0.33905501    -8.0813479     -7.5727726      1.455815       50218.233      36.893836      36.893836      36.893836    
 163000000   0.3405183     -8.0772996     -7.5665295      1.5009447      50218.233      36.893836      36.893836      36.893836    
 164000000   0.33978302    -8.0791694     -7.5695021      1.4769779      50218.233      36.893836      36.893836      36.893836    
 165000000   0.33886083    -8.0781288     -7.5698448      1.4820118      50218.233      36.893836      36.893836      36.893836    
 166000000   0.33881023    -8.0810152     -7.5728071      1.454074       50218.233      36.893836      36.893836      36.893836    
 167000000   0.34099096    -8.0809625     -7.5694834      1.4618715      50218.233      36.893836      36.893836      36.893836    
 168000000   0.33963727    -8.079813      -7.5703644      1.4823588      50218.233      36.893836      36.893836      36.893836    
 169000000   0.34026245    -8.0811594     -7.570773       1.4582245      50218.233      36.893836      36.893836      36.893836    
 170000000   0.33893174    -8.0792615     -7.5708711      1.4804522      50218.233      36.893836      36.893836      36.893836    
 171000000   0.34035657    -8.0794393     -7.5689117      1.4738249      50218.233      36.893836      36.893836      36.893836    
 172000000   0.3411376     -8.0811845     -7.5694854      1.4670492      50218.233      36.893836      36.893836      36.893836    
 173000000   0.33917106    -8.0794868     -7.5707374      1.4724165      50218.233      36.893836      36.893836      36.893836    
 174000000   0.34071657    -8.0802849     -7.5692173      1.4740656      50218.233      36.893836      36.893836      36.893836    
 175000000   0.33943602    -8.0794867     -7.57034        1.4683178      50218.233      36.893836      36.893836      36.893836    
 176000000   0.33879527    -8.0767376     -7.5685519      1.49325        50218.233      36.893836      36.893836      36.893836    
 177000000   0.339959      -8.0760819     -7.5661506      1.4872589      50218.233      36.893836      36.893836      36.893836    
 178000000   0.33935754    -8.0817106     -7.5726815      1.4573547      50218.233      36.893836      36.893836      36.893836    
 179000000   0.33988386    -8.0829048     -7.5730863      1.4477451      50218.233      36.893836      36.893836      36.893836    
 180000000   0.34057527    -8.0773935     -7.5665379      1.4949228      50218.233      36.893836      36.893836      36.893836    
 181000000   0.33921402    -8.0800182     -7.5712044      1.4711161      50218.233      36.893836      36.893836      36.893836    
 182000000   0.33949533    -8.07928       -7.5700442      1.4702687      50218.233      36.893836      36.893836      36.893836    
 183000000   0.34032338    -8.0795962     -7.5691184      1.4800853      50218.233      36.893836      36.893836      36.893836    
 184000000   0.33996849    -8.0832531     -7.5733076      1.4512442      50218.233      36.893836      36.893836      36.893836    
 185000000   0.34063023    -8.0794926     -7.5685545      1.4769855      50218.233      36.893836      36.893836      36.893836    
 186000000   0.3398901     -8.0811533     -7.5713254      1.4585446      50218.233      36.893836      36.893836      36.893836    
 187000000   0.34077496    -8.0795603     -7.5684051      1.475582       50218.233      36.893836      36.893836      36.893836    
 188000000   0.33808787    -8.0808202     -7.5736956      1.4631848      50218.233      36.893836      36.893836      36.893836    
 189000000   0.33981447    -8.0828863     -7.5731718      1.4561855      50218.233      36.893836      36.893836      36.893836    
 190000000   0.34069911    -8.0815572     -7.5705158      1.4618303      50218.233      36.893836      36.893836      36.893836    
 191000000   0.33956112    -8.0786483     -7.5693139      1.4793832      50218.233      36.893836      36.893836      36.893836    
 192000000   0.34027813    -8.0820235     -7.5716135      1.4603178      50218.233      36.893836      36.893836      36.893836    
 193000000   0.34200553    -8.0789833     -7.5659823      1.4766087      50218.233      36.893836      36.893836      36.893836    
 194000000   0.33928991    -8.0849576     -7.5760299      1.4363576      50218.233      36.893836      36.893836      36.893836    
 195000000   0.34015969    -8.0816991     -7.5714668      1.467872       50218.233      36.893836      36.893836      36.893836    
 196000000   0.34021596    -8.0805191     -7.5702024      1.462025       50218.233      36.893836      36.893836      36.893836    
 197000000   0.34066171    -8.0837029     -7.5727176      1.4364001      50218.233      36.893836      36.893836      36.893836    
 198000000   0.33965794    -8.0800122     -7.5705325      1.4700274      50218.233      36.893836      36.893836      36.893836    
 199000000   0.33942657    -8.0815266     -7.572394       1.4533469      50218.233      36.893836      36.893836      36.893836    
 200000000   0.33985806    -8.0802425     -7.5704627      1.462852       50218.233      36.893836      36.893836      36.893836    
 201000000   0.33996574    -8.0819546     -7.5720132      1.4533892      50218.233      36.893836      36.893836      36.893836    
 202000000   0.33887926    -8.0829786     -7.5746669      1.4514525      50218.233      36.893836      36.893836      36.893836    
 203000000   0.34088127    -8.0815076     -7.570193       1.4625828      50218.233      36.893836      36.893836      36.893836    
 204000000   0.33926721    -8.08358       -7.5746865      1.4455216      50218.233      36.893836      36.893836      36.893836    
 205000000   0.33979846    -8.0803377     -7.5706473      1.4761223      50218.233      36.893836      36.893836      36.893836    
 206000000   0.34049121    -8.0826573     -7.5719277      1.4566898      50218.233      36.893836      36.893836      36.893836    
 207000000   0.34032358    -8.0804951     -7.570017       1.4683579      50218.233      36.893836      36.893836      36.893836    
 208000000   0.33807073    -8.0799776     -7.5728787      1.4724327      50218.233      36.893836      36.893836      36.893836    
 209000000   0.34068361    -8.0792437     -7.5682255      1.4768422      50218.233      36.893836      36.893836      36.893836    
 210000000   0.33988568    -8.0824901     -7.5726688      1.4644067      50218.233      36.893836      36.893836      36.893836    
 211000000   0.33988419    -8.0843257     -7.5745066      1.4374747      50218.233      36.893836      36.893836      36.893836    
 212000000   0.33910667    -8.0792973     -7.5706445      1.4726711      50218.233      36.893836      36.893836      36.893836    
 213000000   0.33943919    -8.0826333     -7.5734818      1.4576768      50218.233      36.893836      36.893836      36.893836    
 214000000   0.34097583    -8.0828646     -7.5714081      1.4514998      50218.233      36.893836      36.893836      36.893836    
 215000000   0.33973977    -8.0806581     -7.5710557      1.4776575      50218.233      36.893836      36.893836      36.893836    
 216000000   0.33988992    -8.0800659     -7.5702383      1.4857839      50218.233      36.893836      36.893836      36.893836    
 217000000   0.34036204    -8.0837217     -7.5731859      1.4594898      50218.233      36.893836      36.893836      36.893836    
 218000000   0.33920832    -8.0818863     -7.573081       1.4525719      50218.233      36.893836      36.893836      36.893836    
 219000000   0.34018302    -8.0815208     -7.5712536      1.469359       50218.233      36.893836      36.893836      36.893836    
 220000000   0.34019092    -8.0817376     -7.5714584      1.4612507      50218.233      36.893836      36.893836      36.893836    
 221000000   0.34042833    -8.0828027     -7.5721675      1.4581434      50218.233      36.893836      36.893836      36.893836    
 222000000   0.34051164    -8.0786644     -7.5679042      1.4843108      50218.233      36.893836      36.893836      36.893836    
 223000000   0.338434      -8.0807055     -7.5730617      1.4622786      50218.233      36.893836      36.893836      36.893836    
 224000000   0.33799588    -8.0790205     -7.5720339      1.4827608      50218.233      36.893836      36.893836      36.893836    
 225000000   0.33879591    -8.082506      -7.5743194      1.4564525      50218.233      36.893836      36.893836      36.893836    
 226000000   0.3397918     -8.0834403     -7.5737599      1.4513657      50218.233      36.893836      36.893836      36.893836    
 227000000   0.34049457    -8.0815626     -7.570828       1.4644407      50218.233      36.893836      36.893836      36.893836    
 228000000   0.338676      -8.0816598     -7.573653       1.4553361      50218.233      36.893836      36.893836      36.893836    
 229000000   0.33972223    -8.0782397     -7.5686636      1.4848231      50218.233      36.893836      36.893836      36.893836    
 230000000   0.34089129    -8.0837835     -7.5724538      1.4480105      50218.233      36.893836      36.893836      36.893836    
 231000000   0.34035376    -8.0791687     -7.5686453      1.49034        50218.233      36.893836      36.893836      36.893836    
 232000000   0.34020447    -8.0791256     -7.5688261      1.4771118      50218.233      36.893836      36.893836      36.893836    
 233000000   0.34013283    -8.0802972     -7.5701053      1.4785348      50218.233      36.893836      36.893836      36.893836    
 234000000   0.34111925    -8.0824556     -7.570784       1.4524991      50218.233      36.893836      36.893836      36.893836    
 235000000   0.33887823    -8.0825895     -7.5742794      1.4498674      50218.233      36.893836      36.893836      36.893836    
 236000000   0.34016483    -8.0798428     -7.5696028      1.4709086      50218.233      36.893836      36.893836      36.893836    
 237000000   0.34074951    -8.0814612     -7.5703442      1.4619925      50218.233      36.893836      36.893836      36.893836    
 238000000   0.3386529     -8.0808321     -7.5728599      1.4673636      50218.233      36.893836      36.893836      36.893836    
 239000000   0.34003846    -8.0824667     -7.5724163      1.4583704      50218.233      36.893836      36.893836      36.893836    
 240000000   0.34073452    -8.0789495     -7.567855       1.4871165      50218.233      36.893836      36.893836      36.893836    
 241000000   0.34087015    -8.0831665     -7.5718685      1.4529273      50218.233      36.893836      36.893836      36.893836    
 242000000   0.34046006    -8.0787408     -7.568058       1.4838791      50218.233      36.893836      36.893836      36.893836    
 243000000   0.33981215    -8.0830465     -7.5733355      1.4451204      50218.233      36.893836      36.893836      36.893836    
 244000000   0.33910696    -8.0818428     -7.5731896      1.457964       50218.233      36.893836      36.893836      36.893836    
 245000000   0.33833987    -8.0817667     -7.5742641      1.4667574      50218.233      36.893836      36.893836      36.893836    
 246000000   0.33974838    -8.0847918     -7.5751765      1.4315557      50218.233      36.893836      36.893836      36.893836    
 247000000   0.34201928    -8.0816131     -7.5685914      1.46747        50218.233      36.893836      36.893836      36.893836    
 248000000   0.34053658    -8.0825421     -7.5717445      1.4602979      50218.233      36.893836      36.893836      36.893836    
 249000000   0.33887993    -8.0808224     -7.5725097      1.4629864      50218.233      36.893836      36.893836      36.893836    
 250000000   0.33850774    -8.0831317     -7.5753773      1.4531638      50218.233      36.893836      36.893836      36.893836    
 251000000   0.33973446    -8.0814967     -7.5719023      1.4704757      50218.233      36.893836      36.893836      36.893836    
 252000000   0.3409131     -8.0796069     -7.5682445      1.4699324      50218.233      36.893836      36.893836      36.893836    
 253000000   0.33918848    -8.0841101     -7.5753346      1.4383731      50218.233      36.893836      36.893836      36.893836    
 254000000   0.34096835    -8.0811589     -7.5697137      1.4632206      50218.233      36.893836      36.893836      36.893836    
 255000000   0.33993516    -8.0850818     -7.5751863      1.4348545      50218.233      36.893836      36.893836      36.893836    
 256000000   0.33889575    -8.0843655     -7.5760291      1.4447906      50218.233      36.893836      36.893836      36.893836    
 257000000   0.34242326    -8.0804684     -7.5668408      1.4717742      50218.233      36.893836      36.893836      36.893836    
 258000000   0.33878956    -8.0809138     -7.5727367      1.4643641      50218.233      36.893836      36.893836      36.893836    
 259000000   0.33896077    -8.0793935     -7.5709596      1.4835078      50218.233      36.893836      36.893836      36.893836    
 260000000   0.34096404    -8.0796138     -7.568175       1.4792631      50218.233      36.893836      36.893836      36.893836    
 261000000   0.33905946    -8.0796296     -7.5710476      1.4686508      50218.233      36.893836      36.893836      36.893836    
 262000000   0.34040657    -8.0818813     -7.5712788      1.4651944      50218.233      36.893836      36.893836      36.893836    
 263000000   0.33935218    -8.0819393     -7.5729183      1.4514976      50218.233      36.893836      36.893836      36.893836    
 264000000   0.33888824    -8.0808618     -7.5725367      1.4629166      50218.233      36.893836      36.893836      36.893836    
 265000000   0.34149692    -8.0795437     -7.5673056      1.4729887      50218.233      36.893836      36.893836      36.893836    
 266000000   0.34050775    -8.0809536     -7.5701992      1.4604992      50218.233      36.893836      36.893836      36.893836    
 267000000   0.34183462    -8.0808939     -7.5681493      1.4649008      50218.233      36.893836      36.893836      36.893836    
 268000000   0.34059068    -8.0823107     -7.571432       1.4560126      50218.233      36.893836      36.893836      36.893836    
 269000000   0.34028632    -8.0814162     -7.570994       1.4596172      50218.233      36.893836      36.893836      36.893836    
 270000000   0.33903378    -8.0824896     -7.5739462      1.4580431      50218.233      36.893836      36.893836      36.893836    
 271000000   0.33948075    -8.0796644     -7.5704506      1.4690233      50218.233      36.893836      36.893836      36.893836    
 272000000   0.33989387    -8.0804283     -7.5705947      1.4623634      50218.233      36.893836      36.893836      36.893836    
 273000000   0.33865193    -8.0801372     -7.5721665      1.4667584      50218.233      36.893836      36.893836      36.893836    
 274000000   0.33989325    -8.0789643     -7.5691316      1.481837       50218.233      36.893836      36.893836      36.893836    
 275000000   0.33915134    -8.0794171     -7.5706973      1.4771019      50218.233      36.893836      36.893836      36.893836    
 276000000   0.33968883    -8.0785577     -7.5690317      1.4791657      50218.233      36.893836      36.893836      36.893836    
 277000000   0.3415091     -8.0813775     -7.5691211      1.4687308      50218.233      36.893836      36.893836      36.893836    
 278000000   0.3389858     -8.0832226     -7.5747511      1.4436267      50218.233      36.893836      36.893836      36.893836    
 279000000   0.34001181    -8.079849      -7.5698386      1.4653398      50218.233      36.893836      36.893836      36.893836    
 280000000   0.33893788    -8.0817916     -7.573392       1.4634821      50218.233      36.893836      36.893836      36.893836    
 281000000   0.33945842    -8.0804989     -7.5713185      1.4578183      50218.233      36.893836      36.893836      36.893836    
 282000000   0.33928143    -8.0827463     -7.5738313      1.4471038      50218.233      36.893836      36.893836      36.893836    
 283000000   0.34118494    -8.0795816     -7.5678115      1.4718803      50218.233      36.893836      36.893836      36.893836    
 284000000   0.34068348    -8.0783291     -7.5673112      1.4911104      50218.233      36.893836      36.893836      36.893836    
 285000000   0.34010131    -8.0819042     -7.5717595      1.4518212      50218.233      36.893836      36.893836      36.893836    
 286000000   0.33966484    -8.077211      -7.567721       1.4968444      50218.233      36.893836      36.893836      36.893836    
 287000000   0.34053351    -8.0818237     -7.5710307      1.4594776      50218.233      36.893836      36.893836      36.893836    
 288000000   0.33995065    -8.0816202     -7.5717015      1.4631339      50218.233      36.893836      36.893836      36.893836    
 289000000   0.34025296    -8.0820838     -7.5717116      1.4594029      50218.233      36.893836      36.893836      36.893836    
 290000000   0.34156958    -8.0811261     -7.568779       1.4622615      50218.233      36.893836      36.893836      36.893836    
 291000000   0.34123733    -8.0806213     -7.5687726      1.4685635      50218.233      36.893836      36.893836      36.893836    
 292000000   0.34027677    -8.0843232     -7.5739153      1.4373248      50218.233      36.893836      36.893836      36.893836    
 293000000   0.33978067    -8.0792529     -7.5695892      1.4765077      50218.233      36.893836      36.893836      36.893836    
 294000000   0.33869498    -8.0838435     -7.5758083      1.4459578      50218.233      36.893836      36.893836      36.893836    
 295000000   0.34070532    -8.0814732     -7.5704225      1.4655575      50218.233      36.893836      36.893836      36.893836    
 296000000   0.34021552    -8.0855253     -7.5752092      1.4292668      50218.233      36.893836      36.893836      36.893836    
 297000000   0.34044885    -8.0807869     -7.5701208      1.464107       50218.233      36.893836      36.893836      36.893836    
 298000000   0.34111602    -8.0829414     -7.5712746      1.4537999      50218.233      36.893836      36.893836      36.893836    
 299000000   0.34181438    -8.0818138     -7.5690995      1.4618499      50218.233      36.893836      36.893836      36.893836    
 300000000   0.34257391    -8.0838967     -7.5700432      1.4487011      50218.233      36.893836      36.893836      36.893836    
 301000000   0.34173512    -8.0828513     -7.5702559      1.4541349      50218.233      36.893836      36.893836      36.893836    
 302000000   0.3389311     -8.0818358     -7.5734464      1.4632001      50218.233      36.893836      36.893836      36.893836    
 303000000   0.34099538    -8.0805358     -7.56905        1.4721635      50218.233      36.893836      36.893836      36.893836    
 304000000   0.33981978    -8.0842618     -7.5745394      1.4458885      50218.233      36.893836      36.893836      36.893836    
 305000000   0.34012405    -8.0824713     -7.5722925      1.4535904      50218.233      36.893836      36.893836      36.893836    
 306000000   0.3398293     -8.0806756     -7.5709389      1.4717254      50218.233      36.893836      36.893836      36.893836    
 307000000   0.34042635    -8.0834155     -7.5727833      1.4516053      50218.233      36.893836      36.893836      36.893836    
 308000000   0.33856685    -8.0807913     -7.5729482      1.462765       50218.233      36.893836      36.893836      36.893836    
 309000000   0.34030056    -8.0806154     -7.5701718      1.474071       50218.233      36.893836      36.893836      36.893836    
 310000000   0.34012808    -8.0794647     -7.5692799      1.4786582      50218.233      36.893836      36.893836      36.893836    
 311000000   0.34079745    -8.0799357     -7.5687468      1.4825066      50218.233      36.893836      36.893836      36.893836    
 312000000   0.33842317    -8.0798459     -7.5722184      1.4788377      50218.233      36.893836      36.893836      36.893836    
 313000000   0.33848375    -8.0827566     -7.5750382      1.450089       50218.233      36.893836      36.893836      36.893836    
 314000000   0.34049422    -8.0820789     -7.5713448      1.4551394      50218.233      36.893836      36.893836      36.893836    
 315000000   0.34010169    -8.0816729     -7.5715276      1.4678018      50218.233      36.893836      36.893836      36.893836    
 316000000   0.33922446    -8.0838761     -7.5750467      1.4488717      50218.233      36.893836      36.893836      36.893836    
 317000000   0.33995241    -8.0801488     -7.5702274      1.4761365      50218.233      36.893836      36.893836      36.893836    
 318000000   0.34025436    -8.0845262     -7.5741519      1.4410702      50218.233      36.893836      36.893836      36.893836    
 319000000   0.34032807    -8.0822981     -7.5718133      1.456218       50218.233      36.893836      36.893836      36.893836    
 320000000   0.34030513    -8.0812535     -7.570803       1.4586539      50218.233      36.893836      36.893836      36.893836    
 321000000   0.33877034    -8.0794244     -7.5712762      1.4777224      50218.233      36.893836      36.893836      36.893836    
 322000000   0.33971296    -8.0796361     -7.5700739      1.4790095      50218.233      36.893836      36.893836      36.893836    
 323000000   0.33950001    -8.0785615     -7.5693187      1.4806792      50218.233      36.893836      36.893836      36.893836    
 324000000   0.34063387    -8.079009      -7.5680655      1.4815402      50218.233      36.893836      36.893836      36.893836    
 325000000   0.34046618    -8.0802998     -7.5696078      1.478487       50218.233      36.893836      36.893836      36.893836    
 326000000   0.34046608    -8.0798417     -7.5691498      1.4826181      50218.233      36.893836      36.893836      36.893836    
 327000000   0.33967947    -8.0805196     -7.5710076      1.4766345      50218.233      36.893836      36.893836      36.893836    
 328000000   0.3400029     -8.0808649     -7.5708678      1.4678343      50218.233      36.893836      36.893836      36.893836    
 329000000   0.34027377    -8.0798855     -7.5694821      1.4768895      50218.233      36.893836      36.893836      36.893836    
 330000000   0.3376047     -8.0806197     -7.5742198      1.4773046      50218.233      36.893836      36.893836      36.893836    
 331000000   0.34158959    -8.0833043     -7.5709272      1.4572685      50218.233      36.893836      36.893836      36.893836    
 332000000   0.34024543    -8.0807312     -7.5703703      1.4571751      50218.233      36.893836      36.893836      36.893836    
 333000000   0.33903183    -8.0835792     -7.5750387      1.4521766      50218.233      36.893836      36.893836      36.893836    
 334000000   0.33911683    -8.0824831     -7.5738151      1.4571223      50218.233      36.893836      36.893836      36.893836    
 335000000   0.33900262    -8.0821627     -7.573666       1.4563826      50218.233      36.893836      36.893836      36.893836    
 336000000   0.3402574     -8.0812082     -7.5708294      1.4664015      50218.233      36.893836      36.893836      36.893836    
 337000000   0.34055689    -8.0822784     -7.5714503      1.4566711      50218.233      36.893836      36.893836      36.893836    
 338000000   0.34166085    -8.0845944     -7.5721104      1.4344437      50218.233      36.893836      36.893836      36.893836    
 339000000   0.3407698     -8.0816434     -7.570496       1.4595631      50218.233      36.893836      36.893836      36.893836    
 340000000   0.34047556    -8.0829326     -7.5722265      1.457066       50218.233      36.893836      36.893836      36.893836    
 341000000   0.33783504    -8.0815054     -7.57476        1.4625811      50218.233      36.893836      36.893836      36.893836    
 342000000   0.3392093     -8.0820259     -7.5732192      1.4595862      50218.233      36.893836      36.893836      36.893836    
 343000000   0.33965421    -8.0814705     -7.5719964      1.4581412      50218.233      36.893836      36.893836      36.893836    
 344000000   0.34076376    -8.0841961     -7.5730577      1.446555       50218.233      36.893836      36.893836      36.893836    
 345000000   0.33971834    -8.0864967     -7.5769264      1.4268468      50218.233      36.893836      36.893836      36.893836    
 346000000   0.33939461    -8.0820922     -7.5730075      1.4604654      50218.233      36.893836      36.893836      36.893836    
 347000000   0.34107791    -8.0832349     -7.5716253      1.4474431      50218.233      36.893836      36.893836      36.893836    
 348000000   0.33879915    -8.0808488     -7.5726573      1.4677475      50218.233      36.893836      36.893836      36.893836    
 349000000   0.33974577    -8.0836111     -7.5739997      1.4439365      50218.233      36.893836      36.893836      36.893836    
 350000000   0.33913177    -8.0842038     -7.5755134      1.4409804      50218.233      36.893836      36.893836      36.893836    
 351000000   0.34171522    -8.0849699     -7.5724044      1.4350359      50218.233      36.893836      36.893836      36.893836    
 352000000   0.338484      -8.0817963     -7.5740776      1.4532206      50218.233      36.893836      36.893836      36.893836    
 353000000   0.33965941    -8.0824114     -7.5729295      1.4582798      50218.233      36.893836      36.893836      36.893836    
 354000000   0.33946132    -8.082698      -7.5735132      1.455724       50218.233      36.893836      36.893836      36.893836    
 355000000   0.33996493    -8.0832306     -7.5732905      1.4555982      50218.233      36.893836      36.893836      36.893836    
 356000000   0.34075022    -8.0810161     -7.5698981      1.4703327      50218.233      36.893836      36.893836      36.893836    
 357000000   0.33874524    -8.0837517     -7.5756411      1.442296       50218.233      36.893836      36.893836      36.893836    
 358000000   0.34009577    -8.0829885     -7.5728521      1.4558532      50218.233      36.893836      36.893836      36.893836    
 359000000   0.34139871    -8.0832136     -7.5711229      1.441596       50218.233      36.893836      36.893836      36.893836    
 360000000   0.33864544    -8.0814666     -7.5735056      1.460058       50218.233      36.893836      36.893836      36.893836    
 361000000   0.34093628    -8.0831172     -7.5717201      1.4405374      50218.233      36.893836      36.893836      36.893836    
 362000000   0.34096483    -8.0807728     -7.5693329      1.467311       50218.233      36.893836      36.893836      36.893836    
 363000000   0.33902453    -8.0828295     -7.5742999      1.4539962      50218.233      36.893836      36.893836      36.893836    
 364000000   0.33884448    -8.0812571     -7.5729977      1.4605686      50218.233      36.893836      36.893836      36.893836    
 365000000   0.33949281    -8.081399      -7.572167       1.4610257      50218.233      36.893836      36.893836      36.893836    
 366000000   0.33932584    -8.0782707     -7.5692891      1.4883763      50218.233      36.893836      36.893836      36.893836    
 367000000   0.34001835    -8.0786364     -7.5686161      1.4957879      50218.233      36.893836      36.893836      36.893836    
 368000000   0.33950364    -8.0812058     -7.5719576      1.4623349      50218.233      36.893836      36.893836      36.893836    
 369000000   0.33956677    -8.080892      -7.5715491      1.4538836      50218.233      36.893836      36.893836      36.893836    
 370000000   0.34003597    -8.0786156     -7.5685689      1.4873038      50218.233      36.893836      36.893836      36.893836    
 371000000   0.34012206    -8.0784374     -7.5682615      1.4804863      50218.233      36.893836      36.893836      36.893836    
 372000000   0.34066706    -8.0814653     -7.570472       1.4681319      50218.233      36.893836      36.893836      36.893836    
 373000000   0.33913171    -8.0804577     -7.5717674      1.4573722      50218.233      36.893836      36.893836      36.893836    
 374000000   0.34257426    -8.0787254     -7.5648713      1.4928664      50218.233      36.893836      36.893836      36.893836    
 375000000   0.33783933    -8.0816808     -7.574929       1.4567737      50218.233      36.893836      36.893836      36.893836    
 376000000   0.34096864    -8.0837913     -7.5723456      1.4452587      50218.233      36.893836      36.893836      36.893836    
 377000000   0.34183333    -8.080382      -7.5676393      1.4686428      50218.233      36.893836      36.893836      36.893836    
 378000000   0.34054084    -8.0793545     -7.5685506      1.4770383      50218.233      36.893836      36.893836      36.893836    
 379000000   0.34174991    -8.0803459     -7.5677283      1.4648404      50218.233      36.893836      36.893836      36.893836    
 380000000   0.3389165     -8.0816207     -7.5732532      1.4605885      50218.233      36.893836      36.893836      36.893836    
 381000000   0.34119594    -8.0836137     -7.5718271      1.4472789      50218.233      36.893836      36.893836      36.893836    
 382000000   0.34003553    -8.0814862     -7.5714401      1.4753295      50218.233      36.893836      36.893836      36.893836    
 383000000   0.33930647    -8.0816535     -7.572701       1.4584298      50218.233      36.893836      36.893836      36.893836    
 384000000   0.33861444    -8.0841968     -7.5762824      1.4395441      50218.233      36.893836      36.893836      36.893836    
 385000000   0.34084475    -8.081675      -7.5704151      1.4575174      50218.233      36.893836      36.893836      36.893836    
 386000000   0.33943918    -8.0822887     -7.5731372      1.4609286      50218.233      36.893836      36.893836      36.893836    
 387000000   0.34100285    -8.0827644     -7.5712674      1.4585151      50218.233      36.893836      36.893836      36.893836    
 388000000   0.34226242    -8.0836837     -7.5702974      1.4477762      50218.233      36.893836      36.893836      36.893836    
 389000000   0.33912287    -8.0803602     -7.5716832      1.4729478      50218.233      36.893836      36.893836      36.893836    
 390000000   0.33966282    -8.0811336     -7.5716466      1.4620384      50218.233      36.893836      36.893836      36.893836    
 391000000   0.33847679    -8.0816694     -7.5739614      1.4523774      50218.233      36.893836      36.893836      36.893836    
 392000000   0.33973416    -8.0825888     -7.5729948      1.4589106      50218.233      36.893836      36.893836      36.893836    
 393000000   0.34014749    -8.0811249     -7.5709109      1.4617464      50218.233      36.893836      36.893836      36.893836    
 394000000   0.34218656    -8.0835905     -7.5703179      1.4530501      50218.233      36.893836      36.893836      36.893836    
 395000000   0.34152175    -8.0828756     -7.5706002      1.4483171      50218.233      36.893836      36.893836      36.893836    
 396000000   0.33954941    -8.0835623     -7.5742454      1.448447       50218.233      36.893836      36.893836      36.893836    
 397000000   0.34029917    -8.0806248     -7.5701833      1.4704534      50218.233      36.893836      36.893836      36.893836    
 398000000   0.33839166    -8.0839078     -7.5763275      1.4342386      50218.233      36.893836      36.893836      36.893836    
 399000000   0.33853786    -8.0838962     -7.5760966      1.4460595      50218.233      36.893836      36.893836      36.893836    
 400000000   0.34122863    -8.0817052     -7.5698695      1.4565748      50218.233      36.893836      36.893836      36.893836    
 401000000   0.34018007    -8.0850542     -7.5747914      1.440869       50218.233      36.893836      36.893836      36.893836    
 402000000   0.33864015    -8.0817935     -7.5738405      1.4654879      50218.233      36.893836      36.893836      36.893836    
 403000000   0.33896534    -8.0813791     -7.5729383      1.4647713      50218.233      36.893836      36.893836      36.893836    
 404000000   0.34013329    -8.0814135     -7.5712208      1.4548245      50218.233      36.893836      36.893836      36.893836    
 405000000   0.33991791    -8.083746      -7.5738764      1.4513724      50218.233      36.893836      36.893836      36.893836    
 406000000   0.3412572     -8.0845918     -7.5727133      1.4399608      50218.233      36.893836      36.893836      36.893836    
 407000000   0.3400078     -8.0850123     -7.5750079      1.4416414      50218.233      36.893836      36.893836      36.893836    
 408000000   0.33830881    -8.0820596     -7.5746036      1.4571208      50218.233      36.893836      36.893836      36.893836    
 409000000   0.33900092    -8.0836926     -7.5751985      1.4446091      50218.233      36.893836      36.893836      36.893836    
 410000000   0.34119949    -8.0814708     -7.5696788      1.4577246      50218.233      36.893836      36.893836      36.893836    
 411000000   0.34152024    -8.0825123     -7.5702392      1.4521462      50218.233      36.893836      36.893836      36.893836    
 412000000   0.33919882    -8.0844341     -7.5756431      1.4423536      50218.233      36.893836      36.893836      36.893836    
 413000000   0.3398163     -8.0803937     -7.5706765      1.4805051      50218.233      36.893836      36.893836      36.893836    
 414000000   0.3398502     -8.0805346     -7.5707665      1.4707617      50218.233      36.893836      36.893836      36.893836    
 415000000   0.33992083    -8.0827354     -7.5728614      1.4474771      50218.233      36.893836      36.893836      36.893836    
 416000000   0.34018316    -8.0810224     -7.5707549      1.462703       50218.233      36.893836      36.893836      36.893836    
 417000000   0.34062741    -8.0819348     -7.5710009      1.4553357      50218.233      36.893836      36.893836      36.893836    
 418000000   0.34147053    -8.0814912     -7.5692926      1.4694147      50218.233      36.893836      36.893836      36.893836    
 419000000   0.33957991    -8.0833021     -7.5739395      1.4498709      50218.233      36.893836      36.893836      36.893836    
 420000000   0.33991512    -8.0803296     -7.5704642      1.4725687      50218.233      36.893836      36.893836      36.893836    
 421000000   0.34106056    -8.0817044     -7.5701208      1.4679842      50218.233      36.893836      36.893836      36.893836    
 422000000   0.3382991     -8.0838634     -7.576422       1.4410175      50218.233      36.893836      36.893836      36.893836    
 423000000   0.33957294    -8.081891      -7.5725389      1.4656327      50218.233      36.893836      36.893836      36.893836    
 424000000   0.33901446    -8.0825582     -7.5740438      1.4547025      50218.233      36.893836      36.893836      36.893836    
 425000000   0.33948446    -8.0819447     -7.5727253      1.4586378      50218.233      36.893836      36.893836      36.893836    
 426000000   0.33918981    -8.0810031     -7.5722257      1.475304       50218.233      36.893836      36.893836      36.893836    
 427000000   0.3399872     -8.0806063     -7.5706328      1.4649761      50218.233      36.893836      36.893836      36.893836    
 428000000   0.33812022    -8.0826365     -7.5754634      1.4464279      50218.233      36.893836      36.893836      36.893836    
 429000000   0.34049117    -8.0815892     -7.5708597      1.4574183      50218.233      36.893836      36.893836      36.893836    
 430000000   0.3404581     -8.0819806     -7.5713008      1.4634662      50218.233      36.893836      36.893836      36.893836    
 431000000   0.3402372     -8.0806126     -7.570264       1.4722264      50218.233      36.893836      36.893836      36.893836    
 432000000   0.34068188    -8.0800354     -7.5690198      1.4699854      50218.233      36.893836      36.893836      36.893836    
 433000000   0.34080206    -8.082884      -7.5716882      1.4440466      50218.233      36.893836      36.893836      36.893836    
 434000000   0.34008272    -8.082236      -7.5721191      1.4616688      50218.233      36.893836      36.893836      36.893836    
 435000000   0.3380421     -8.0821939     -7.575138       1.4461027      50218.233      36.893836      36.893836      36.893836    
 436000000   0.3392529     -8.0834847     -7.5746125      1.4426672      50218.233      36.893836      36.893836      36.893836    
 437000000   0.33875474    -8.0843464     -7.5762215      1.4402823      50218.233      36.893836      36.893836      36.893836    
 438000000   0.34016285    -8.0833085     -7.5730715      1.4471381      50218.233      36.893836      36.893836      36.893836    
 439000000   0.33950712    -8.0833728     -7.5741194      1.4527872      50218.233      36.893836      36.893836      36.893836    
 440000000   0.33897573    -8.0795819     -7.5711255      1.4684674      50218.233      36.893836      36.893836      36.893836    
 441000000   0.34040506    -8.0818724     -7.5712721      1.4563183      50218.233      36.893836      36.893836      36.893836    
 442000000   0.33958413    -8.0829822     -7.5736133      1.4466882      50218.233      36.893836      36.893836      36.893836    
 443000000   0.33877658    -8.0840648     -7.5759071      1.440894       50218.233      36.893836      36.893836      36.893836    
 444000000   0.33975748    -8.0834151     -7.5737861      1.4450733      50218.233      36.893836      36.893836      36.893836    
 445000000   0.33917767    -8.0852712     -7.576512       1.4333469      50218.233      36.893836      36.893836      36.893836    
 446000000   0.34078106    -8.0834832     -7.5723189      1.4434437      50218.233      36.893836      36.893836      36.893836    
 447000000   0.33922178    -8.0827383     -7.5739128      1.4559205      50218.233      36.893836      36.893836      36.893836    
 448000000   0.33971333    -8.0837809     -7.5742182      1.4486473      50218.233      36.893836      36.893836      36.893836    
 449000000   0.34075044    -8.0822414     -7.571123       1.4568576      50218.233      36.893836      36.893836      36.893836    
 450000000   0.34112665    -8.0838217     -7.5721391      1.4425967      50218.233      36.893836      36.893836      36.893836    
 451000000   0.34140851    -8.0865164     -7.574411       1.4284896      50218.233      36.893836      36.893836      36.893836    
 452000000   0.34163817    -8.0824399     -7.56999        1.4480661      50218.233      36.893836      36.893836      36.893836    
 453000000   0.3387388     -8.0844352     -7.5763342      1.4374973      50218.233      36.893836      36.893836      36.893836    
 454000000   0.3421886     -8.0826094     -7.5693338      1.4532967      50218.233      36.893836      36.893836      36.893836    
 455000000   0.34044306    -8.0818829     -7.5712256      1.4680174      50218.233      36.893836      36.893836      36.893836    
 456000000   0.34009632    -8.083686      -7.5735488      1.4414688      50218.233      36.893836      36.893836      36.893836    
 457000000   0.34048003    -8.0833824     -7.5726696      1.4492001      50218.233      36.893836      36.893836      36.893836    
 458000000   0.33914367    -8.0827738     -7.5740656      1.4594547      50218.233      36.893836      36.893836      36.893836    
 459000000   0.34126311    -8.083854      -7.5719667      1.4452832      50218.233      36.893836      36.893836      36.893836    
 460000000   0.33935307    -8.0837865     -7.5747642      1.4437868      50218.233      36.893836      36.893836      36.893836    
 461000000   0.33876226    -8.0807559     -7.5726198      1.4680448      50218.233      36.893836      36.893836      36.893836    
 462000000   0.33811769    -8.0806529     -7.5734835      1.4703054      50218.233      36.893836      36.893836      36.893836    
 463000000   0.3404772     -8.0818129     -7.5711044      1.4484328      50218.233      36.893836      36.893836      36.893836    
 464000000   0.34113544    -8.0807856     -7.5690897      1.4692103      50218.233      36.893836      36.893836      36.893836    
 465000000   0.33737584    -8.0821725     -7.5761159      1.46348        50218.233      36.893836      36.893836      36.893836    
 466000000   0.33986193    -8.0817271     -7.5719414      1.4676582      50218.233      36.893836      36.893836      36.893836    
 467000000   0.33907227    -8.0810099     -7.5724087      1.4606706      50218.233      36.893836      36.893836      36.893836    
 468000000   0.33905038    -8.0839881     -7.5754198      1.4342642      50218.233      36.893836      36.893836      36.893836    
 469000000   0.34073151    -8.0815631     -7.5704731      1.4567994      50218.233      36.893836      36.893836      36.893836    
 470000000   0.33892365    -8.0789611     -7.5705829      1.4749973      50218.233      36.893836      36.893836      36.893836    
 471000000   0.34040669    -8.0818008     -7.571198       1.4642652      50218.233      36.893836      36.893836      36.893836    
 472000000   0.34132968    -8.0799374     -7.5679502      1.4800412      50218.233      36.893836      36.893836      36.893836    
 473000000   0.34184554    -8.0798164     -7.5670554      1.4776806      50218.233      36.893836      36.893836      36.893836    
 474000000   0.33842733    -8.0836414     -7.5760076      1.4444142      50218.233      36.893836      36.893836      36.893836    
 475000000   0.33906985    -8.0799166     -7.5713191      1.4830912      50218.233      36.893836      36.893836      36.893836    
 476000000   0.34188269    -8.0814974     -7.5686807      1.4624696      50218.233      36.893836      36.893836      36.893836    
 477000000   0.34061214    -8.0792834     -7.5683724      1.4970625      50218.233      36.893836      36.893836      36.893836    
 478000000   0.34070143    -8.082852      -7.5718071      1.4528728      50218.233      36.893836      36.893836      36.893836    
 479000000   0.33940084    -8.0824906     -7.5733966      1.4610907      50218.233      36.893836      36.893836      36.893836    
 480000000   0.33909654    -8.0829213     -7.5742837      1.4572104      50218.233      36.893836      36.893836      36.893836    
 481000000   0.34206869    -8.0815293     -7.5684336      1.4609981      50218.233      36.893836      36.893836      36.893836    
 482000000   0.34071545    -8.0841664     -7.5731005      1.4475153      50218.233      36.893836      36.893836      36.893836    
 483000000   0.34061053    -8.0811984     -7.5702898      1.4670665      50218.233      36.893836      36.893836      36.893836    
 484000000   0.33950443    -8.0839411     -7.5746917      1.4481311      50218.233      36.893836      36.893836      36.893836    
 485000000   0.34067899    -8.0829305     -7.5719193      1.449194       50218.233      36.893836      36.893836      36.893836    
 486000000   0.33908497    -8.0841576     -7.5755374      1.4401944      50218.233      36.893836      36.893836      36.893836    
 487000000   0.33993286    -8.0863108     -7.5764187      1.4347679      50218.233      36.893836      36.893836      36.893836    
 488000000   0.33961024    -8.0831476     -7.5737395      1.45127        50218.233      36.893836      36.893836      36.893836    
 489000000   0.34040027    -8.0818078     -7.5712147      1.453088       50218.233      36.893836      36.893836      36.893836    
 490000000   0.34072966    -8.0833017     -7.5722145      1.4502066      50218.233      36.893836      36.893836      36.893836    
 491000000   0.33795316    -8.0832331     -7.5763106      1.4411387      50218.233      36.893836      36.893836      36.893836    
 492000000   0.34149167    -8.0807351     -7.5685048      1.4654942      50218.233      36.893836      36.893836      36.893836    
 493000000   0.340414      -8.0850103     -7.5743966      1.4331707      50218.233      36.893836      36.893836      36.893836    
 494000000   0.34103566    -8.0807886     -7.5692423      1.4645823      50218.233      36.893836      36.893836      36.893836    
 495000000   0.34053107    -8.0843418     -7.5735525      1.4360024      50218.233      36.893836      36.893836      36.893836    
 496000000   0.33779108    -8.0846542     -7.5779748      1.4318384      50218.233      36.893836      36.893836      36.893836    
 497000000   0.33906282    -8.0847153     -7.5761283      1.4421157      50218.233      36.893836      36.893836      36.893836    
 498000000   0.34039416    -8.0824213     -7.5718373      1.4551047      50218.233      36.893836      36.893836      36.893836    
 499000000   0.33982543    -8.0847361     -7.5750053      1.4392242      50218.233      36.893836      36.893836      36.893836    
 500000000   0.34045571    -8.0840418     -7.5733655      1.4354168      50218.233      36.893836      36.893836      36.893836    
Loop time of 793123 on 5 procs for 500000000 steps with 70304 atoms

Performance: 544682.426 tau/day, 630.419 timesteps/s, 44.321 Matom-step/s
94.4% CPU use with 5 MPI tasks x 1 OpenMP threads

MPI task timing breakdown:
Section |  min time  |  avg time  |  max time  |%varavg| %total
---------------------------------------------------------------
Pair    | 2.8356e+05 | 3.0565e+05 | 3.322e+05  |3716.1 | 38.54
Neigh   | 2162.7     | 2266.6     | 2356.6     | 133.9 |  0.29
Comm    | 1.1629e+05 | 1.1855e+05 | 1.21e+05   | 571.9 | 14.95
Output  | 0.10094    | 0.10512    | 0.11123    |   1.1 |  0.00
Modify  | 3.0119e+05 | 3.2555e+05 | 3.4515e+05 |3352.3 | 41.05
Other   |            | 4.111e+04  |            |       |  5.18

Nlocal:        14060.8 ave       14105 max       14018 min
Histogram: 1 0 1 0 0 1 1 0 0 1
Nghost:        18753.6 ave       18794 max       18715 min
Histogram: 1 0 0 1 0 2 0 0 0 1
Neighs:              0 ave           0 max           0 min
Histogram: 5 0 0 0 0 0 0 0 0 0

Total # of neighbors = 0
Ave neighs/atom = 0
Neighbor list builds = 85758764
Dangerous builds = 0
clear
OMP_NUM_THREADS environment is not set. Defaulting to 1 thread. (src/comm.cpp:98)
  using 1 OpenMP thread(s) per MPI task
package gpu 0
jump dms320.lmp

variable T equal 320
# T = 1000* (temp in LJ unit)
variable f equal 1000000
log log.${T}
log log.320
