variable TLJ equal (${T}/1000)
variable TLJ equal (300/1000)
variable NCyle equal 5
variable iStep equal (${f})
variable iStep equal (1000000)
variable dumpStep equal (${f}*100)
variable dumpStep equal (1000000*100)
variable runStep equal (${f}*100*${NCyle})
variable runStep equal (1000000*100*${NCyle})
variable runStep equal (1000000*100*5)

units       lj
atom_style  atomic
dimension 3
boundary     p p p
pair_style  lj/cut 2.5
read_data  ../data/T${T}.dat
read_data  ../data/T300.dat
Reading data file ...
  orthogonal box = (0.97250269 0.97250269 0.97250269) to (37.866338 37.866338 37.866338)
  1 by 1 by 5 MPI processor grid
  reading atoms ...
  70304 atoms
  reading velocities ...
  70304 velocities
  read_data CPU = 0.210 seconds
change_box all triclinic
Changing box ...
  triclinic box = (0.97250269 0.97250269 0.97250269) to (37.866338 37.866338 37.866338) with tilt (0 0 0)
mass 1 1
mass 2 1
pair_modify shift yes
pair_coeff  1 1 1 1
pair_coeff  1 2 1.5 0.8
pair_coeff  2 2 0.5 0.88


timestep 0.01
thermo ${iStep}
thermo 1000000
reset_timestep 0
thermo_style custom step temp pe etotal press vol lx ly lz
fix             1 all nvt temp ${TLJ}  ${TLJ}  0.1
fix             1 all nvt temp 0.3  ${TLJ}  0.1
fix             1 all nvt temp 0.3  0.3  0.1
thermo_modify flush yes

fix dsf all deform 1 xy  wiggle 0.5  ${f}   units box
fix dsf all deform 1 xy  wiggle 0.5  1000000   units box
fix ps1 all ave/time 1 1 ${iStep} c_thermo_press[1] c_thermo_press[2]  c_thermo_press[3] c_thermo_press[4]  c_thermo_press[5] c_thermo_press[6]  file  stress.${T}
fix ps1 all ave/time 1 1 1000000 c_thermo_press[1] c_thermo_press[2]  c_thermo_press[3] c_thermo_press[4]  c_thermo_press[5] c_thermo_press[6]  file  stress.${T}
fix ps1 all ave/time 1 1 1000000 c_thermo_press[1] c_thermo_press[2]  c_thermo_press[3] c_thermo_press[4]  c_thermo_press[5] c_thermo_press[6]  file  stress.300
dump            1 all custom ${dumpStep} dump.${T} id type x y z
dump            1 all custom 100000000 dump.${T} id type x y z
dump            1 all custom 100000000 dump.300 id type x y z
dump_modify 1 sort id
fix nodrift all momentum 1  linear 1 1 1
fix com_seed all recenter INIT INIT INIT shift all
run ${runStep}
run 500000000
Generated 0 of 1 mixed pair_coeff terms from geometric mixing rule
Per MPI rank memory allocation (min/avg/max) = 8.915 | 8.918 | 8.921 Mbytes
   Step          Temp          PotEng         TotEng         Press          Volume           Lx             Ly             Lz      
         0   0.30034515    -8.1416212     -7.6911099      0.95878446     50218.233      36.893836      36.893836      36.893836    
   1000000   0.29976001    -8.139042      -7.6894084      0.97650947     50218.233      36.893836      36.893836      36.893836    
   2000000   0.30032614    -8.1391859     -7.6887031      0.97777973     50218.233      36.893836      36.893836      36.893836    
   3000000   0.29829539    -8.1360387     -7.688602       0.99462412     50218.233      36.893836      36.893836      36.893836    
   4000000   0.29975384    -8.1388558     -7.6892314      0.98036429     50218.233      36.893836      36.893836      36.893836    
   5000000   0.29857503    -8.1366263     -7.6887701      0.99578233     50218.233      36.893836      36.893836      36.893836    
   6000000   0.29776705    -8.1360551     -7.6894109      0.99824475     50218.233      36.893836      36.893836      36.893836    
   7000000   0.30039825    -8.1362993     -7.6857083      0.99219167     50218.233      36.893836      36.893836      36.893836    
   8000000   0.29962011    -8.1360557     -7.6866319      1.0014702      50218.233      36.893836      36.893836      36.893836    
   9000000   0.29934709    -8.13757       -7.6885557      0.99202449     50218.233      36.893836      36.893836      36.893836    
  10000000   0.3005484     -8.135209      -7.6843928      1.012447       50218.233      36.893836      36.893836      36.893836    
  11000000   0.29856393    -8.135145      -7.6873055      0.99858329     50218.233      36.893836      36.893836      36.893836    
  12000000   0.30083156    -8.1357045     -7.6844635      1.0043069      50218.233      36.893836      36.893836      36.893836    
  13000000   0.30058848    -8.1382556     -7.6873793      0.99311841     50218.233      36.893836      36.893836      36.893836    
  14000000   0.30060994    -8.1365444     -7.6856359      0.99602383     50218.233      36.893836      36.893836      36.893836    
  15000000   0.29857742    -8.1359642     -7.6881045      0.99976267     50218.233      36.893836      36.893836      36.893836    
  16000000   0.30038996    -8.1335759     -7.6829974      1.030028       50218.233      36.893836      36.893836      36.893836    
  17000000   0.29982212    -8.1358957     -7.6861689      1.0023882      50218.233      36.893836      36.893836      36.893836    
  18000000   0.29989181    -8.1343489     -7.6845176      1.0247499      50218.233      36.893836      36.893836      36.893836    
  19000000   0.29917635    -8.1354674     -7.6867092      1.0065892      50218.233      36.893836      36.893836      36.893836    
  20000000   0.29934573    -8.135942      -7.6869298      1.0018364      50218.233      36.893836      36.893836      36.893836    
  21000000   0.30029196    -8.1357313     -7.6852998      1.0002828      50218.233      36.893836      36.893836      36.893836    
  22000000   0.30063213    -8.1397723     -7.6888305      0.97317471     50218.233      36.893836      36.893836      36.893836    
  23000000   0.29894409    -8.1371122     -7.6887024      0.99559239     50218.233      36.893836      36.893836      36.893836    
  24000000   0.30059571    -8.1366264     -7.6857392      0.99486186     50218.233      36.893836      36.893836      36.893836    
  25000000   0.29946978    -8.1344854     -7.6852871      1.0151376      50218.233      36.893836      36.893836      36.893836    
  26000000   0.29943832    -8.1342855     -7.6851344      1.0152767      50218.233      36.893836      36.893836      36.893836    
  27000000   0.30088037    -8.1356215     -7.6843074      1.0022565      50218.233      36.893836      36.893836      36.893836    
  28000000   0.30018558    -8.1347838     -7.6845118      1.0130424      50218.233      36.893836      36.893836      36.893836    
  29000000   0.29829269    -8.1368652     -7.6894325      0.99230816     50218.233      36.893836      36.893836      36.893836    
  30000000   0.29980084    -8.1338059     -7.684111       1.0177757      50218.233      36.893836      36.893836      36.893836    
  31000000   0.29977169    -8.1355298     -7.6858787      1.0042504      50218.233      36.893836      36.893836      36.893836    
  32000000   0.30012372    -8.1394951     -7.6893159      0.97170738     50218.233      36.893836      36.893836      36.893836    
  33000000   0.29922814    -8.1367624     -7.6879266      0.99676069     50218.233      36.893836      36.893836      36.893836    
  34000000   0.30021836    -8.1349097     -7.6845885      1.0135035      50218.233      36.893836      36.893836      36.893836    
  35000000   0.29900023    -8.1361028     -7.6876088      0.99236965     50218.233      36.893836      36.893836      36.893836    
  36000000   0.29934559    -8.1375338     -7.6885218      0.98531524     50218.233      36.893836      36.893836      36.893836    
  37000000   0.30117909    -8.1383045     -7.6865423      0.98412286     50218.233      36.893836      36.893836      36.893836    
  38000000   0.29942959    -8.1368781     -7.6877401      0.99345454     50218.233      36.893836      36.893836      36.893836    
  39000000   0.29981787    -8.1358817     -7.6861613      1.0077364      50218.233      36.893836      36.893836      36.893836    
  40000000   0.30028507    -8.1367569     -7.6863357      0.98924509     50218.233      36.893836      36.893836      36.893836    
  41000000   0.29906059    -8.13535       -7.6867655      0.99826941     50218.233      36.893836      36.893836      36.893836    
  42000000   0.29961294    -8.1381001     -7.6886871      0.98304207     50218.233      36.893836      36.893836      36.893836    
  43000000   0.29850083    -8.1391803     -7.6914354      0.97557274     50218.233      36.893836      36.893836      36.893836    
  44000000   0.30132387    -8.1370254     -7.685046       0.98875295     50218.233      36.893836      36.893836      36.893836    
  45000000   0.29906083    -8.1349313     -7.6863465      1.0070433      50218.233      36.893836      36.893836      36.893836    
  46000000   0.30028544    -8.1382023     -7.6877805      0.98624139     50218.233      36.893836      36.893836      36.893836    
  47000000   0.29979295    -8.1372916     -7.6876085      0.99525053     50218.233      36.893836      36.893836      36.893836    
  48000000   0.29924939    -8.136651      -7.6877833      0.9896367      50218.233      36.893836      36.893836      36.893836    
  49000000   0.30009599    -8.1378898     -7.6877522      0.99008849     50218.233      36.893836      36.893836      36.893836    
  50000000   0.29973465    -8.1378565     -7.6882609      0.99622684     50218.233      36.893836      36.893836      36.893836    
  51000000   0.30055751    -8.1366257     -7.6857959      0.98939582     50218.233      36.893836      36.893836      36.893836    
  52000000   0.29967794    -8.1376459     -7.6881354      0.98523625     50218.233      36.893836      36.893836      36.893836    
  53000000   0.30073642    -8.1386977     -7.6875995      0.98388645     50218.233      36.893836      36.893836      36.893836    
  54000000   0.3015664     -8.1363541     -7.684011       1.0042748      50218.233      36.893836      36.893836      36.893836    
  55000000   0.30102661    -8.1377992     -7.6862657      0.99233609     50218.233      36.893836      36.893836      36.893836    
  56000000   0.29960399    -8.1369057     -7.6875061      1.0038371      50218.233      36.893836      36.893836      36.893836    
  57000000   0.29986185    -8.1345108     -7.6847245      1.0035057      50218.233      36.893836      36.893836      36.893836    
  58000000   0.30087363    -8.1357491     -7.684445       1.0040273      50218.233      36.893836      36.893836      36.893836    
  59000000   0.29985155    -8.1361651     -7.6863942      0.99494796     50218.233      36.893836      36.893836      36.893836    
  60000000   0.29998337    -8.135672      -7.6857033      1.0077117      50218.233      36.893836      36.893836      36.893836    
  61000000   0.30054678    -8.135738      -7.6849243      1.0039496      50218.233      36.893836      36.893836      36.893836    
  62000000   0.29885252    -8.1345027     -7.6862303      1.0049564      50218.233      36.893836      36.893836      36.893836    
  63000000   0.29893388    -8.1369897     -7.6885953      0.9906937      50218.233      36.893836      36.893836      36.893836    
  64000000   0.29995496    -8.1358783     -7.6859523      0.9923912      50218.233      36.893836      36.893836      36.893836    
  65000000   0.29996205    -8.1351128     -7.6851761      0.99955158     50218.233      36.893836      36.893836      36.893836    
  66000000   0.30073779    -8.1348364     -7.6837361      1.0068948      50218.233      36.893836      36.893836      36.893836    
  67000000   0.30068949    -8.1374185     -7.6863907      0.9895475      50218.233      36.893836      36.893836      36.893836    
  68000000   0.30030852    -8.136714      -7.6862576      0.99686252     50218.233      36.893836      36.893836      36.893836    
  69000000   0.29960786    -8.1337972     -7.6843918      1.0204439      50218.233      36.893836      36.893836      36.893836    
  70000000   0.30072951    -8.135985      -7.6848971      1.0013208      50218.233      36.893836      36.893836      36.893836    
  71000000   0.29896523    -8.1344981     -7.6860567      1.0117088      50218.233      36.893836      36.893836      36.893836    
  72000000   0.29975513    -8.1345801     -7.6849538      1.0150503      50218.233      36.893836      36.893836      36.893836    
  73000000   0.300469      -8.1347142     -7.6840171      1.0115491      50218.233      36.893836      36.893836      36.893836    
  74000000   0.30081682    -8.1379634     -7.6867446      0.98407087     50218.233      36.893836      36.893836      36.893836    
  75000000   0.29788089    -8.13633       -7.689515       0.99444153     50218.233      36.893836      36.893836      36.893836    
  76000000   0.30006168    -8.1341988     -7.6841127      1.0030745      50218.233      36.893836      36.893836      36.893836    
  77000000   0.30068637    -8.1364534     -7.6854303      0.9943026      50218.233      36.893836      36.893836      36.893836    
  78000000   0.29927691    -8.134035      -7.6851261      1.0083428      50218.233      36.893836      36.893836      36.893836    
  79000000   0.29923555    -8.1364962     -7.6876493      0.99711408     50218.233      36.893836      36.893836      36.893836    
  80000000   0.29927355    -8.1357061     -7.6868022      1.010551       50218.233      36.893836      36.893836      36.893836    
  81000000   0.30254239    -8.1354564     -7.6816493      1.0050978      50218.233      36.893836      36.893836      36.893836    
  82000000   0.29937292    -8.1346967     -7.6856437      1.0103462      50218.233      36.893836      36.893836      36.893836    
  83000000   0.30019393    -8.1346334     -7.6843489      1.0053232      50218.233      36.893836      36.893836      36.893836    
  84000000   0.30107978    -8.1376703     -7.686057       0.98473202     50218.233      36.893836      36.893836      36.893836    
  85000000   0.29884113    -8.1377364     -7.6894811      0.97927989     50218.233      36.893836      36.893836      36.893836    
  86000000   0.30092472    -8.1382276     -7.686847       0.98136062     50218.233      36.893836      36.893836      36.893836    
  87000000   0.29877341    -8.1367622     -7.6886084      0.9906469      50218.233      36.893836      36.893836      36.893836    
  88000000   0.29903923    -8.1380056     -7.6894532      0.98742759     50218.233      36.893836      36.893836      36.893836    
  89000000   0.30092988    -8.1364563     -7.6850679      0.99595318     50218.233      36.893836      36.893836      36.893836    
  90000000   0.30122896    -8.136214      -7.684377       1.0009703      50218.233      36.893836      36.893836      36.893836    
  91000000   0.29998135    -8.1351205     -7.6851549      1.0055799      50218.233      36.893836      36.893836      36.893836    
  92000000   0.29961206    -8.1360174     -7.6866057      0.99907316     50218.233      36.893836      36.893836      36.893836    
  93000000   0.29930634    -8.1360772     -7.6871241      0.99280419     50218.233      36.893836      36.893836      36.893836    
  94000000   0.3005354     -8.1360667     -7.68527        0.99829318     50218.233      36.893836      36.893836      36.893836    
  95000000   0.30030423    -8.1367221     -7.6862721      0.98314174     50218.233      36.893836      36.893836      36.893836    
  96000000   0.30023809    -8.137613      -7.6872623      0.99757723     50218.233      36.893836      36.893836      36.893836    
  97000000   0.30004706    -8.1347334     -7.6846692      1.0122177      50218.233      36.893836      36.893836      36.893836    
  98000000   0.29955603    -8.1385866     -7.6892589      0.97805728     50218.233      36.893836      36.893836      36.893836    
  99000000   0.29842865    -8.1387474     -7.6911108      0.98904226     50218.233      36.893836      36.893836      36.893836    
 100000000   0.299351      -8.1379695     -7.6889494      0.98011729     50218.233      36.893836      36.893836      36.893836    
 101000000   0.29921484    -8.1375177     -7.6887018      0.98284202     50218.233      36.893836      36.893836      36.893836    
 102000000   0.29996891    -8.1378073     -7.6878604      0.9838022      50218.233      36.893836      36.893836      36.893836    
 103000000   0.30077532    -8.1371121     -7.6859555      0.99561399     50218.233      36.893836      36.893836      36.893836    
 104000000   0.30033339    -8.1375999     -7.6871062      0.97976187     50218.233      36.893836      36.893836      36.893836    
 105000000   0.30043273    -8.1393282     -7.6886856      0.9735858      50218.233      36.893836      36.893836      36.893836    
 106000000   0.30026066    -8.1377087     -7.6873241      0.99234444     50218.233      36.893836      36.893836      36.893836    
 107000000   0.29765571    -8.1350759     -7.6885987      1.0064347      50218.233      36.893836      36.893836      36.893836    
 108000000   0.29948279    -8.1372475     -7.6880297      0.98992031     50218.233      36.893836      36.893836      36.893836    
 109000000   0.29930322    -8.1383851     -7.6894366      0.97943604     50218.233      36.893836      36.893836      36.893836    
 110000000   0.30064568    -8.1385262     -7.6875641      0.98655217     50218.233      36.893836      36.893836      36.893836    
 111000000   0.29961872    -8.1379193     -7.6884976      0.9784134      50218.233      36.893836      36.893836      36.893836    
 112000000   0.29976169    -8.136281      -7.6866448      0.99513686     50218.233      36.893836      36.893836      36.893836    
 113000000   0.30168199    -8.1379429     -7.6854263      0.98327862     50218.233      36.893836      36.893836      36.893836    
 114000000   0.29901262    -8.1370466     -7.6885341      0.99162559     50218.233      36.893836      36.893836      36.893836    
 115000000   0.30210231    -8.1386768     -7.6855297      0.98726651     50218.233      36.893836      36.893836      36.893836    
 116000000   0.29977278    -8.1363987     -7.6867459      0.99774239     50218.233      36.893836      36.893836      36.893836    
 117000000   0.29960732    -8.1367698     -7.6873652      0.98580391     50218.233      36.893836      36.893836      36.893836    
 118000000   0.2991585     -8.1367462     -7.6880148      0.99287969     50218.233      36.893836      36.893836      36.893836    
 119000000   0.29948081    -8.1362361     -7.6870213      1.0006245      50218.233      36.893836      36.893836      36.893836    
 120000000   0.3001355     -8.1343618     -7.6841649      1.009954       50218.233      36.893836      36.893836      36.893836    
 121000000   0.30031663    -8.1348068     -7.6843382      1.0094055      50218.233      36.893836      36.893836      36.893836    
 122000000   0.30153352    -8.1360138     -7.6837199      1.0057399      50218.233      36.893836      36.893836      36.893836    
 123000000   0.29929102    -8.1365259     -7.6875958      0.99745146     50218.233      36.893836      36.893836      36.893836    
 124000000   0.30122315    -8.1372374     -7.6854091      0.98572077     50218.233      36.893836      36.893836      36.893836    
 125000000   0.29976643    -8.1368118     -7.6871686      0.98600179     50218.233      36.893836      36.893836      36.893836    
 126000000   0.29881173    -8.1355201     -7.6873088      0.99764087     50218.233      36.893836      36.893836      36.893836    
 127000000   0.29933189    -8.1355477     -7.6865562      0.99642191     50218.233      36.893836      36.893836      36.893836    
 128000000   0.29781567    -8.1377436     -7.6910264      0.97574194     50218.233      36.893836      36.893836      36.893836    
 129000000   0.29996082    -8.1377374     -7.6878026      0.99102283     50218.233      36.893836      36.893836      36.893836    
 130000000   0.30020119    -8.134235      -7.6839396      1.0110053      50218.233      36.893836      36.893836      36.893836    
 131000000   0.30075112    -8.1372628     -7.6861426      0.99066989     50218.233      36.893836      36.893836      36.893836    
 132000000   0.30025606    -8.1361203     -7.6857426      0.99251175     50218.233      36.893836      36.893836      36.893836    
 133000000   0.30063334    -8.1366966     -7.685753       0.99500054     50218.233      36.893836      36.893836      36.893836    
 134000000   0.30043688    -8.1361653     -7.6855164      0.9986005      50218.233      36.893836      36.893836      36.893836    
 135000000   0.29948424    -8.1350875     -7.6858675      1.005127       50218.233      36.893836      36.893836      36.893836    
 136000000   0.29831598    -8.1373871     -7.6899195      0.99217589     50218.233      36.893836      36.893836      36.893836    
 137000000   0.3000199     -8.1368191     -7.6867957      0.9972709      50218.233      36.893836      36.893836      36.893836    
 138000000   0.29940561    -8.1391277     -7.6900257      0.975661       50218.233      36.893836      36.893836      36.893836    
 139000000   0.3013798     -8.1365949     -7.6845317      0.99637167     50218.233      36.893836      36.893836      36.893836    
 140000000   0.29905459    -8.1363932     -7.6878177      0.99297897     50218.233      36.893836      36.893836      36.893836    
 141000000   0.30040557    -8.1376872     -7.6870853      0.99058714     50218.233      36.893836      36.893836      36.893836    
 142000000   0.29997219    -8.1404347     -7.6904828      0.96972114     50218.233      36.893836      36.893836      36.893836    
 143000000   0.3011364     -8.135671      -7.6839728      1.0062964      50218.233      36.893836      36.893836      36.893836    
 144000000   0.30168854    -8.1378909     -7.6853646      0.99008269     50218.233      36.893836      36.893836      36.893836    
 145000000   0.30030765    -8.1355668     -7.6851117      0.99448502     50218.233      36.893836      36.893836      36.893836    
 146000000   0.30036651    -8.1383424     -7.687799       0.97802365     50218.233      36.893836      36.893836      36.893836    
 147000000   0.29869466    -8.1361961     -7.6881605      0.99505902     50218.233      36.893836      36.893836      36.893836    
 148000000   0.29963531    -8.1385761     -7.6891295      0.98147894     50218.233      36.893836      36.893836      36.893836    
 149000000   0.29943714    -8.1372219     -7.6880725      0.98658732     50218.233      36.893836      36.893836      36.893836    
 150000000   0.29999813    -8.1377955     -7.6878047      0.99248742     50218.233      36.893836      36.893836      36.893836    
 151000000   0.30042405    -8.1405876     -7.6899579      0.96249092     50218.233      36.893836      36.893836      36.893836    
 152000000   0.2990222     -8.1378654     -7.6893385      0.98037617     50218.233      36.893836      36.893836      36.893836    
 153000000   0.29957941    -8.1387397     -7.689377       0.97075515     50218.233      36.893836      36.893836      36.893836    
 154000000   0.30006765    -8.1389659     -7.6888708      0.9793487      50218.233      36.893836      36.893836      36.893836    
 155000000   0.30020378    -8.1391156     -7.6888163      0.98153195     50218.233      36.893836      36.893836      36.893836    
 156000000   0.2999273     -8.13643       -7.6865455      0.98829116     50218.233      36.893836      36.893836      36.893836    
 157000000   0.29894483    -8.1375494     -7.6891385      0.97674409     50218.233      36.893836      36.893836      36.893836    
 158000000   0.30053083    -8.1381282     -7.6873384      0.98133997     50218.233      36.893836      36.893836      36.893836    
 159000000   0.30041055    -8.1367025     -7.6860931      0.99266926     50218.233      36.893836      36.893836      36.893836    
 160000000   0.2988386     -8.1372927     -7.6890412      0.99079503     50218.233      36.893836      36.893836      36.893836    
 161000000   0.29971447    -8.1364214     -7.686856       0.99522029     50218.233      36.893836      36.893836      36.893836    
 162000000   0.29844463    -8.1356134     -7.6879528      0.9950795      50218.233      36.893836      36.893836      36.893836    
 163000000   0.30212123    -8.1374999     -7.6843245      0.9908469      50218.233      36.893836      36.893836      36.893836    
 164000000   0.29946162    -8.1370076     -7.6878215      0.9909523      50218.233      36.893836      36.893836      36.893836    
 165000000   0.2994787     -8.1344918     -7.6852801      1.0032112      50218.233      36.893836      36.893836      36.893836    
 166000000   0.29876316    -8.1374508     -7.6893124      0.98421223     50218.233      36.893836      36.893836      36.893836    
 167000000   0.29991812    -8.1382495     -7.6883787      0.97208676     50218.233      36.893836      36.893836      36.893836    
 168000000   0.29726578    -8.1382299     -7.6923375      0.97188767     50218.233      36.893836      36.893836      36.893836    
 169000000   0.30046109    -8.1364625     -7.6857773      0.99781153     50218.233      36.893836      36.893836      36.893836    
 170000000   0.30014088    -8.1381313     -7.6879264      0.98036747     50218.233      36.893836      36.893836      36.893836    
 171000000   0.29931133    -8.1383118     -7.6893512      0.98864954     50218.233      36.893836      36.893836      36.893836    
 172000000   0.29984022    -8.136365      -7.686611       0.99051785     50218.233      36.893836      36.893836      36.893836    
 173000000   0.29916887    -8.1339295     -7.6851826      1.0102064      50218.233      36.893836      36.893836      36.893836    
 174000000   0.30084676    -8.1348537     -7.68359        1.0050218      50218.233      36.893836      36.893836      36.893836    
 175000000   0.29957235    -8.1367541     -7.687402       0.99412731     50218.233      36.893836      36.893836      36.893836    
 176000000   0.29977769    -8.1372706     -7.6876105      0.98755337     50218.233      36.893836      36.893836      36.893836    
 177000000   0.29791694    -8.1349957     -7.6881267      0.99820684     50218.233      36.893836      36.893836      36.893836    
 178000000   0.29999294    -8.1351979     -7.6852149      1.0050748      50218.233      36.893836      36.893836      36.893836    
 179000000   0.29963214    -8.1377359     -7.6882941      0.98814742     50218.233      36.893836      36.893836      36.893836    
 180000000   0.30017831    -8.138042      -7.6877809      0.97472942     50218.233      36.893836      36.893836      36.893836    
 181000000   0.30008088    -8.1351283     -7.6850134      0.99405546     50218.233      36.893836      36.893836      36.893836    
 182000000   0.29918912    -8.1342203     -7.685443       1.0160383      50218.233      36.893836      36.893836      36.893836    
 183000000   0.2994274     -8.1382302     -7.6890955      0.97726759     50218.233      36.893836      36.893836      36.893836    
 184000000   0.29998698    -8.1387583     -7.6887842      0.98136501     50218.233      36.893836      36.893836      36.893836    
 185000000   0.30090905    -8.1355419     -7.6841847      1.0064912      50218.233      36.893836      36.893836      36.893836    
 186000000   0.30149822    -8.1361818     -7.6839409      0.99684178     50218.233      36.893836      36.893836      36.893836    
 187000000   0.30072756    -8.1383117     -7.6872267      0.98180465     50218.233      36.893836      36.893836      36.893836    
 188000000   0.30038195    -8.1368869     -7.6863204      0.99448314     50218.233      36.893836      36.893836      36.893836    
 189000000   0.30108495    -8.1344107     -7.6827897      1.0052424      50218.233      36.893836      36.893836      36.893836    
 190000000   0.29980962    -8.1388552     -7.6891472      0.98173247     50218.233      36.893836      36.893836      36.893836    
 191000000   0.29812237    -8.1372027     -7.6900255      0.98915798     50218.233      36.893836      36.893836      36.893836    
 192000000   0.29858351    -8.1387211     -7.6908523      0.97034396     50218.233      36.893836      36.893836      36.893836    
 193000000   0.29999935    -8.1378185     -7.6878259      0.97334568     50218.233      36.893836      36.893836      36.893836    
 194000000   0.30004566    -8.1389703     -7.6889082      0.97572813     50218.233      36.893836      36.893836      36.893836    
 195000000   0.29938206    -8.1378298     -7.688763       0.98159567     50218.233      36.893836      36.893836      36.893836    
 196000000   0.29998603    -8.1377737     -7.6878011      0.98081707     50218.233      36.893836      36.893836      36.893836    
 197000000   0.30039729    -8.1356305     -7.6850409      1.0031475      50218.233      36.893836      36.893836      36.893836    
 198000000   0.29874786    -8.139847      -7.6917316      0.96524197     50218.233      36.893836      36.893836      36.893836    
 199000000   0.30080063    -8.1379027     -7.6867081      0.98569939     50218.233      36.893836      36.893836      36.893836    
 200000000   0.30158567    -8.1408213     -7.6884492      0.97108017     50218.233      36.893836      36.893836      36.893836    
 201000000   0.30038189    -8.1403313     -7.6897649      0.96397481     50218.233      36.893836      36.893836      36.893836    
 202000000   0.30019298    -8.1388291     -7.6885461      0.98535305     50218.233      36.893836      36.893836      36.893836    
 203000000   0.29831634    -8.1364138     -7.6889457      0.99413995     50218.233      36.893836      36.893836      36.893836    
 204000000   0.30096271    -8.1354694     -7.6840318      1.0039523      50218.233      36.893836      36.893836      36.893836    
 205000000   0.30008028    -8.1395889     -7.6894749      0.97455012     50218.233      36.893836      36.893836      36.893836    
 206000000   0.29943969    -8.139258      -7.6901048      0.97673148     50218.233      36.893836      36.893836      36.893836    
 207000000   0.29899243    -8.1399587     -7.6914765      0.96459149     50218.233      36.893836      36.893836      36.893836    
 208000000   0.29998266    -8.1380916     -7.688124       0.98191996     50218.233      36.893836      36.893836      36.893836    
 209000000   0.29999176    -8.1366958     -7.6867146      0.99654159     50218.233      36.893836      36.893836      36.893836    
 210000000   0.29918104    -8.1396115     -7.6908463      0.96889485     50218.233      36.893836      36.893836      36.893836    
 211000000   0.29767559    -8.1370722     -7.6905651      0.99175554     50218.233      36.893836      36.893836      36.893836    
 212000000   0.30002436    -8.1382422     -7.6882121      0.98444951     50218.233      36.893836      36.893836      36.893836    
 213000000   0.29869884    -8.1369944     -7.6889525      0.99485639     50218.233      36.893836      36.893836      36.893836    
 214000000   0.30087836    -8.1328136     -7.6815025      1.0281758      50218.233      36.893836      36.893836      36.893836    
 215000000   0.30038002    -8.134952      -7.6843884      1.0107163      50218.233      36.893836      36.893836      36.893836    
 216000000   0.29939413    -8.1384239     -7.6893391      0.98419386     50218.233      36.893836      36.893836      36.893836    
 217000000   0.30036948    -8.1344558     -7.683908       1.0135034      50218.233      36.893836      36.893836      36.893836    
 218000000   0.29945863    -8.1374691     -7.6882875      0.99193018     50218.233      36.893836      36.893836      36.893836    
 219000000   0.29953324    -8.1369334     -7.6876399      0.98967572     50218.233      36.893836      36.893836      36.893836    
 220000000   0.29971289    -8.1366845     -7.6871215      0.98672145     50218.233      36.893836      36.893836      36.893836    
 221000000   0.30214027    -8.1384868     -7.6852829      0.98250607     50218.233      36.893836      36.893836      36.893836    
 222000000   0.30035886    -8.1354138     -7.6848819      1.0009737      50218.233      36.893836      36.893836      36.893836    
 223000000   0.29927249    -8.1400668     -7.6911644      0.96329156     50218.233      36.893836      36.893836      36.893836    
 224000000   0.30024884    -8.1357484     -7.6853815      0.99782883     50218.233      36.893836      36.893836      36.893836    
 225000000   0.30103122    -8.1375025     -7.685962       0.99243101     50218.233      36.893836      36.893836      36.893836    
 226000000   0.29938125    -8.1367471     -7.6876816      0.99831152     50218.233      36.893836      36.893836      36.893836    
 227000000   0.29997998    -8.1381008     -7.6881372      0.98538315     50218.233      36.893836      36.893836      36.893836    
 228000000   0.29906725    -8.1360087     -7.6874142      0.99937004     50218.233      36.893836      36.893836      36.893836    
 229000000   0.30277836    -8.1367179     -7.6825568      0.99777709     50218.233      36.893836      36.893836      36.893836    
 230000000   0.29949218    -8.1380839     -7.6888521      0.9872268      50218.233      36.893836      36.893836      36.893836    
 231000000   0.3005407     -8.1347413     -7.6839366      1.0100397      50218.233      36.893836      36.893836      36.893836    
 232000000   0.30066201    -8.1379295     -7.6869429      0.98776342     50218.233      36.893836      36.893836      36.893836    
 233000000   0.29935687    -8.1396092     -7.6905803      0.97305451     50218.233      36.893836      36.893836      36.893836    
 234000000   0.30092042    -8.1362666     -7.6848924      1.0047992      50218.233      36.893836      36.893836      36.893836    
 235000000   0.29938478    -8.1384963     -7.6894256      0.98295008     50218.233      36.893836      36.893836      36.893836    
 236000000   0.29899134    -8.1373134     -7.6888327      0.98619202     50218.233      36.893836      36.893836      36.893836    
 237000000   0.30042368    -8.1366321     -7.686003       0.99660105     50218.233      36.893836      36.893836      36.893836    
 238000000   0.30051414    -8.1385788     -7.687814       0.97498234     50218.233      36.893836      36.893836      36.893836    
 239000000   0.29915446    -8.13686       -7.6881347      0.99457942     50218.233      36.893836      36.893836      36.893836    
 240000000   0.30016772    -8.1387395     -7.6884943      0.97456476     50218.233      36.893836      36.893836      36.893836    
 241000000   0.29903258    -8.140105      -7.6915625      0.96665388     50218.233      36.893836      36.893836      36.893836    
 242000000   0.30040755    -8.1399012     -7.6892963      0.96231506     50218.233      36.893836      36.893836      36.893836    
 243000000   0.30055476    -8.1381763     -7.6873506      0.97359013     50218.233      36.893836      36.893836      36.893836    
 244000000   0.30124405    -8.1386158     -7.6867562      0.98377431     50218.233      36.893836      36.893836      36.893836    
 245000000   0.29944534    -8.1383391     -7.6891775      0.98017741     50218.233      36.893836      36.893836      36.893836    
 246000000   0.30114033    -8.1397486     -7.6880445      0.96135744     50218.233      36.893836      36.893836      36.893836    
 247000000   0.30035644    -8.1352305     -7.6847022      1.0038618      50218.233      36.893836      36.893836      36.893836    
 248000000   0.29973436    -8.1394888     -7.6898937      0.96761837     50218.233      36.893836      36.893836      36.893836    
 249000000   0.29998442    -8.1380154     -7.6880452      0.98367241     50218.233      36.893836      36.893836      36.893836    
 250000000   0.30067035    -8.1408364     -7.6898373      0.96413262     50218.233      36.893836      36.893836      36.893836    
 251000000   0.29917352    -8.1395623     -7.6908084      0.96894969     50218.233      36.893836      36.893836      36.893836    
 252000000   0.30052709    -8.1380737     -7.6872895      0.98501631     50218.233      36.893836      36.893836      36.893836    
 253000000   0.29848217    -8.1381422     -7.6904253      0.97440543     50218.233      36.893836      36.893836      36.893836    
 254000000   0.30070927    -8.1378998     -7.6868423      0.9822185      50218.233      36.893836      36.893836      36.893836    
 255000000   0.3007591     -8.1364111     -7.6852789      0.99536531     50218.233      36.893836      36.893836      36.893836    
 256000000   0.30070552    -8.1375889     -7.686537       0.98636671     50218.233      36.893836      36.893836      36.893836    
 257000000   0.30008671    -8.1390418     -7.6889181      0.97372849     50218.233      36.893836      36.893836      36.893836    
 258000000   0.30026722    -8.140074      -7.6896795      0.96590925     50218.233      36.893836      36.893836      36.893836    
 259000000   0.30143555    -8.1368451     -7.6846982      0.99148785     50218.233      36.893836      36.893836      36.893836    
 260000000   0.30110907    -8.1385184     -7.6868612      0.98261532     50218.233      36.893836      36.893836      36.893836    
 261000000   0.29988466    -8.1383233     -7.6885028      0.97833688     50218.233      36.893836      36.893836      36.893836    
 262000000   0.29981007    -8.1389749     -7.6892662      0.96936293     50218.233      36.893836      36.893836      36.893836    
 263000000   0.30003718    -8.1371898     -7.6871404      0.98272253     50218.233      36.893836      36.893836      36.893836    
 264000000   0.30035034    -8.1404263     -7.6899072      0.95817902     50218.233      36.893836      36.893836      36.893836    
 265000000   0.29879964    -8.1391355     -7.6909424      0.97193178     50218.233      36.893836      36.893836      36.893836    
 266000000   0.29986812    -8.1370649     -7.6872691      0.99387031     50218.233      36.893836      36.893836      36.893836    
 267000000   0.30029818    -8.1386752     -7.6882343      0.98013489     50218.233      36.893836      36.893836      36.893836    
 268000000   0.29970476    -8.1364795     -7.6869288      0.99518931     50218.233      36.893836      36.893836      36.893836    
 269000000   0.29872316    -8.1368235     -7.6887451      0.99507466     50218.233      36.893836      36.893836      36.893836    
 270000000   0.29941018    -8.1368053     -7.6876964      0.9902379      50218.233      36.893836      36.893836      36.893836    
 271000000   0.2994104     -8.1385253     -7.6894161      0.97843552     50218.233      36.893836      36.893836      36.893836    
 272000000   0.30153915    -8.1370113     -7.684709       0.98712257     50218.233      36.893836      36.893836      36.893836    
 273000000   0.30172178    -8.1375057     -7.6849295      0.99484806     50218.233      36.893836      36.893836      36.893836    
 274000000   0.30003063    -8.1371851     -7.6871455      0.98815201     50218.233      36.893836      36.893836      36.893836    
 275000000   0.30097423    -8.1355824     -7.6841275      1.0010806      50218.233      36.893836      36.893836      36.893836    
 276000000   0.29974203    -8.1374065     -7.6877999      0.98740058     50218.233      36.893836      36.893836      36.893836    
 277000000   0.2990996     -8.1362665     -7.6876235      1.0011949      50218.233      36.893836      36.893836      36.893836    
 278000000   0.29942386    -8.1361508     -7.6870214      1.00577        50218.233      36.893836      36.893836      36.893836    
 279000000   0.29954819    -8.1383144     -7.6889985      0.98385534     50218.233      36.893836      36.893836      36.893836    
 280000000   0.29965293    -8.136702      -7.687229       0.99108495     50218.233      36.893836      36.893836      36.893836    
 281000000   0.30055109    -8.1375228     -7.6867026      0.98675458     50218.233      36.893836      36.893836      36.893836    
 282000000   0.2987571     -8.1359116     -7.6877824      0.99860608     50218.233      36.893836      36.893836      36.893836    
 283000000   0.29964326    -8.1363508     -7.6868923      0.99214211     50218.233      36.893836      36.893836      36.893836    
 284000000   0.30028027    -8.1364502     -7.6860362      1.0017452      50218.233      36.893836      36.893836      36.893836    
 285000000   0.30158306    -8.1368338     -7.6844656      0.9925574      50218.233      36.893836      36.893836      36.893836    
 286000000   0.29875391    -8.1362457     -7.6881212      0.99148525     50218.233      36.893836      36.893836      36.893836    
 287000000   0.29991572    -8.1378949     -7.6880277      0.9775381      50218.233      36.893836      36.893836      36.893836    
 288000000   0.30062552    -8.1362851     -7.6853532      1.0013392      50218.233      36.893836      36.893836      36.893836    
 289000000   0.29914849    -8.137073      -7.6883566      0.9922513      50218.233      36.893836      36.893836      36.893836    
 290000000   0.29965007    -8.136006      -7.6865373      0.9967599      50218.233      36.893836      36.893836      36.893836    
 291000000   0.30056475    -8.1383071     -7.6874664      0.98278511     50218.233      36.893836      36.893836      36.893836    
 292000000   0.29925427    -8.1363637     -7.6874886      0.99203805     50218.233      36.893836      36.893836      36.893836    
 293000000   0.30014527    -8.1357721     -7.6855606      0.99990189     50218.233      36.893836      36.893836      36.893836    
 294000000   0.2990302     -8.1389269     -7.690388       0.97914753     50218.233      36.893836      36.893836      36.893836    
 295000000   0.30167103    -8.1394041     -7.686904       0.97446895     50218.233      36.893836      36.893836      36.893836    
 296000000   0.30093198    -8.1396426     -7.688251       0.97057086     50218.233      36.893836      36.893836      36.893836    
 297000000   0.30011768    -8.1393598     -7.6891897      0.97561664     50218.233      36.893836      36.893836      36.893836    
 298000000   0.29829207    -8.1364395     -7.6890078      0.99703132     50218.233      36.893836      36.893836      36.893836    
 299000000   0.2997063     -8.1402321     -7.6906791      0.97405898     50218.233      36.893836      36.893836      36.893836    
 300000000   0.29911284    -8.1405566     -7.6918937      0.95475554     50218.233      36.893836      36.893836      36.893836    
 301000000   0.29966485    -8.1401755     -7.6906846      0.97079642     50218.233      36.893836      36.893836      36.893836    
 302000000   0.29788688    -8.1373883     -7.6905643      0.99376571     50218.233      36.893836      36.893836      36.893836    
 303000000   0.30126011    -8.139741      -7.6878573      0.96963116     50218.233      36.893836      36.893836      36.893836    
 304000000   0.2995897     -8.1392131     -7.6898349      0.9756676      50218.233      36.893836      36.893836      36.893836    
 305000000   0.29964933    -8.1400321     -7.6905645      0.96556766     50218.233      36.893836      36.893836      36.893836    
 306000000   0.29959318    -8.1378144     -7.688431       0.99195932     50218.233      36.893836      36.893836      36.893836    
 307000000   0.30019288    -8.1388528     -7.6885699      0.97362876     50218.233      36.893836      36.893836      36.893836    
 308000000   0.3003092     -8.1376959     -7.6872385      0.98856844     50218.233      36.893836      36.893836      36.893836    
 309000000   0.30036149    -8.1383423     -7.6878065      0.9934058      50218.233      36.893836      36.893836      36.893836    
 310000000   0.30047158    -8.1377391     -7.6870382      0.98255506     50218.233      36.893836      36.893836      36.893836    
 311000000   0.30013621    -8.1353017     -7.6851038      1.0000084      50218.233      36.893836      36.893836      36.893836    
 312000000   0.30017059    -8.137455      -7.6872055      0.98480578     50218.233      36.893836      36.893836      36.893836    
 313000000   0.30066721    -8.1384988     -7.6875044      0.97531383     50218.233      36.893836      36.893836      36.893836    
 314000000   0.30043753    -8.1377004     -7.6870505      0.98550874     50218.233      36.893836      36.893836      36.893836    
 315000000   0.29877278    -8.1375474     -7.6893946      0.98980965     50218.233      36.893836      36.893836      36.893836    
 316000000   0.29936736    -8.1402071     -7.6911624      0.97690079     50218.233      36.893836      36.893836      36.893836    
 317000000   0.3003466     -8.1409764     -7.6904629      0.96097717     50218.233      36.893836      36.893836      36.893836    
 318000000   0.30144204    -8.1360093     -7.6838526      1.0014064      50218.233      36.893836      36.893836      36.893836    
 319000000   0.29895293    -8.1348557     -7.6864327      1.0030871      50218.233      36.893836      36.893836      36.893836    
 320000000   0.3001711     -8.1359073     -7.6856571      0.99537737     50218.233      36.893836      36.893836      36.893836    
 321000000   0.29990101    -8.1373005     -7.6874554      0.99371058     50218.233      36.893836      36.893836      36.893836    
 322000000   0.29759921    -8.1365033     -7.6901108      0.99186241     50218.233      36.893836      36.893836      36.893836    
 323000000   0.2994959     -8.134445      -7.6852075      1.0067703      50218.233      36.893836      36.893836      36.893836    
 324000000   0.29942569    -8.1387947     -7.6896625      0.97452871     50218.233      36.893836      36.893836      36.893836    
 325000000   0.300991      -8.138469      -7.6869889      0.97532928     50218.233      36.893836      36.893836      36.893836    
 326000000   0.3018329     -8.1365547     -7.6838117      0.99866143     50218.233      36.893836      36.893836      36.893836    
 327000000   0.29911176    -8.1349507     -7.6862894      1.0059395      50218.233      36.893836      36.893836      36.893836    
 328000000   0.30024596    -8.1378416     -7.6874791      0.98464904     50218.233      36.893836      36.893836      36.893836    
 329000000   0.29912905    -8.1381125     -7.6894253      0.981731       50218.233      36.893836      36.893836      36.893836    
 330000000   0.30128308    -8.1374552     -7.685537       0.99134997     50218.233      36.893836      36.893836      36.893836    
 331000000   0.30019874    -8.1356305     -7.6853388      1.0031104      50218.233      36.893836      36.893836      36.893836    
 332000000   0.30075776    -8.1375917     -7.6864615      0.99110187     50218.233      36.893836      36.893836      36.893836    
 333000000   0.29948492    -8.1362073     -7.6869863      0.99427002     50218.233      36.893836      36.893836      36.893836    
 334000000   0.2986961     -8.1399979     -7.6919602      0.96336021     50218.233      36.893836      36.893836      36.893836    
 335000000   0.30059414    -8.1398252     -7.6889404      0.97385243     50218.233      36.893836      36.893836      36.893836    
 336000000   0.30132063    -8.1369826     -7.6850081      0.99638161     50218.233      36.893836      36.893836      36.893836    
 337000000   0.30120948    -8.1385595     -7.6867517      0.98109684     50218.233      36.893836      36.893836      36.893836    
 338000000   0.30019601    -8.1373909     -7.6871033      0.98637568     50218.233      36.893836      36.893836      36.893836    
 339000000   0.29993406    -8.1394465     -7.6895518      0.97317619     50218.233      36.893836      36.893836      36.893836    
 340000000   0.30069036    -8.1398856     -7.6888565      0.96871987     50218.233      36.893836      36.893836      36.893836    
 341000000   0.30120252    -8.1374104     -7.685613       0.99671631     50218.233      36.893836      36.893836      36.893836    
 342000000   0.29981971    -8.1372392     -7.687516       0.98667876     50218.233      36.893836      36.893836      36.893836    
 343000000   0.29844239    -8.1388724     -7.6912152      0.97905277     50218.233      36.893836      36.893836      36.893836    
 344000000   0.30017063    -8.1389684     -7.6887189      0.97638808     50218.233      36.893836      36.893836      36.893836    
 345000000   0.30049977    -8.1394933     -7.68875        0.97809943     50218.233      36.893836      36.893836      36.893836    
 346000000   0.29932566    -8.139761      -7.6907789      0.96507357     50218.233      36.893836      36.893836      36.893836    
 347000000   0.30022271    -8.140774      -7.6904463      0.96219823     50218.233      36.893836      36.893836      36.893836    
 348000000   0.29949425    -8.1387828     -7.6895478      0.97459337     50218.233      36.893836      36.893836      36.893836    
 349000000   0.29952995    -8.1398128     -7.6905243      0.96981485     50218.233      36.893836      36.893836      36.893836    
 350000000   0.29992943    -8.1374737     -7.6875859      0.99814013     50218.233      36.893836      36.893836      36.893836    
 351000000   0.30040517    -8.1413617     -7.6907604      0.95678255     50218.233      36.893836      36.893836      36.893836    
 352000000   0.30178859    -8.1384711     -7.6857946      0.9848207      50218.233      36.893836      36.893836      36.893836    
 353000000   0.30163256    -8.1422587     -7.6898162      0.9588868      50218.233      36.893836      36.893836      36.893836    
 354000000   0.29955305    -8.1387275     -7.6894043      0.9704964      50218.233      36.893836      36.893836      36.893836    
 355000000   0.29868705    -8.1393512     -7.691327       0.96830159     50218.233      36.893836      36.893836      36.893836    
 356000000   0.30077293    -8.1400706     -7.6889176      0.96782412     50218.233      36.893836      36.893836      36.893836    
 357000000   0.30028731    -8.1387899     -7.6883653      0.97463448     50218.233      36.893836      36.893836      36.893836    
 358000000   0.3004091     -8.1382211     -7.6876139      0.97824622     50218.233      36.893836      36.893836      36.893836    
 359000000   0.30004503    -8.1375982     -7.687537       0.98682145     50218.233      36.893836      36.893836      36.893836    
 360000000   0.30033105    -8.1393084     -7.6888183      0.97579653     50218.233      36.893836      36.893836      36.893836    
 361000000   0.29902106    -8.1390379     -7.6905127      0.97345163     50218.233      36.893836      36.893836      36.893836    
 362000000   0.29965301    -8.1372589     -7.6877858      0.98693695     50218.233      36.893836      36.893836      36.893836    
 363000000   0.29920494    -8.1383612     -7.6895602      0.9798374      50218.233      36.893836      36.893836      36.893836    
 364000000   0.3008285     -8.137753      -7.6865166      0.98768697     50218.233      36.893836      36.893836      36.893836    
 365000000   0.29970856    -8.1365867     -7.6870303      0.99109652     50218.233      36.893836      36.893836      36.893836    
 366000000   0.29878426    -8.1374215     -7.6892515      0.97995839     50218.233      36.893836      36.893836      36.893836    
 367000000   0.29825135    -8.1349476     -7.6875769      1.0084445      50218.233      36.893836      36.893836      36.893836    
 368000000   0.30078942    -8.1373487     -7.686171       0.99788216     50218.233      36.893836      36.893836      36.893836    
 369000000   0.29970644    -8.1388365     -7.6892832      0.98012742     50218.233      36.893836      36.893836      36.893836    
 370000000   0.30037626    -8.1363757     -7.6858177      0.99588598     50218.233      36.893836      36.893836      36.893836    
 371000000   0.29995751    -8.1363935     -7.6864637      0.99747325     50218.233      36.893836      36.893836      36.893836    
 372000000   0.30155581    -8.1353876     -7.6830604      1.0059684      50218.233      36.893836      36.893836      36.893836    
 373000000   0.30064677    -8.1357948     -7.6848311      0.99951105     50218.233      36.893836      36.893836      36.893836    
 374000000   0.30096168    -8.1385752     -7.6871391      0.98310931     50218.233      36.893836      36.893836      36.893836    
 375000000   0.30156548    -8.1358853     -7.6835435      1.0009081      50218.233      36.893836      36.893836      36.893836    
 376000000   0.30075956    -8.1369402     -7.6858072      0.99118963     50218.233      36.893836      36.893836      36.893836    
 377000000   0.29869537    -8.1357633     -7.6877266      0.99372211     50218.233      36.893836      36.893836      36.893836    
 378000000   0.29966305    -8.1389088     -7.6894206      0.97584963     50218.233      36.893836      36.893836      36.893836    
 379000000   0.30106485    -8.1365435     -7.6849526      1.0010385      50218.233      36.893836      36.893836      36.893836    
 380000000   0.30145561    -8.1384638     -7.6862868      0.98409069     50218.233      36.893836      36.893836      36.893836    
 381000000   0.2980063     -8.1376418     -7.6906387      0.98992108     50218.233      36.893836      36.893836      36.893836    
 382000000   0.29855178    -8.1350976     -7.6872763      1.0043972      50218.233      36.893836      36.893836      36.893836    
 383000000   0.30024273    -8.1385769     -7.6882192      0.97828753     50218.233      36.893836      36.893836      36.893836    
 384000000   0.3000201     -8.1357444     -7.6857207      1.0042461      50218.233      36.893836      36.893836      36.893836    
 385000000   0.30022626    -8.1366708     -7.6863378      0.99001956     50218.233      36.893836      36.893836      36.893836    
 386000000   0.29906085    -8.1384498     -7.6898649      0.98340581     50218.233      36.893836      36.893836      36.893836    
 387000000   0.29988526    -8.1378246     -7.6880031      0.97947552     50218.233      36.893836      36.893836      36.893836    
 388000000   0.29964661    -8.1361028     -7.6866393      0.99454412     50218.233      36.893836      36.893836      36.893836    
 389000000   0.30014265    -8.1365561     -7.6863485      0.99676885     50218.233      36.893836      36.893836      36.893836    
 390000000   0.29849766    -8.1373345     -7.6895944      0.98704053     50218.233      36.893836      36.893836      36.893836    
 391000000   0.2998559     -8.1372638     -7.6874863      0.98952579     50218.233      36.893836      36.893836      36.893836    
 392000000   0.29950722    -8.137673      -7.6884185      0.98768429     50218.233      36.893836      36.893836      36.893836    
 393000000   0.30113123    -8.1393775     -7.6876871      0.97735212     50218.233      36.893836      36.893836      36.893836    
 394000000   0.30023621    -8.1359916     -7.6856437      0.99347856     50218.233      36.893836      36.893836      36.893836    
 395000000   0.30027225    -8.1381961     -7.6877941      0.98098323     50218.233      36.893836      36.893836      36.893836    
 396000000   0.30052953    -8.1379955     -7.6872076      1.002153       50218.233      36.893836      36.893836      36.893836    
 397000000   0.29943753    -8.1421523     -7.6930024      0.95200253     50218.233      36.893836      36.893836      36.893836    
 398000000   0.29952182    -8.1401268     -7.6908505      0.969203       50218.233      36.893836      36.893836      36.893836    
 399000000   0.30101949    -8.1378243     -7.6863015      0.99072963     50218.233      36.893836      36.893836      36.893836    
 400000000   0.29879164    -8.1398528     -7.6916717      0.97037656     50218.233      36.893836      36.893836      36.893836    
 401000000   0.29997236    -8.1358425     -7.6858904      1.0056658      50218.233      36.893836      36.893836      36.893836    
 402000000   0.29907782    -8.1406532     -7.6920428      0.96186782     50218.233      36.893836      36.893836      36.893836    
 403000000   0.30141314    -8.140709      -7.6885957      0.97052203     50218.233      36.893836      36.893836      36.893836    
 404000000   0.29960983    -8.1356794     -7.686271       1.0027243      50218.233      36.893836      36.893836      36.893836    
 405000000   0.29980484    -8.140341      -7.6906401      0.96762615     50218.233      36.893836      36.893836      36.893836    
 406000000   0.3000423     -8.1381775     -7.6881205      0.98447626     50218.233      36.893836      36.893836      36.893836    
 407000000   0.30016838    -8.1414023     -7.6911561      0.96044161     50218.233      36.893836      36.893836      36.893836    
 408000000   0.29970244    -8.1384419     -7.6888946      0.98620737     50218.233      36.893836      36.893836      36.893836    
 409000000   0.29948422    -8.1374177     -7.6881977      0.998913       50218.233      36.893836      36.893836      36.893836    
 410000000   0.30081601    -8.1378433     -7.6866256      0.98634516     50218.233      36.893836      36.893836      36.893836    
 411000000   0.3019466     -8.1374482     -7.6845347      0.99540903     50218.233      36.893836      36.893836      36.893836    
 412000000   0.30004652    -8.1396334     -7.6895701      0.97811748     50218.233      36.893836      36.893836      36.893836    
 413000000   0.29973214    -8.1394629     -7.6898711      0.96929926     50218.233      36.893836      36.893836      36.893836    
 414000000   0.29875024    -8.1388356     -7.6907166      0.97942721     50218.233      36.893836      36.893836      36.893836    
 415000000   0.29940815    -8.1363505     -7.6872447      0.99767827     50218.233      36.893836      36.893836      36.893836    
 416000000   0.30109297    -8.1359817     -7.6843486      0.9981689      50218.233      36.893836      36.893836      36.893836    
 417000000   0.29854183    -8.1364439     -7.6886375      0.98816718     50218.233      36.893836      36.893836      36.893836    
 418000000   0.29995045    -8.1370691     -7.6871498      0.99509297     50218.233      36.893836      36.893836      36.893836    
 419000000   0.29877368    -8.1376059     -7.6894517      0.99218416     50218.233      36.893836      36.893836      36.893836    
 420000000   0.30017502    -8.1361711     -7.685915       0.99129951     50218.233      36.893836      36.893836      36.893836    
 421000000   0.30066681    -8.1377999     -7.6868061      0.98930774     50218.233      36.893836      36.893836      36.893836    
 422000000   0.29958956    -8.136879      -7.6875011      0.99574117     50218.233      36.893836      36.893836      36.893836    
 423000000   0.30019337    -8.1372789     -7.6869953      0.99545388     50218.233      36.893836      36.893836      36.893836    
 424000000   0.30108993    -8.1385278     -7.6868993      0.99636349     50218.233      36.893836      36.893836      36.893836    
 425000000   0.29878574    -8.1385397     -7.6903675      0.98780885     50218.233      36.893836      36.893836      36.893836    
 426000000   0.29897731    -8.1371247     -7.6886651      0.99610328     50218.233      36.893836      36.893836      36.893836    
 427000000   0.29941788    -8.1361031     -7.6869827      0.9962216      50218.233      36.893836      36.893836      36.893836    
 428000000   0.30153788    -8.1372068     -7.6849065      0.99748515     50218.233      36.893836      36.893836      36.893836    
 429000000   0.2991112     -8.1355327     -7.6868723      0.99970677     50218.233      36.893836      36.893836      36.893836    
 430000000   0.29957461    -8.1372129     -7.6878574      0.98579401     50218.233      36.893836      36.893836      36.893836    
 431000000   0.30055843    -8.1374894     -7.6866581      0.99414995     50218.233      36.893836      36.893836      36.893836    
 432000000   0.30081394    -8.1364662     -7.6852517      1.0018479      50218.233      36.893836      36.893836      36.893836    
 433000000   0.30169741    -8.1367112     -7.6841715      0.99792331     50218.233      36.893836      36.893836      36.893836    
 434000000   0.29956588    -8.1402625     -7.69092        0.96893348     50218.233      36.893836      36.893836      36.893836    
 435000000   0.29913012    -8.1359898     -7.687301       1.0042959      50218.233      36.893836      36.893836      36.893836    
 436000000   0.30070154    -8.1374157     -7.6863698      0.98629779     50218.233      36.893836      36.893836      36.893836    
 437000000   0.30199668    -8.1398357     -7.6868472      0.97042369     50218.233      36.893836      36.893836      36.893836    
 438000000   0.30152454    -8.1366859     -7.6844055      1.0043513      50218.233      36.893836      36.893836      36.893836    
 439000000   0.30174411    -8.1392479     -7.6866381      0.98000432     50218.233      36.893836      36.893836      36.893836    
 440000000   0.30000389    -8.139297      -7.6892976      0.97418984     50218.233      36.893836      36.893836      36.893836    
 441000000   0.29995058    -8.13936       -7.6894405      0.97361372     50218.233      36.893836      36.893836      36.893836    
 442000000   0.30105031    -8.1366257     -7.6850566      0.99827738     50218.233      36.893836      36.893836      36.893836    
 443000000   0.29900661    -8.1379307     -7.6894272      0.9808836      50218.233      36.893836      36.893836      36.893836    
 444000000   0.29950583    -8.1391589     -7.6899066      0.97232955     50218.233      36.893836      36.893836      36.893836    
 445000000   0.29858003    -8.1383116     -7.6904479      0.97577588     50218.233      36.893836      36.893836      36.893836    
 446000000   0.29980459    -8.1375706     -7.6878701      0.97649215     50218.233      36.893836      36.893836      36.893836    
 447000000   0.30054923    -8.1371734     -7.686356       0.99569466     50218.233      36.893836      36.893836      36.893836    
 448000000   0.29978652    -8.1402026     -7.6905292      0.96558398     50218.233      36.893836      36.893836      36.893836    
 449000000   0.29936099    -8.138333      -7.6892979      0.98360839     50218.233      36.893836      36.893836      36.893836    
 450000000   0.29927327    -8.1424241     -7.6935205      0.95616164     50218.233      36.893836      36.893836      36.893836    
 451000000   0.30046487    -8.1378459     -7.687155       0.98571162     50218.233      36.893836      36.893836      36.893836    
 452000000   0.30139137    -8.1378832     -7.6858026      0.98822682     50218.233      36.893836      36.893836      36.893836    
 453000000   0.30051833    -8.1387136     -7.6879426      0.97988793     50218.233      36.893836      36.893836      36.893836    
 454000000   0.2989555     -8.1396795     -7.6912526      0.96987556     50218.233      36.893836      36.893836      36.893836    
 455000000   0.30095359    -8.1367341     -7.6853102      0.99695166     50218.233      36.893836      36.893836      36.893836    
 456000000   0.2986484     -8.138242      -7.6902758      0.98215863     50218.233      36.893836      36.893836      36.893836    
 457000000   0.30070966    -8.1393679     -7.6883098      0.98338985     50218.233      36.893836      36.893836      36.893836    
 458000000   0.30192504    -8.1381481     -7.6852669      0.98908848     50218.233      36.893836      36.893836      36.893836    
 459000000   0.30081415    -8.1402542     -7.6890394      0.9653215      50218.233      36.893836      36.893836      36.893836    
 460000000   0.29884299    -8.1366648     -7.6884067      0.9879129      50218.233      36.893836      36.893836      36.893836    
 461000000   0.29990934    -8.1373431     -7.6874855      0.98593031     50218.233      36.893836      36.893836      36.893836    
 462000000   0.30063753    -8.1390651     -7.6881152      0.97057062     50218.233      36.893836      36.893836      36.893836    
 463000000   0.2989583     -8.1391231     -7.6906921      0.97513807     50218.233      36.893836      36.893836      36.893836    
 464000000   0.30070344    -8.1384198     -7.687371       0.98105783     50218.233      36.893836      36.893836      36.893836    
 465000000   0.30096233    -8.1403835     -7.6889465      0.97302064     50218.233      36.893836      36.893836      36.893836    
 466000000   0.30061839    -8.1381562     -7.6872351      0.97891812     50218.233      36.893836      36.893836      36.893836    
 467000000   0.29986475    -8.1383575     -7.6885668      0.97941796     50218.233      36.893836      36.893836      36.893836    
 468000000   0.29925543    -8.140443      -7.6915663      0.96989335     50218.233      36.893836      36.893836      36.893836    
 469000000   0.30134951    -8.1372917     -7.6852738      0.99037349     50218.233      36.893836      36.893836      36.893836    
 470000000   0.29982892    -8.1383985     -7.6886615      0.98036305     50218.233      36.893836      36.893836      36.893836    
 471000000   0.29976989    -8.1385903     -7.6889418      0.98233936     50218.233      36.893836      36.893836      36.893836    
 472000000   0.30073446    -8.136172      -7.6850767      0.99870563     50218.233      36.893836      36.893836      36.893836    
 473000000   0.30045998    -8.1383019     -7.6876183      0.98893535     50218.233      36.893836      36.893836      36.893836    
 474000000   0.29945582    -8.1386958     -7.6895184      0.97635344     50218.233      36.893836      36.893836      36.893836    
 475000000   0.30118765    -8.1367357     -7.6849607      0.99858385     50218.233      36.893836      36.893836      36.893836    
 476000000   0.30100311    -8.1378887     -7.6863905      0.99773886     50218.233      36.893836      36.893836      36.893836    
 477000000   0.30083797    -8.1374327     -7.6861821      0.99440303     50218.233      36.893836      36.893836      36.893836    
 478000000   0.29959955    -8.1394886     -7.6900956      0.97109349     50218.233      36.893836      36.893836      36.893836    
 479000000   0.30013417    -8.1378923     -7.6876974      0.9927884      50218.233      36.893836      36.893836      36.893836    
 480000000   0.29958404    -8.1372138     -7.6878441      0.98812976     50218.233      36.893836      36.893836      36.893836    
 481000000   0.30097054    -8.1403668     -7.6889174      0.96200236     50218.233      36.893836      36.893836      36.893836    
 482000000   0.30061936    -8.1378738     -7.6869512      0.991463       50218.233      36.893836      36.893836      36.893836    
 483000000   0.30109042    -8.1411371     -7.6895079      0.96935614     50218.233      36.893836      36.893836      36.893836    
 484000000   0.29959173    -8.13996       -7.6905788      0.96509087     50218.233      36.893836      36.893836      36.893836    
 485000000   0.29832967    -8.1394422     -7.6919541      0.97186479     50218.233      36.893836      36.893836      36.893836    
 486000000   0.30053342    -8.1359047     -7.685111       1.0075167      50218.233      36.893836      36.893836      36.893836    
 487000000   0.29953969    -8.138551      -7.6892479      0.98871136     50218.233      36.893836      36.893836      36.893836    
 488000000   0.29831733    -8.1392184     -7.6917488      0.97457392     50218.233      36.893836      36.893836      36.893836    
 489000000   0.30175811    -8.1386035     -7.6859728      0.98904522     50218.233      36.893836      36.893836      36.893836    
 490000000   0.29773135    -8.1375257     -7.690935       0.98674103     50218.233      36.893836      36.893836      36.893836    
 491000000   0.30168358    -8.1376875     -7.6851686      0.99103439     50218.233      36.893836      36.893836      36.893836    
 492000000   0.29983572    -8.1378415     -7.6880943      0.98811471     50218.233      36.893836      36.893836      36.893836    
 493000000   0.30011051    -8.140841      -7.6906817      0.96792594     50218.233      36.893836      36.893836      36.893836    
 494000000   0.30064374    -8.1408021     -7.6898429      0.96264106     50218.233      36.893836      36.893836      36.893836    
 495000000   0.29999116    -8.1401429     -7.6901625      0.96618796     50218.233      36.893836      36.893836      36.893836    
 496000000   0.29864973    -8.1383942     -7.690426       0.97783152     50218.233      36.893836      36.893836      36.893836    
 497000000   0.29942978    -8.140523      -7.6913847      0.9645494      50218.233      36.893836      36.893836      36.893836    
 498000000   0.30006265    -8.138877      -7.6887894      0.97492967     50218.233      36.893836      36.893836      36.893836    
 499000000   0.30183485    -8.1377556     -7.6850098      0.98564952     50218.233      36.893836      36.893836      36.893836    
 500000000   0.30088507    -8.1396226     -7.6883014      0.97978726     50218.233      36.893836      36.893836      36.893836    
Loop time of 792831 on 5 procs for 500000000 steps with 70304 atoms

Performance: 544882.832 tau/day, 630.651 timesteps/s, 44.337 Matom-step/s
94.5% CPU use with 5 MPI tasks x 1 OpenMP threads

MPI task timing breakdown:
Section |  min time  |  avg time  |  max time  |%varavg| %total
---------------------------------------------------------------
Pair    | 2.8054e+05 | 3.2038e+05 | 3.6454e+05 |5374.6 | 40.41
Neigh   | 1913.3     | 2024.5     | 2150.2     | 220.4 |  0.26
Comm    | 1.0941e+05 | 1.0976e+05 | 1.1062e+05 | 133.4 | 13.84
Output  | 0.090386   | 0.093718   | 0.099765   |   1.1 |  0.00
Modify  | 2.7971e+05 | 3.2335e+05 | 3.6359e+05 |5322.1 | 40.78
Other   |            | 3.731e+04  |            |       |  4.71

Nlocal:        14060.8 ave       14138 max       14007 min
Histogram: 1 1 1 0 0 0 1 0 0 1
Nghost:        18741.8 ave       18788 max       18701 min
Histogram: 1 1 0 0 1 0 0 1 0 1
Neighs:              0 ave           0 max           0 min
Histogram: 5 0 0 0 0 0 0 0 0 0

Total # of neighbors = 0
Ave neighs/atom = 0
Neighbor list builds = 82375927
Dangerous builds = 0
clear
OMP_NUM_THREADS environment is not set. Defaulting to 1 thread. (src/comm.cpp:98)
  using 1 OpenMP thread(s) per MPI task
package gpu 0
jump dms280.lmp

variable T equal 280
# T = 1000* (temp in LJ unit)
variable f equal 1000000
log log.${T}
log log.280
