variable TLJ equal (${T}/1000)
variable TLJ equal (360/1000)
variable NCyle equal 5
variable iStep equal (${f})
variable iStep equal (1000000)
variable dumpStep equal (${f}*100)
variable dumpStep equal (1000000*100)
variable runStep equal (${f}*100*${NCyle})
variable runStep equal (1000000*100*${NCyle})
variable runStep equal (1000000*100*5)

units       lj
atom_style  atomic
dimension 3
boundary     p p p
pair_style  lj/cut 2.5
read_data  ../data/T${T}.dat
read_data  ../data/T360.dat
Reading data file ...
  orthogonal box = (0.97250269 0.97250269 0.97250269) to (37.866338 37.866338 37.866338)
  1 by 1 by 5 MPI processor grid
  reading atoms ...
  70304 atoms
  reading velocities ...
  70304 velocities
  read_data CPU = 0.289 seconds
change_box all triclinic
Changing box ...
  triclinic box = (0.97250269 0.97250269 0.97250269) to (37.866338 37.866338 37.866338) with tilt (0 0 0)
mass 1 1
mass 2 1
pair_modify shift yes
pair_coeff  1 1 1 1
pair_coeff  1 2 1.5 0.8
pair_coeff  2 2 0.5 0.88


timestep 0.01
thermo ${iStep}
thermo 1000000
reset_timestep 0
thermo_style custom step temp pe etotal press vol lx ly lz
fix             1 all nvt temp ${TLJ}  ${TLJ}  0.1
fix             1 all nvt temp 0.36  ${TLJ}  0.1
fix             1 all nvt temp 0.36  0.36  0.1
thermo_modify flush yes

fix dsf all deform 1 xy  wiggle 0.5  ${f}   units box
fix dsf all deform 1 xy  wiggle 0.5  1000000   units box
fix ps1 all ave/time 1 1 ${iStep} c_thermo_press[1] c_thermo_press[2]  c_thermo_press[3] c_thermo_press[4]  c_thermo_press[5] c_thermo_press[6]  file  stress.${T}
fix ps1 all ave/time 1 1 1000000 c_thermo_press[1] c_thermo_press[2]  c_thermo_press[3] c_thermo_press[4]  c_thermo_press[5] c_thermo_press[6]  file  stress.${T}
fix ps1 all ave/time 1 1 1000000 c_thermo_press[1] c_thermo_press[2]  c_thermo_press[3] c_thermo_press[4]  c_thermo_press[5] c_thermo_press[6]  file  stress.360
dump            1 all custom ${dumpStep} dump.${T} id type x y z
dump            1 all custom 100000000 dump.${T} id type x y z
dump            1 all custom 100000000 dump.360 id type x y z
dump_modify 1 sort id
fix nodrift all momentum 1  linear 1 1 1
fix com_seed all recenter INIT INIT INIT shift all
run ${runStep}
run 500000000
Generated 0 of 1 mixed pair_coeff terms from geometric mixing rule
Per MPI rank memory allocation (min/avg/max) = 8.915 | 8.918 | 8.921 Mbytes
   Step          Temp          PotEng         TotEng         Press          Volume           Lx             Ly             Lz      
         0   0.35912937    -8.0525643     -7.5138779      1.7071269      50218.233      36.893836      36.893836      36.893836    
   1000000   0.36087885    -8.0449103     -7.5035998      1.7614551      50218.233      36.893836      36.893836      36.893836    
   2000000   0.3601804     -8.0483549     -7.508092       1.7365068      50218.233      36.893836      36.893836      36.893836    
   3000000   0.36030251    -8.0507678     -7.5103217      1.7078857      50218.233      36.893836      36.893836      36.893836    
   4000000   0.35802917    -8.0503593     -7.5133232      1.7164324      50218.233      36.893836      36.893836      36.893836    
   5000000   0.35882091    -8.0491882     -7.5109645      1.7262361      50218.233      36.893836      36.893836      36.893836    
   6000000   0.36064864    -8.0511794     -7.5102141      1.7154254      50218.233      36.893836      36.893836      36.893836    
   7000000   0.35958456    -8.0502444     -7.5108752      1.7181121      50218.233      36.893836      36.893836      36.893836    
   8000000   0.35999407    -8.0487465     -7.5087631      1.7254906      50218.233      36.893836      36.893836      36.893836    
   9000000   0.35922799    -8.0477986     -7.5089643      1.7430473      50218.233      36.893836      36.893836      36.893836    
  10000000   0.35910373    -8.0478772     -7.5092292      1.7429581      50218.233      36.893836      36.893836      36.893836    
  11000000   0.36169677    -8.0478114     -7.5052739      1.7526213      50218.233      36.893836      36.893836      36.893836    
  12000000   0.36084624    -8.0460777     -7.5048161      1.7621992      50218.233      36.893836      36.893836      36.893836    
  13000000   0.36124452    -8.0480322     -7.5061731      1.7287         50218.233      36.893836      36.893836      36.893836    
  14000000   0.35939475    -8.0486058     -7.5095213      1.728088       50218.233      36.893836      36.893836      36.893836    
  15000000   0.36020484    -8.0498642     -7.5095647      1.7290837      50218.233      36.893836      36.893836      36.893836    
  16000000   0.36099612    -8.0465718     -7.5050853      1.7428876      50218.233      36.893836      36.893836      36.893836    
  17000000   0.35873317    -8.0489313     -7.5108392      1.7364         50218.233      36.893836      36.893836      36.893836    
  18000000   0.36018886    -8.048067      -7.5077914      1.7389024      50218.233      36.893836      36.893836      36.893836    
  19000000   0.36004852    -8.0494588     -7.5093937      1.7255218      50218.233      36.893836      36.893836      36.893836    
  20000000   0.35966282    -8.0479493     -7.5084628      1.7341662      50218.233      36.893836      36.893836      36.893836    
  21000000   0.35906687    -8.0475719     -7.5089793      1.7326348      50218.233      36.893836      36.893836      36.893836    
  22000000   0.36004156    -8.0495747     -7.50952        1.7196862      50218.233      36.893836      36.893836      36.893836    
  23000000   0.359498      -8.0500376     -7.5107983      1.7171163      50218.233      36.893836      36.893836      36.893836    
  24000000   0.3594042     -8.049167      -7.5100684      1.7237625      50218.233      36.893836      36.893836      36.893836    
  25000000   0.36092545    -8.0530201     -7.5116397      1.7098535      50218.233      36.893836      36.893836      36.893836    
  26000000   0.36099865    -8.047925      -7.5064347      1.746999       50218.233      36.893836      36.893836      36.893836    
  27000000   0.36059282    -8.048791      -7.5079094      1.724208       50218.233      36.893836      36.893836      36.893836    
  28000000   0.36032029    -8.04679       -7.5063173      1.749118       50218.233      36.893836      36.893836      36.893836    
  29000000   0.36046906    -8.0476797     -7.5069838      1.7342833      50218.233      36.893836      36.893836      36.893836    
  30000000   0.35950755    -8.0501297     -7.510876       1.7146256      50218.233      36.893836      36.893836      36.893836    
  31000000   0.35827247    -8.0485832     -7.5111822      1.7397897      50218.233      36.893836      36.893836      36.893836    
  32000000   0.36158784    -8.0475553     -7.5051813      1.7448448      50218.233      36.893836      36.893836      36.893836    
  33000000   0.35929902    -8.0479401     -7.5089993      1.7433812      50218.233      36.893836      36.893836      36.893836    
  34000000   0.35752949    -8.050191      -7.5139044      1.709912       50218.233      36.893836      36.893836      36.893836    
  35000000   0.35997313    -8.0500815     -7.5101295      1.7178984      50218.233      36.893836      36.893836      36.893836    
  36000000   0.35881808    -8.0462216     -7.5080022      1.7510384      50218.233      36.893836      36.893836      36.893836    
  37000000   0.35921372    -8.0448388     -7.5060259      1.7623406      50218.233      36.893836      36.893836      36.893836    
  38000000   0.35854845    -8.0513185     -7.5135035      1.7157452      50218.233      36.893836      36.893836      36.893836    
  39000000   0.36074408    -8.0460115     -7.5049031      1.7478706      50218.233      36.893836      36.893836      36.893836    
  40000000   0.36043542    -8.0495762     -7.5089307      1.7223214      50218.233      36.893836      36.893836      36.893836    
  41000000   0.35955095    -8.0463699     -7.5070511      1.7470282      50218.233      36.893836      36.893836      36.893836    
  42000000   0.35980882    -8.0500085     -7.5103029      1.7201273      50218.233      36.893836      36.893836      36.893836    
  43000000   0.36079325    -8.0507526     -7.5095705      1.71411        50218.233      36.893836      36.893836      36.893836    
  44000000   0.36023417    -8.0516249     -7.5112813      1.7042248      50218.233      36.893836      36.893836      36.893836    
  45000000   0.36199843    -8.0498352     -7.5068452      1.720367       50218.233      36.893836      36.893836      36.893836    
  46000000   0.36006535    -8.0484883     -7.5083979      1.7342154      50218.233      36.893836      36.893836      36.893836    
  47000000   0.35913402    -8.0486889     -7.5099955      1.7251109      50218.233      36.893836      36.893836      36.893836    
  48000000   0.35975866    -8.052964      -7.5133337      1.6917428      50218.233      36.893836      36.893836      36.893836    
  49000000   0.35870157    -8.0505426     -7.5124979      1.7137214      50218.233      36.893836      36.893836      36.893836    
  50000000   0.36056986    -8.0488002     -7.5079531      1.7319304      50218.233      36.893836      36.893836      36.893836    
  51000000   0.35846198    -8.0493762     -7.5116909      1.7247815      50218.233      36.893836      36.893836      36.893836    
  52000000   0.36143381    -8.0523579     -7.5102149      1.6948652      50218.233      36.893836      36.893836      36.893836    
  53000000   0.35905411    -8.0472464     -7.5086728      1.7310848      50218.233      36.893836      36.893836      36.893836    
  54000000   0.35849713    -8.0494343     -7.5116962      1.7154808      50218.233      36.893836      36.893836      36.893836    
  55000000   0.35970241    -8.0483812     -7.5088353      1.7335502      50218.233      36.893836      36.893836      36.893836    
  56000000   0.362993      -8.0507304     -7.5062487      1.7165301      50218.233      36.893836      36.893836      36.893836    
  57000000   0.35839541    -8.0520163     -7.5144308      1.7006379      50218.233      36.893836      36.893836      36.893836    
  58000000   0.35926932    -8.0517014     -7.5128051      1.708314       50218.233      36.893836      36.893836      36.893836    
  59000000   0.36006276    -8.0510091     -7.5109227      1.7067596      50218.233      36.893836      36.893836      36.893836    
  60000000   0.35867735    -8.0495617     -7.5115533      1.7211121      50218.233      36.893836      36.893836      36.893836    
  61000000   0.35895926    -8.0488235     -7.5103922      1.7335298      50218.233      36.893836      36.893836      36.893836    
  62000000   0.36074099    -8.04784       -7.5067362      1.7459852      50218.233      36.893836      36.893836      36.893836    
  63000000   0.35784401    -8.0479917     -7.5112334      1.740638       50218.233      36.893836      36.893836      36.893836    
  64000000   0.36113994    -8.0487279     -7.5070257      1.7429701      50218.233      36.893836      36.893836      36.893836    
  65000000   0.35990463    -8.0455069     -7.5056576      1.747902       50218.233      36.893836      36.893836      36.893836    
  66000000   0.35792903    -8.0513545     -7.5144686      1.7106824      50218.233      36.893836      36.893836      36.893836    
  67000000   0.35944272    -8.0502346     -7.5110782      1.719317       50218.233      36.893836      36.893836      36.893836    
  68000000   0.36045949    -8.0493464     -7.5086649      1.7145413      50218.233      36.893836      36.893836      36.893836    
  69000000   0.36019115    -8.0478892     -7.5076102      1.7401066      50218.233      36.893836      36.893836      36.893836    
  70000000   0.35864967    -8.0469972     -7.5090303      1.7468202      50218.233      36.893836      36.893836      36.893836    
  71000000   0.35879265    -8.0514142     -7.5132329      1.7091458      50218.233      36.893836      36.893836      36.893836    
  72000000   0.35889765    -8.0479179     -7.5095791      1.734324       50218.233      36.893836      36.893836      36.893836    
  73000000   0.35805897    -8.0534074     -7.5163265      1.6874718      50218.233      36.893836      36.893836      36.893836    
  74000000   0.36064174    -8.0478151     -7.5068602      1.7420793      50218.233      36.893836      36.893836      36.893836    
  75000000   0.35818953    -8.047819      -7.5105423      1.735339       50218.233      36.893836      36.893836      36.893836    
  76000000   0.35892407    -8.0518502     -7.5134717      1.696078       50218.233      36.893836      36.893836      36.893836    
  77000000   0.36158648    -8.0497152     -7.5073432      1.7195976      50218.233      36.893836      36.893836      36.893836    
  78000000   0.36075577    -8.0468763     -7.5057503      1.7414717      50218.233      36.893836      36.893836      36.893836    
  79000000   0.36012675    -8.0492424     -7.50906        1.7223066      50218.233      36.893836      36.893836      36.893836    
  80000000   0.36023787    -8.0515522     -7.5112031      1.712851       50218.233      36.893836      36.893836      36.893836    
  81000000   0.35968345    -8.0488745     -7.509357       1.7281025      50218.233      36.893836      36.893836      36.893836    
  82000000   0.35979377    -8.0473308     -7.5076478      1.7318267      50218.233      36.893836      36.893836      36.893836    
  83000000   0.35918767    -8.0505929     -7.5118191      1.719236       50218.233      36.893836      36.893836      36.893836    
  84000000   0.35815609    -8.048347      -7.5111205      1.7277289      50218.233      36.893836      36.893836      36.893836    
  85000000   0.35823808    -8.0526641     -7.5153147      1.7007404      50218.233      36.893836      36.893836      36.893836    
  86000000   0.36006096    -8.0503204     -7.5102366      1.7172705      50218.233      36.893836      36.893836      36.893836    
  87000000   0.35985773    -8.0536278     -7.5138489      1.6965876      50218.233      36.893836      36.893836      36.893836    
  88000000   0.35891641    -8.0494891     -7.5111222      1.7278509      50218.233      36.893836      36.893836      36.893836    
  89000000   0.35951322    -8.0521164     -7.5128542      1.7030451      50218.233      36.893836      36.893836      36.893836    
  90000000   0.35879423    -8.0526436     -7.51446        1.6973076      50218.233      36.893836      36.893836      36.893836    
  91000000   0.35808047    -8.0542449     -7.5171318      1.6799086      50218.233      36.893836      36.893836      36.893836    
  92000000   0.36076306    -8.0524922     -7.5113554      1.6956465      50218.233      36.893836      36.893836      36.893836    
  93000000   0.36051766    -8.0514088     -7.51064        1.6985742      50218.233      36.893836      36.893836      36.893836    
  94000000   0.36013498    -8.0490336     -7.5088388      1.7284536      50218.233      36.893836      36.893836      36.893836    
  95000000   0.3611412     -8.0554681     -7.513764       1.6821274      50218.233      36.893836      36.893836      36.893836    
  96000000   0.36090995    -8.0524584     -7.5111011      1.7080949      50218.233      36.893836      36.893836      36.893836    
  97000000   0.36004447    -8.0524238     -7.5123648      1.6997543      50218.233      36.893836      36.893836      36.893836    
  98000000   0.35774259    -8.0489889     -7.5123827      1.7309224      50218.233      36.893836      36.893836      36.893836    
  99000000   0.36088667    -8.051536      -7.5102137      1.7063481      50218.233      36.893836      36.893836      36.893836    
 100000000   0.35967369    -8.0529306     -7.5134277      1.7069498      50218.233      36.893836      36.893836      36.893836    
 101000000   0.36048963    -8.0498677     -7.509141       1.7262136      50218.233      36.893836      36.893836      36.893836    
 102000000   0.35919308    -8.0534634     -7.5146814      1.6919387      50218.233      36.893836      36.893836      36.893836    
 103000000   0.36128792    -8.0503641     -7.5084399      1.7164398      50218.233      36.893836      36.893836      36.893836    
 104000000   0.36039198    -8.0544693     -7.513889       1.6886451      50218.233      36.893836      36.893836      36.893836    
 105000000   0.36119469    -8.0529927     -7.5112084      1.696345       50218.233      36.893836      36.893836      36.893836    
 106000000   0.36181681    -8.0541827     -7.5114652      1.6923132      50218.233      36.893836      36.893836      36.893836    
 107000000   0.3606093     -8.0500191     -7.5091129      1.7171127      50218.233      36.893836      36.893836      36.893836    
 108000000   0.35915722    -8.0534339     -7.5147057      1.6944968      50218.233      36.893836      36.893836      36.893836    
 109000000   0.358785      -8.0519342     -7.5137644      1.7053916      50218.233      36.893836      36.893836      36.893836    
 110000000   0.36129217    -8.0505487     -7.5086182      1.7233757      50218.233      36.893836      36.893836      36.893836    
 111000000   0.36034917    -8.0509869     -7.5104708      1.7098016      50218.233      36.893836      36.893836      36.893836    
 112000000   0.36076728    -8.0513142     -7.510171       1.7136762      50218.233      36.893836      36.893836      36.893836    
 113000000   0.35920564    -8.0508506     -7.5120498      1.7051153      50218.233      36.893836      36.893836      36.893836    
 114000000   0.35953297    -8.052405      -7.5131133      1.7019106      50218.233      36.893836      36.893836      36.893836    
 115000000   0.35882252    -8.0498934     -7.5116673      1.7179974      50218.233      36.893836      36.893836      36.893836    
 116000000   0.35907129    -8.0526013     -7.5140021      1.6948574      50218.233      36.893836      36.893836      36.893836    
 117000000   0.35826422    -8.0483365     -7.5109478      1.7270295      50218.233      36.893836      36.893836      36.893836    
 118000000   0.36038501    -8.0523378     -7.5117679      1.7046335      50218.233      36.893836      36.893836      36.893836    
 119000000   0.35959648    -8.0530711     -7.513684       1.6956688      50218.233      36.893836      36.893836      36.893836    
 120000000   0.35978998    -8.0537558     -7.5140785      1.6875737      50218.233      36.893836      36.893836      36.893836    
 121000000   0.36169579    -8.0490113     -7.5064753      1.7299941      50218.233      36.893836      36.893836      36.893836    
 122000000   0.36160255    -8.048721      -7.5063248      1.7355814      50218.233      36.893836      36.893836      36.893836    
 123000000   0.36172593    -8.0503469     -7.5077657      1.7199025      50218.233      36.893836      36.893836      36.893836    
 124000000   0.35953409    -8.0505775     -7.511284       1.719132       50218.233      36.893836      36.893836      36.893836    
 125000000   0.35917545    -8.0501315     -7.511376       1.7121063      50218.233      36.893836      36.893836      36.893836    
 126000000   0.36123028    -8.0509997     -7.509162       1.7163779      50218.233      36.893836      36.893836      36.893836    
 127000000   0.35990881    -8.0529448     -7.5130893      1.6958502      50218.233      36.893836      36.893836      36.893836    
 128000000   0.35892749    -8.05087       -7.5124865      1.7201674      50218.233      36.893836      36.893836      36.893836    
 129000000   0.36114413    -8.0521736     -7.5104651      1.7138162      50218.233      36.893836      36.893836      36.893836    
 130000000   0.36020163    -8.0505064     -7.5102116      1.7192033      50218.233      36.893836      36.893836      36.893836    
 131000000   0.35840994    -8.0507065     -7.5130993      1.7222409      50218.233      36.893836      36.893836      36.893836    
 132000000   0.35957138    -8.0523443     -7.5129949      1.7117958      50218.233      36.893836      36.893836      36.893836    
 133000000   0.36105726    -8.0490438     -7.5074656      1.7245921      50218.233      36.893836      36.893836      36.893836    
 134000000   0.3586791     -8.05104       -7.513029       1.7170048      50218.233      36.893836      36.893836      36.893836    
 135000000   0.36155476    -8.0513748     -7.5090504      1.7147238      50218.233      36.893836      36.893836      36.893836    
 136000000   0.36124908    -8.0502999     -7.508434       1.7196204      50218.233      36.893836      36.893836      36.893836    
 137000000   0.36006258    -8.050931      -7.5108448      1.7146663      50218.233      36.893836      36.893836      36.893836    
 138000000   0.35955418    -8.0551814     -7.5158579      1.6835839      50218.233      36.893836      36.893836      36.893836    
 139000000   0.36086173    -8.0497381     -7.5084532      1.723683       50218.233      36.893836      36.893836      36.893836    
 140000000   0.35810306    -8.050044      -7.5128971      1.7104769      50218.233      36.893836      36.893836      36.893836    
 141000000   0.35854698    -8.0508933     -7.5130805      1.715301       50218.233      36.893836      36.893836      36.893836    
 142000000   0.35823776    -8.0531084     -7.5157594      1.6996015      50218.233      36.893836      36.893836      36.893836    
 143000000   0.3604534     -8.0517939     -7.5111214      1.7084603      50218.233      36.893836      36.893836      36.893836    
 144000000   0.35995717    -8.0510702     -7.5111421      1.7205922      50218.233      36.893836      36.893836      36.893836    
 145000000   0.35869941    -8.0552233     -7.5171818      1.6809977      50218.233      36.893836      36.893836      36.893836    
 146000000   0.35941019    -8.0530482     -7.5139406      1.711304       50218.233      36.893836      36.893836      36.893836    
 147000000   0.35992915    -8.0533519     -7.5134658      1.6952846      50218.233      36.893836      36.893836      36.893836    
 148000000   0.36027597    -8.0512084     -7.5108021      1.7225141      50218.233      36.893836      36.893836      36.893836    
 149000000   0.36052454    -8.0535556     -7.5127765      1.698598       50218.233      36.893836      36.893836      36.893836    
 150000000   0.36060558    -8.0513748     -7.5104741      1.720206       50218.233      36.893836      36.893836      36.893836    
 151000000   0.35836877    -8.0542026     -7.5166571      1.696613       50218.233      36.893836      36.893836      36.893836    
 152000000   0.36170391    -8.0531808     -7.5106326      1.7043056      50218.233      36.893836      36.893836      36.893836    
 153000000   0.35972371    -8.0528151     -7.5132373      1.7015077      50218.233      36.893836      36.893836      36.893836    
 154000000   0.35915196    -8.054371      -7.5156508      1.693005       50218.233      36.893836      36.893836      36.893836    
 155000000   0.36141941    -8.0527181     -7.5105966      1.7018188      50218.233      36.893836      36.893836      36.893836    
 156000000   0.36178505    -8.0515338     -7.508864       1.7227941      50218.233      36.893836      36.893836      36.893836    
 157000000   0.3602152     -8.0533344     -7.5130193      1.6997702      50218.233      36.893836      36.893836      36.893836    
 158000000   0.3600631     -8.0525502     -7.5124632      1.706624       50218.233      36.893836      36.893836      36.893836    
 159000000   0.35966684    -8.0542578     -7.5147652      1.6893645      50218.233      36.893836      36.893836      36.893836    
 160000000   0.36133257    -8.0552363     -7.5132451      1.6959811      50218.233      36.893836      36.893836      36.893836    
 161000000   0.35992727    -8.0515166     -7.5116334      1.7023975      50218.233      36.893836      36.893836      36.893836    
 162000000   0.35762663    -8.0488138     -7.5123815      1.7128758      50218.233      36.893836      36.893836      36.893836    
 163000000   0.35831661    -8.0529443     -7.5154771      1.6959472      50218.233      36.893836      36.893836      36.893836    
 164000000   0.35886983    -8.0560191     -7.517722       1.6723409      50218.233      36.893836      36.893836      36.893836    
 165000000   0.35827367    -8.0498658     -7.5124629      1.7237526      50218.233      36.893836      36.893836      36.893836    
 166000000   0.35968679    -8.051961      -7.5124385      1.7094667      50218.233      36.893836      36.893836      36.893836    
 167000000   0.3592093     -8.0512582     -7.512452       1.7211282      50218.233      36.893836      36.893836      36.893836    
 168000000   0.36090329    -8.051707      -7.5103597      1.7007693      50218.233      36.893836      36.893836      36.893836    
 169000000   0.3612142     -8.0516693     -7.5098557      1.7077709      50218.233      36.893836      36.893836      36.893836    
 170000000   0.36151602    -8.0512774     -7.5090111      1.709149       50218.233      36.893836      36.893836      36.893836    
 171000000   0.35947978    -8.0533495     -7.5141375      1.692955       50218.233      36.893836      36.893836      36.893836    
 172000000   0.35992971    -8.0496929     -7.509806       1.7328347      50218.233      36.893836      36.893836      36.893836    
 173000000   0.36263702    -8.051036      -7.5070882      1.7152233      50218.233      36.893836      36.893836      36.893836    
 174000000   0.35942561    -8.0523003     -7.5131695      1.7188744      50218.233      36.893836      36.893836      36.893836    
 175000000   0.3582186     -8.0510794     -7.5137591      1.7086652      50218.233      36.893836      36.893836      36.893836    
 176000000   0.35860761    -8.050993      -7.5130893      1.7156189      50218.233      36.893836      36.893836      36.893836    
 177000000   0.36085349    -8.0536371     -7.5123646      1.6972422      50218.233      36.893836      36.893836      36.893836    
 178000000   0.36068245    -8.051764      -7.510748       1.7158467      50218.233      36.893836      36.893836      36.893836    
 179000000   0.36070422    -8.051962      -7.5109134      1.7091711      50218.233      36.893836      36.893836      36.893836    
 180000000   0.36037666    -8.0505862     -7.5100289      1.7241439      50218.233      36.893836      36.893836      36.893836    
 181000000   0.36064256    -8.0504243     -7.5094682      1.7148956      50218.233      36.893836      36.893836      36.893836    
 182000000   0.35953446    -8.0517138     -7.5124198      1.7009962      50218.233      36.893836      36.893836      36.893836    
 183000000   0.35928271    -8.0519452     -7.5130288      1.708763       50218.233      36.893836      36.893836      36.893836    
 184000000   0.3596369     -8.0500175     -7.5105699      1.7210967      50218.233      36.893836      36.893836      36.893836    
 185000000   0.36023247    -8.0523768     -7.5120358      1.7065742      50218.233      36.893836      36.893836      36.893836    
 186000000   0.3592386     -8.0531675     -7.5143173      1.6952619      50218.233      36.893836      36.893836      36.893836    
 187000000   0.3622635     -8.0521215     -7.508734       1.7104933      50218.233      36.893836      36.893836      36.893836    
 188000000   0.36119524    -8.0529316     -7.5111464      1.6998455      50218.233      36.893836      36.893836      36.893836    
 189000000   0.35858215    -8.0565604     -7.5186948      1.6639863      50218.233      36.893836      36.893836      36.893836    
 190000000   0.36135919    -8.0535366     -7.5115056      1.6879314      50218.233      36.893836      36.893836      36.893836    
 191000000   0.359675      -8.0536276     -7.5141228      1.6970906      50218.233      36.893836      36.893836      36.893836    
 192000000   0.36028694    -8.054726      -7.5143033      1.6870741      50218.233      36.893836      36.893836      36.893836    
 193000000   0.36010466    -8.0542579     -7.5141086      1.6964266      50218.233      36.893836      36.893836      36.893836    
 194000000   0.35979821    -8.0527523     -7.5130627      1.702425       50218.233      36.893836      36.893836      36.893836    
 195000000   0.3598477     -8.0511456     -7.5113817      1.7108814      50218.233      36.893836      36.893836      36.893836    
 196000000   0.36041979    -8.0525216     -7.5118996      1.7003832      50218.233      36.893836      36.893836      36.893836    
 197000000   0.35844735    -8.0552208     -7.5175574      1.6781824      50218.233      36.893836      36.893836      36.893836    
 198000000   0.36143605    -8.054481      -7.5123346      1.6922751      50218.233      36.893836      36.893836      36.893836    
 199000000   0.35987551    -8.0538794     -7.5140739      1.6945596      50218.233      36.893836      36.893836      36.893836    
 200000000   0.36026431    -8.0550673     -7.5146785      1.697218       50218.233      36.893836      36.893836      36.893836    
 201000000   0.36127022    -8.0549465     -7.5130489      1.6889467      50218.233      36.893836      36.893836      36.893836    
 202000000   0.35902548    -8.0538593     -7.5153288      1.7013736      50218.233      36.893836      36.893836      36.893836    
 203000000   0.35861985    -8.0559206     -7.5179985      1.6808168      50218.233      36.893836      36.893836      36.893836    
 204000000   0.35859408    -8.0515215     -7.5136381      1.707849       50218.233      36.893836      36.893836      36.893836    
 205000000   0.36002692    -8.0511865     -7.5111538      1.7056421      50218.233      36.893836      36.893836      36.893836    
 206000000   0.360295      -8.0522624     -7.5118276      1.7061828      50218.233      36.893836      36.893836      36.893836    
 207000000   0.36052338    -8.0528036     -7.5120262      1.7037499      50218.233      36.893836      36.893836      36.893836    
 208000000   0.35872357    -8.0572848     -7.5192071      1.6640542      50218.233      36.893836      36.893836      36.893836    
 209000000   0.36038727    -8.0526817     -7.5121085      1.6917531      50218.233      36.893836      36.893836      36.893836    
 210000000   0.35729783    -8.0534586     -7.5175195      1.6971197      50218.233      36.893836      36.893836      36.893836    
 211000000   0.35883886    -8.054925      -7.5166744      1.6760757      50218.233      36.893836      36.893836      36.893836    
 212000000   0.35941336    -8.0554888     -7.5163765      1.6853919      50218.233      36.893836      36.893836      36.893836    
 213000000   0.3608991     -8.053534      -7.512193       1.6925413      50218.233      36.893836      36.893836      36.893836    
 214000000   0.36134944    -8.0542206     -7.5122041      1.6796006      50218.233      36.893836      36.893836      36.893836    
 215000000   0.35857821    -8.055077      -7.5172174      1.6777255      50218.233      36.893836      36.893836      36.893836    
 216000000   0.35913746    -8.0531004     -7.5144019      1.7057858      50218.233      36.893836      36.893836      36.893836    
 217000000   0.36195383    -8.0559346     -7.5130115      1.6850865      50218.233      36.893836      36.893836      36.893836    
 218000000   0.36100167    -8.0506134     -7.5091186      1.7159092      50218.233      36.893836      36.893836      36.893836    
 219000000   0.36234453    -8.0527952     -7.5092862      1.7024906      50218.233      36.893836      36.893836      36.893836    
 220000000   0.36149763    -8.0543045     -7.5120658      1.6963336      50218.233      36.893836      36.893836      36.893836    
 221000000   0.36055328    -8.0542507     -7.5134285      1.6856922      50218.233      36.893836      36.893836      36.893836    
 222000000   0.35976288    -8.0528744     -7.5132378      1.6952875      50218.233      36.893836      36.893836      36.893836    
 223000000   0.35905416    -8.0525432     -7.5139696      1.6969193      50218.233      36.893836      36.893836      36.893836    
 224000000   0.36053281    -8.0552635     -7.514472       1.674868       50218.233      36.893836      36.893836      36.893836    
 225000000   0.36107192    -8.0521114     -7.5105112      1.7176318      50218.233      36.893836      36.893836      36.893836    
 226000000   0.35805483    -8.053355      -7.5162804      1.6877983      50218.233      36.893836      36.893836      36.893836    
 227000000   0.36034512    -8.0524059     -7.5118959      1.7075219      50218.233      36.893836      36.893836      36.893836    
 228000000   0.35989325    -8.0525506     -7.5127184      1.7114719      50218.233      36.893836      36.893836      36.893836    
 229000000   0.35964916    -8.0539473     -7.5144812      1.6976767      50218.233      36.893836      36.893836      36.893836    
 230000000   0.35915585    -8.054425      -7.5156989      1.6853509      50218.233      36.893836      36.893836      36.893836    
 231000000   0.36004381    -8.051099      -7.5110409      1.7137811      50218.233      36.893836      36.893836      36.893836    
 232000000   0.36169925    -8.0525407     -7.5099995      1.6983814      50218.233      36.893836      36.893836      36.893836    
 233000000   0.35873863    -8.0501361     -7.5120358      1.719897       50218.233      36.893836      36.893836      36.893836    
 234000000   0.36091547    -8.0515631     -7.5101976      1.7154871      50218.233      36.893836      36.893836      36.893836    
 235000000   0.35957738    -8.0565962     -7.5172378      1.6725331      50218.233      36.893836      36.893836      36.893836    
 236000000   0.35861389    -8.0544975     -7.5165844      1.6887354      50218.233      36.893836      36.893836      36.893836    
 237000000   0.36089247    -8.0576769     -7.5163459      1.656889       50218.233      36.893836      36.893836      36.893836    
 238000000   0.35958965    -8.0546018     -7.515225       1.6800162      50218.233      36.893836      36.893836      36.893836    
 239000000   0.35793089    -8.0529922     -7.5161035      1.6872713      50218.233      36.893836      36.893836      36.893836    
 240000000   0.35862699    -8.0530502     -7.5151174      1.6923054      50218.233      36.893836      36.893836      36.893836    
 241000000   0.3600718     -8.0546105     -7.5145104      1.677664       50218.233      36.893836      36.893836      36.893836    
 242000000   0.36113388    -8.056498      -7.5148049      1.6760613      50218.233      36.893836      36.893836      36.893836    
 243000000   0.36131103    -8.0548838     -7.5129249      1.6853387      50218.233      36.893836      36.893836      36.893836    
 244000000   0.36223404    -8.0552543     -7.511911       1.6827655      50218.233      36.893836      36.893836      36.893836    
 245000000   0.36014197    -8.0545746     -7.5143693      1.6890711      50218.233      36.893836      36.893836      36.893836    
 246000000   0.36032903    -8.0566917     -7.5162058      1.6800145      50218.233      36.893836      36.893836      36.893836    
 247000000   0.35993519    -8.0539396     -7.5140445      1.6924773      50218.233      36.893836      36.893836      36.893836    
 248000000   0.35907603    -8.0539375     -7.5153311      1.6801303      50218.233      36.893836      36.893836      36.893836    
 249000000   0.35876539    -8.0558677     -7.5177273      1.6758426      50218.233      36.893836      36.893836      36.893836    
 250000000   0.35831122    -8.05338       -7.5159208      1.6898384      50218.233      36.893836      36.893836      36.893836    
 251000000   0.36034256    -8.0558915     -7.5153854      1.6714592      50218.233      36.893836      36.893836      36.893836    
 252000000   0.36202652    -8.0552337     -7.5122016      1.6989653      50218.233      36.893836      36.893836      36.893836    
 253000000   0.35783499    -8.0575889     -7.5208441      1.6680118      50218.233      36.893836      36.893836      36.893836    
 254000000   0.35848939    -8.0530219     -7.5152954      1.6972746      50218.233      36.893836      36.893836      36.893836    
 255000000   0.35784996    -8.0524551     -7.5156877      1.6947023      50218.233      36.893836      36.893836      36.893836    
 256000000   0.36283368    -8.055694      -7.5114512      1.6781278      50218.233      36.893836      36.893836      36.893836    
 257000000   0.36196974    -8.0524174     -7.5094705      1.710358       50218.233      36.893836      36.893836      36.893836    
 258000000   0.36046135    -8.0563108     -7.5156264      1.6668981      50218.233      36.893836      36.893836      36.893836    
 259000000   0.35973577    -8.0545602     -7.5149642      1.6948531      50218.233      36.893836      36.893836      36.893836    
 260000000   0.35937402    -8.0547715     -7.5157181      1.6884162      50218.233      36.893836      36.893836      36.893836    
 261000000   0.36052917    -8.0531288     -7.5123427      1.691395       50218.233      36.893836      36.893836      36.893836    
 262000000   0.36101626    -8.0542404     -7.5127237      1.6858607      50218.233      36.893836      36.893836      36.893836    
 263000000   0.36005489    -8.0551105     -7.5150359      1.6810898      50218.233      36.893836      36.893836      36.893836    
 264000000   0.35839227    -8.0538662     -7.5162854      1.6888205      50218.233      36.893836      36.893836      36.893836    
 265000000   0.36112426    -8.0522595     -7.5105808      1.7069455      50218.233      36.893836      36.893836      36.893836    
 266000000   0.35981506    -8.0516089     -7.511894       1.7019229      50218.233      36.893836      36.893836      36.893836    
 267000000   0.35862245    -8.0572923     -7.5193663      1.6654396      50218.233      36.893836      36.893836      36.893836    
 268000000   0.36050857    -8.0548664     -7.5141112      1.6875691      50218.233      36.893836      36.893836      36.893836    
 269000000   0.36060937    -8.0534883     -7.512582       1.6965701      50218.233      36.893836      36.893836      36.893836    
 270000000   0.36018781    -8.0542596     -7.5139856      1.7005683      50218.233      36.893836      36.893836      36.893836    
 271000000   0.36252606    -8.0543747     -7.5105934      1.6876495      50218.233      36.893836      36.893836      36.893836    
 272000000   0.35956959    -8.0498596     -7.5105129      1.7221013      50218.233      36.893836      36.893836      36.893836    
 273000000   0.35979915    -8.051827      -7.512136       1.7124147      50218.233      36.893836      36.893836      36.893836    
 274000000   0.3616045     -8.0532984     -7.5108994      1.6932598      50218.233      36.893836      36.893836      36.893836    
 275000000   0.35864288    -8.0550011     -7.5170444      1.6766144      50218.233      36.893836      36.893836      36.893836    
 276000000   0.35845491    -8.0535261     -7.5158513      1.6954149      50218.233      36.893836      36.893836      36.893836    
 277000000   0.36021805    -8.0539773     -7.5136579      1.6916939      50218.233      36.893836      36.893836      36.893836    
 278000000   0.35996461    -8.0538047     -7.5138655      1.6868593      50218.233      36.893836      36.893836      36.893836    
 279000000   0.36089975    -8.0534499     -7.512108       1.6944864      50218.233      36.893836      36.893836      36.893836    
 280000000   0.3592636     -8.0545924     -7.5157047      1.6892078      50218.233      36.893836      36.893836      36.893836    
 281000000   0.3588821     -8.0536234     -7.5153079      1.6895081      50218.233      36.893836      36.893836      36.893836    
 282000000   0.3606365     -8.0534101     -7.5124631      1.6967681      50218.233      36.893836      36.893836      36.893836    
 283000000   0.36045735    -8.0560441     -7.5153658      1.6810661      50218.233      36.893836      36.893836      36.893836    
 284000000   0.35866655    -8.0532505     -7.5152583      1.6880087      50218.233      36.893836      36.893836      36.893836    
 285000000   0.3612895     -8.0547666     -7.5128401      1.6855006      50218.233      36.893836      36.893836      36.893836    
 286000000   0.36018949    -8.0525461     -7.5122696      1.7003007      50218.233      36.893836      36.893836      36.893836    
 287000000   0.36013752    -8.0554616     -7.515263       1.6758224      50218.233      36.893836      36.893836      36.893836    
 288000000   0.36179249    -8.0518247     -7.5091437      1.7012035      50218.233      36.893836      36.893836      36.893836    
 289000000   0.36123255    -8.053498      -7.5116569      1.6965308      50218.233      36.893836      36.893836      36.893836    
 290000000   0.35910875    -8.0556929     -7.5170375      1.6775286      50218.233      36.893836      36.893836      36.893836    
 291000000   0.3596448     -8.0567103     -7.5172508      1.6640202      50218.233      36.893836      36.893836      36.893836    
 292000000   0.35967217    -8.0550512     -7.5155506      1.6742133      50218.233      36.893836      36.893836      36.893836    
 293000000   0.36116498    -8.0570476     -7.5153078      1.6727671      50218.233      36.893836      36.893836      36.893836    
 294000000   0.36014608    -8.0562042     -7.5159928      1.6769782      50218.233      36.893836      36.893836      36.893836    
 295000000   0.36152494    -8.0539335     -7.5116538      1.691988       50218.233      36.893836      36.893836      36.893836    
 296000000   0.36120764    -8.0585083     -7.5167045      1.6511335      50218.233      36.893836      36.893836      36.893836    
 297000000   0.36104057    -8.0527887     -7.5112355      1.6943618      50218.233      36.893836      36.893836      36.893836    
 298000000   0.36081734    -8.0561449     -7.5149266      1.6742346      50218.233      36.893836      36.893836      36.893836    
 299000000   0.35833514    -8.0578505     -7.5203555      1.647336       50218.233      36.893836      36.893836      36.893836    
 300000000   0.35944011    -8.0556959     -7.5165434      1.6738412      50218.233      36.893836      36.893836      36.893836    
 301000000   0.36033441    -8.0545879     -7.5140939      1.6844648      50218.233      36.893836      36.893836      36.893836    
 302000000   0.36147333    -8.0542243     -7.5120221      1.6849487      50218.233      36.893836      36.893836      36.893836    
 303000000   0.35920698    -8.0516423     -7.5128395      1.7081036      50218.233      36.893836      36.893836      36.893836    
 304000000   0.35873813    -8.0554703     -7.5173708      1.6826124      50218.233      36.893836      36.893836      36.893836    
 305000000   0.36059317    -8.0532262     -7.5123441      1.689522       50218.233      36.893836      36.893836      36.893836    
 306000000   0.35905524    -8.0542527     -7.5156775      1.6822844      50218.233      36.893836      36.893836      36.893836    
 307000000   0.36025019    -8.054432      -7.5140644      1.6852491      50218.233      36.893836      36.893836      36.893836    
 308000000   0.36017083    -8.0534567     -7.5132081      1.6974397      50218.233      36.893836      36.893836      36.893836    
 309000000   0.35684843    -8.0561691     -7.5209041      1.6649904      50218.233      36.893836      36.893836      36.893836    
 310000000   0.36171986    -8.0522734     -7.5097014      1.7038218      50218.233      36.893836      36.893836      36.893836    
 311000000   0.3588887     -8.056694      -7.5183686      1.6709187      50218.233      36.893836      36.893836      36.893836    
 312000000   0.35951994    -8.0526519     -7.5133797      1.7030696      50218.233      36.893836      36.893836      36.893836    
 313000000   0.35956212    -8.0565108     -7.5171753      1.6688362      50218.233      36.893836      36.893836      36.893836    
 314000000   0.3592228     -8.0545247     -7.5156982      1.6820169      50218.233      36.893836      36.893836      36.893836    
 315000000   0.35911007    -8.0559054     -7.5172479      1.6767312      50218.233      36.893836      36.893836      36.893836    
 316000000   0.35954832    -8.0545747     -7.5152599      1.6761751      50218.233      36.893836      36.893836      36.893836    
 317000000   0.36030208    -8.0544807     -7.5140353      1.6792654      50218.233      36.893836      36.893836      36.893836    
 318000000   0.36103464    -8.0550631     -7.5135188      1.6830004      50218.233      36.893836      36.893836      36.893836    
 319000000   0.3612609     -8.0536088     -7.5117251      1.7015887      50218.233      36.893836      36.893836      36.893836    
 320000000   0.36122932    -8.0519712     -7.5101349      1.7017695      50218.233      36.893836      36.893836      36.893836    
 321000000   0.36132972    -8.052838      -7.5108511      1.6968658      50218.233      36.893836      36.893836      36.893836    
 322000000   0.36012527    -8.0574878     -7.5173075      1.6680051      50218.233      36.893836      36.893836      36.893836    
 323000000   0.36009573    -8.0511683     -7.5110324      1.7135132      50218.233      36.893836      36.893836      36.893836    
 324000000   0.36062851    -8.0530784     -7.5121433      1.6953736      50218.233      36.893836      36.893836      36.893836    
 325000000   0.36098257    -8.0530048     -7.5115386      1.691512       50218.233      36.893836      36.893836      36.893836    
 326000000   0.36124364    -8.0551491     -7.5132913      1.6877281      50218.233      36.893836      36.893836      36.893836    
 327000000   0.35909728    -8.05131       -7.5126717      1.7044065      50218.233      36.893836      36.893836      36.893836    
 328000000   0.36034047    -8.0548975     -7.5143945      1.6922932      50218.233      36.893836      36.893836      36.893836    
 329000000   0.35940419    -8.0547241     -7.5156254      1.6869083      50218.233      36.893836      36.893836      36.893836    
 330000000   0.35722905    -8.0525321     -7.5166961      1.7007295      50218.233      36.893836      36.893836      36.893836    
 331000000   0.35859119    -8.0551723     -7.5172932      1.6745596      50218.233      36.893836      36.893836      36.893836    
 332000000   0.36005407    -8.0552043     -7.5151309      1.6919025      50218.233      36.893836      36.893836      36.893836    
 333000000   0.35803548    -8.0561225     -7.5190769      1.6753836      50218.233      36.893836      36.893836      36.893836    
 334000000   0.35938129    -8.0539823     -7.514918       1.6903407      50218.233      36.893836      36.893836      36.893836    
 335000000   0.36112625    -8.0557773     -7.5140956      1.6727701      50218.233      36.893836      36.893836      36.893836    
 336000000   0.36009313    -8.0532268     -7.5130948      1.696967       50218.233      36.893836      36.893836      36.893836    
 337000000   0.36174046    -8.0521983     -7.5095953      1.7082423      50218.233      36.893836      36.893836      36.893836    
 338000000   0.36114754    -8.0545345     -7.5128209      1.67361        50218.233      36.893836      36.893836      36.893836    
 339000000   0.35684603    -8.0535395     -7.5182781      1.6911708      50218.233      36.893836      36.893836      36.893836    
 340000000   0.36201285    -8.0554035     -7.5123919      1.679998       50218.233      36.893836      36.893836      36.893836    
 341000000   0.35995776    -8.0549426     -7.5150136      1.688874       50218.233      36.893836      36.893836      36.893836    
 342000000   0.35956966    -8.0516755     -7.5123287      1.696945       50218.233      36.893836      36.893836      36.893836    
 343000000   0.36021251    -8.0548875     -7.5145764      1.6899756      50218.233      36.893836      36.893836      36.893836    
 344000000   0.36063816    -8.0542009     -7.5132513      1.6817697      50218.233      36.893836      36.893836      36.893836    
 345000000   0.35837145    -8.0541042     -7.5165547      1.6885861      50218.233      36.893836      36.893836      36.893836    
 346000000   0.36140859    -8.0565699     -7.5144647      1.6675343      50218.233      36.893836      36.893836      36.893836    
 347000000   0.3598896     -8.0550181     -7.5151913      1.6736429      50218.233      36.893836      36.893836      36.893836    
 348000000   0.35950311    -8.052698      -7.513451       1.6955588      50218.233      36.893836      36.893836      36.893836    
 349000000   0.35943944    -8.0591962     -7.5200447      1.6462793      50218.233      36.893836      36.893836      36.893836    
 350000000   0.35977475    -8.0556542     -7.5159997      1.6682513      50218.233      36.893836      36.893836      36.893836    
 351000000   0.36024622    -8.0565734     -7.5162117      1.6727673      50218.233      36.893836      36.893836      36.893836    
 352000000   0.35999807    -8.0562603     -7.5162709      1.6672345      50218.233      36.893836      36.893836      36.893836    
 353000000   0.36131746    -8.0537836     -7.5118151      1.6963016      50218.233      36.893836      36.893836      36.893836    
 354000000   0.36097791    -8.0539798     -7.5125206      1.6895817      50218.233      36.893836      36.893836      36.893836    
 355000000   0.35962612    -8.0540222     -7.5145907      1.6896577      50218.233      36.893836      36.893836      36.893836    
 356000000   0.35939485    -8.0549045     -7.5158199      1.6825054      50218.233      36.893836      36.893836      36.893836    
 357000000   0.35999563    -8.0544843     -7.5144985      1.6811003      50218.233      36.893836      36.893836      36.893836    
 358000000   0.35836997    -8.0557144     -7.5181671      1.6761788      50218.233      36.893836      36.893836      36.893836    
 359000000   0.3594169     -8.0534319     -7.5143142      1.6873507      50218.233      36.893836      36.893836      36.893836    
 360000000   0.35928884    -8.0527262     -7.5138006      1.7032748      50218.233      36.893836      36.893836      36.893836    
 361000000   0.35917241    -8.0546242     -7.5158732      1.6728955      50218.233      36.893836      36.893836      36.893836    
 362000000   0.35903474    -8.0538777     -7.5153333      1.6914584      50218.233      36.893836      36.893836      36.893836    
 363000000   0.36123468    -8.0601597     -7.5183154      1.6388947      50218.233      36.893836      36.893836      36.893836    
 364000000   0.35762406    -8.0532428     -7.5168144      1.6752233      50218.233      36.893836      36.893836      36.893836    
 365000000   0.36027888    -8.0575541     -7.5171435      1.6737626      50218.233      36.893836      36.893836      36.893836    
 366000000   0.3616028     -8.0530314     -7.5106349      1.7069933      50218.233      36.893836      36.893836      36.893836    
 367000000   0.3604792     -8.0545783     -7.5138672      1.6813668      50218.233      36.893836      36.893836      36.893836    
 368000000   0.36134775    -8.0554498     -7.5134359      1.6754339      50218.233      36.893836      36.893836      36.893836    
 369000000   0.35982994    -8.055132      -7.5153947      1.674625       50218.233      36.893836      36.893836      36.893836    
 370000000   0.35952628    -8.0542853     -7.5150035      1.6850656      50218.233      36.893836      36.893836      36.893836    
 371000000   0.359036      -8.0533217     -7.5147753      1.6946381      50218.233      36.893836      36.893836      36.893836    
 372000000   0.3581821     -8.0557032     -7.5184377      1.6759612      50218.233      36.893836      36.893836      36.893836    
 373000000   0.36016922    -8.0516705     -7.5114243      1.7078418      50218.233      36.893836      36.893836      36.893836    
 374000000   0.35942182    -8.0538068     -7.5146817      1.6849322      50218.233      36.893836      36.893836      36.893836    
 375000000   0.35990603    -8.054354      -7.5145026      1.6885283      50218.233      36.893836      36.893836      36.893836    
 376000000   0.36188937    -8.0533372     -7.5105108      1.6893269      50218.233      36.893836      36.893836      36.893836    
 377000000   0.35926443    -8.0568955     -7.5180065      1.6645166      50218.233      36.893836      36.893836      36.893836    
 378000000   0.35866539    -8.05471       -7.5167196      1.6733787      50218.233      36.893836      36.893836      36.893836    
 379000000   0.36142465    -8.0506785     -7.5085493      1.7120294      50218.233      36.893836      36.893836      36.893836    
 380000000   0.35942061    -8.0561798     -7.5170566      1.6679932      50218.233      36.893836      36.893836      36.893836    
 381000000   0.35894024    -8.052301      -7.5138983      1.6977476      50218.233      36.893836      36.893836      36.893836    
 382000000   0.3610014     -8.0533605     -7.5118661      1.6880252      50218.233      36.893836      36.893836      36.893836    
 383000000   0.35838982    -8.0561953     -7.5186182      1.6721752      50218.233      36.893836      36.893836      36.893836    
 384000000   0.35692767    -8.055094      -7.5197101      1.6743729      50218.233      36.893836      36.893836      36.893836    
 385000000   0.35948747    -8.0552166     -7.515993       1.6718357      50218.233      36.893836      36.893836      36.893836    
 386000000   0.35766936    -8.0555733     -7.5190769      1.6790629      50218.233      36.893836      36.893836      36.893836    
 387000000   0.35980795    -8.0539141     -7.5142099      1.6922908      50218.233      36.893836      36.893836      36.893836    
 388000000   0.35892512    -8.0534591     -7.5150791      1.693933       50218.233      36.893836      36.893836      36.893836    
 389000000   0.35981043    -8.056139      -7.516431       1.6726367      50218.233      36.893836      36.893836      36.893836    
 390000000   0.36123969    -8.0536895     -7.5118376      1.6872229      50218.233      36.893836      36.893836      36.893836    
 391000000   0.35985552    -8.0588355     -7.5190599      1.6499261      50218.233      36.893836      36.893836      36.893836    
 392000000   0.36173975    -8.0547972     -7.5121953      1.6810685      50218.233      36.893836      36.893836      36.893836    
 393000000   0.36021496    -8.0554155     -7.5151008      1.6748731      50218.233      36.893836      36.893836      36.893836    
 394000000   0.35963206    -8.0587918     -7.5193513      1.6600148      50218.233      36.893836      36.893836      36.893836    
 395000000   0.35996926    -8.0589711     -7.5190249      1.6454769      50218.233      36.893836      36.893836      36.893836    
 396000000   0.36047675    -8.0558904     -7.515183       1.6781526      50218.233      36.893836      36.893836      36.893836    
 397000000   0.35998607    -8.055541      -7.5155696      1.6786739      50218.233      36.893836      36.893836      36.893836    
 398000000   0.36084233    -8.0588429     -7.5175872      1.6529688      50218.233      36.893836      36.893836      36.893836    
 399000000   0.35939794    -8.0571212     -7.5180319      1.6683895      50218.233      36.893836      36.893836      36.893836    
 400000000   0.36163699    -8.0563047     -7.5138569      1.6762446      50218.233      36.893836      36.893836      36.893836    
 401000000   0.36000834    -8.0556449     -7.5156401      1.6729035      50218.233      36.893836      36.893836      36.893836    
 402000000   0.36092106    -8.057477      -7.5161031      1.6587661      50218.233      36.893836      36.893836      36.893836    
 403000000   0.3609688     -8.0552497     -7.5138042      1.6718638      50218.233      36.893836      36.893836      36.893836    
 404000000   0.35988104    -8.0549158     -7.515102       1.689666       50218.233      36.893836      36.893836      36.893836    
 405000000   0.36079935    -8.0576586     -7.5164672      1.6640393      50218.233      36.893836      36.893836      36.893836    
 406000000   0.35989665    -8.0566864     -7.5168491      1.6692713      50218.233      36.893836      36.893836      36.893836    
 407000000   0.35730956    -8.0553564     -7.5193997      1.6797378      50218.233      36.893836      36.893836      36.893836    
 408000000   0.35940519    -8.0561786     -7.5170785      1.6665335      50218.233      36.893836      36.893836      36.893836    
 409000000   0.35949355    -8.0561728     -7.5169401      1.6691655      50218.233      36.893836      36.893836      36.893836    
 410000000   0.36117034    -8.0543114     -7.5125636      1.694075       50218.233      36.893836      36.893836      36.893836    
 411000000   0.36110543    -8.0589304     -7.51728        1.6454179      50218.233      36.893836      36.893836      36.893836    
 412000000   0.36173151    -8.0499547     -7.5073652      1.725408       50218.233      36.893836      36.893836      36.893836    
 413000000   0.36130803    -8.0560141     -7.5140597      1.6814088      50218.233      36.893836      36.893836      36.893836    
 414000000   0.35865727    -8.0562365     -7.5182583      1.6723109      50218.233      36.893836      36.893836      36.893836    
 415000000   0.36153072    -8.0560776     -7.5137892      1.6728216      50218.233      36.893836      36.893836      36.893836    
 416000000   0.35981884    -8.0554852     -7.5157646      1.6813702      50218.233      36.893836      36.893836      36.893836    
 417000000   0.35998587    -8.0528956     -7.5129245      1.6919572      50218.233      36.893836      36.893836      36.893836    
 418000000   0.35967053    -8.0542942     -7.514796       1.6855601      50218.233      36.893836      36.893836      36.893836    
 419000000   0.35902261    -8.0546175     -7.5160912      1.6785699      50218.233      36.893836      36.893836      36.893836    
 420000000   0.3600713     -8.0571019     -7.5170026      1.670222       50218.233      36.893836      36.893836      36.893836    
 421000000   0.36045508    -8.0582162     -7.5175413      1.6541516      50218.233      36.893836      36.893836      36.893836    
 422000000   0.35937259    -8.0549049     -7.5158537      1.685943       50218.233      36.893836      36.893836      36.893836    
 423000000   0.35968018    -8.0530579     -7.5135453      1.6965655      50218.233      36.893836      36.893836      36.893836    
 424000000   0.35796808    -8.0578736     -7.5209291      1.6527951      50218.233      36.893836      36.893836      36.893836    
 425000000   0.36136467    -8.0553025     -7.5132632      1.6799335      50218.233      36.893836      36.893836      36.893836    
 426000000   0.36255825    -8.0556382     -7.5118085      1.6843541      50218.233      36.893836      36.893836      36.893836    
 427000000   0.35815772    -8.0565146     -7.5192857      1.6691521      50218.233      36.893836      36.893836      36.893836    
 428000000   0.35903641    -8.0524086     -7.5138616      1.6952177      50218.233      36.893836      36.893836      36.893836    
 429000000   0.3593817     -8.0562422     -7.5171773      1.6721841      50218.233      36.893836      36.893836      36.893836    
 430000000   0.35781263    -8.0540058     -7.5172945      1.6872562      50218.233      36.893836      36.893836      36.893836    
 431000000   0.36022696    -8.0529534     -7.5126207      1.7062542      50218.233      36.893836      36.893836      36.893836    
 432000000   0.36123633    -8.0578542     -7.5160074      1.6676826      50218.233      36.893836      36.893836      36.893836    
 433000000   0.35844164    -8.0560472     -7.5183923      1.6711858      50218.233      36.893836      36.893836      36.893836    
 434000000   0.35988819    -8.0559863     -7.5161617      1.6703954      50218.233      36.893836      36.893836      36.893836    
 435000000   0.36064347    -8.0568394     -7.5158819      1.6757655      50218.233      36.893836      36.893836      36.893836    
 436000000   0.36108369    -8.0556765     -7.5140586      1.668205       50218.233      36.893836      36.893836      36.893836    
 437000000   0.36143799    -8.0573085     -7.5151592      1.6594858      50218.233      36.893836      36.893836      36.893836    
 438000000   0.35918257    -8.052943      -7.5141768      1.689272       50218.233      36.893836      36.893836      36.893836    
 439000000   0.3608928     -8.053166      -7.5118345      1.6890248      50218.233      36.893836      36.893836      36.893836    
 440000000   0.36116945    -8.0547486     -7.5130021      1.6891783      50218.233      36.893836      36.893836      36.893836    
 441000000   0.36072501    -8.0556206     -7.5145407      1.6757985      50218.233      36.893836      36.893836      36.893836    
 442000000   0.36042244    -8.0568566     -7.5162306      1.6721463      50218.233      36.893836      36.893836      36.893836    
 443000000   0.36226842    -8.0549009     -7.511506       1.6810156      50218.233      36.893836      36.893836      36.893836    
 444000000   0.35940949    -8.0560346     -7.516928       1.6729631      50218.233      36.893836      36.893836      36.893836    
 445000000   0.35927179    -8.0549756     -7.5160756      1.6798205      50218.233      36.893836      36.893836      36.893836    
 446000000   0.35903485    -8.0523935     -7.5138489      1.6948883      50218.233      36.893836      36.893836      36.893836    
 447000000   0.36095535    -8.0544916     -7.5130663      1.6796102      50218.233      36.893836      36.893836      36.893836    
 448000000   0.35919778    -8.0540126     -7.5152236      1.6839648      50218.233      36.893836      36.893836      36.893836    
 449000000   0.36036824    -8.0557642     -7.5152195      1.6741677      50218.233      36.893836      36.893836      36.893836    
 450000000   0.35976547    -8.0528472     -7.5132066      1.6923018      50218.233      36.893836      36.893836      36.893836    
 451000000   0.35964815    -8.053395      -7.5139304      1.6922055      50218.233      36.893836      36.893836      36.893836    
 452000000   0.35909616    -8.0547098     -7.5160732      1.6914799      50218.233      36.893836      36.893836      36.893836    
 453000000   0.35867331    -8.0544856     -7.5164833      1.6804318      50218.233      36.893836      36.893836      36.893836    
 454000000   0.36070057    -8.05626       -7.5152169      1.6696132      50218.233      36.893836      36.893836      36.893836    
 455000000   0.35913325    -8.057606      -7.5189138      1.657044       50218.233      36.893836      36.893836      36.893836    
 456000000   0.35883098    -8.0540694     -7.5158305      1.6831226      50218.233      36.893836      36.893836      36.893836    
 457000000   0.36206746    -8.05564       -7.5125465      1.6740793      50218.233      36.893836      36.893836      36.893836    
 458000000   0.35880663    -8.0523243     -7.514122       1.70616        50218.233      36.893836      36.893836      36.893836    
 459000000   0.35921769    -8.0546218     -7.515803       1.6808578      50218.233      36.893836      36.893836      36.893836    
 460000000   0.3586476     -8.0512705     -7.5133067      1.7081449      50218.233      36.893836      36.893836      36.893836    
 461000000   0.35908222    -8.0564819     -7.5178662      1.6716185      50218.233      36.893836      36.893836      36.893836    
 462000000   0.360178      -8.0563681     -7.5161088      1.6716619      50218.233      36.893836      36.893836      36.893836    
 463000000   0.35975148    -8.0535319     -7.5139123      1.6929943      50218.233      36.893836      36.893836      36.893836    
 464000000   0.36064115    -8.0571831     -7.5162291      1.6706597      50218.233      36.893836      36.893836      36.893836    
 465000000   0.3596692     -8.0530525     -7.5135564      1.6995812      50218.233      36.893836      36.893836      36.893836    
 466000000   0.36009576    -8.0557366     -7.5156006      1.6801998      50218.233      36.893836      36.893836      36.893836    
 467000000   0.35883328    -8.0562531     -7.5180108      1.6699933      50218.233      36.893836      36.893836      36.893836    
 468000000   0.35959986    -8.0534905     -7.5140983      1.6978698      50218.233      36.893836      36.893836      36.893836    
 469000000   0.35873789    -8.0568156     -7.5187164      1.6727742      50218.233      36.893836      36.893836      36.893836    
 470000000   0.36034363    -8.0549208     -7.514413       1.6827359      50218.233      36.893836      36.893836      36.893836    
 471000000   0.35903099    -8.0544769     -7.515938       1.6746877      50218.233      36.893836      36.893836      36.893836    
 472000000   0.35923979    -8.0529352     -7.5140831      1.6992304      50218.233      36.893836      36.893836      36.893836    
 473000000   0.36036406    -8.0542576     -7.5137192      1.6886817      50218.233      36.893836      36.893836      36.893836    
 474000000   0.35985287    -8.0553676     -7.515596       1.6713196      50218.233      36.893836      36.893836      36.893836    
 475000000   0.36001432    -8.0559679     -7.5159541      1.6740438      50218.233      36.893836      36.893836      36.893836    
 476000000   0.3590992     -8.0532085     -7.5145674      1.6980436      50218.233      36.893836      36.893836      36.893836    
 477000000   0.35885992    -8.0534057     -7.5151235      1.6944011      50218.233      36.893836      36.893836      36.893836    
 478000000   0.36071126    -8.0577323     -7.5166731      1.66732        50218.233      36.893836      36.893836      36.893836    
 479000000   0.36060903    -8.0546158     -7.51371        1.6776431      50218.233      36.893836      36.893836      36.893836    
 480000000   0.35970965    -8.0546523     -7.5150955      1.6732673      50218.233      36.893836      36.893836      36.893836    
 481000000   0.3601977     -8.0527285     -7.5124396      1.6953376      50218.233      36.893836      36.893836      36.893836    
 482000000   0.36127556    -8.054842      -7.5129364      1.6841804      50218.233      36.893836      36.893836      36.893836    
 483000000   0.36083724    -8.0536193     -7.5123712      1.6943279      50218.233      36.893836      36.893836      36.893836    
 484000000   0.35956194    -8.0525786     -7.5132433      1.7091771      50218.233      36.893836      36.893836      36.893836    
 485000000   0.36176777    -8.0549419     -7.512298       1.6830529      50218.233      36.893836      36.893836      36.893836    
 486000000   0.35855972    -8.0530777     -7.5152458      1.6985435      50218.233      36.893836      36.893836      36.893836    
 487000000   0.36033324    -8.0575709     -7.5170787      1.6663809      50218.233      36.893836      36.893836      36.893836    
 488000000   0.35934195    -8.0544589     -7.5154536      1.6844553      50218.233      36.893836      36.893836      36.893836    
 489000000   0.3583644     -8.0557545     -7.5182156      1.6685709      50218.233      36.893836      36.893836      36.893836    
 490000000   0.35920423    -8.0543453     -7.5155466      1.6843616      50218.233      36.893836      36.893836      36.893836    
 491000000   0.35935848    -8.0551326     -7.5161025      1.6804669      50218.233      36.893836      36.893836      36.893836    
 492000000   0.35932893    -8.056933      -7.5179472      1.6682031      50218.233      36.893836      36.893836      36.893836    
 493000000   0.35852501    -8.0560824     -7.5183025      1.667834       50218.233      36.893836      36.893836      36.893836    
 494000000   0.3624575     -8.0567339     -7.5130554      1.6676427      50218.233      36.893836      36.893836      36.893836    
 495000000   0.36065552    -8.0568534     -7.5158779      1.6712887      50218.233      36.893836      36.893836      36.893836    
 496000000   0.35947132    -8.058045      -7.5188456      1.6630022      50218.233      36.893836      36.893836      36.893836    
 497000000   0.36288214    -8.053728      -7.5094125      1.6961682      50218.233      36.893836      36.893836      36.893836    
 498000000   0.35963692    -8.0564143     -7.5169666      1.6606032      50218.233      36.893836      36.893836      36.893836    
 499000000   0.35910228    -8.0577296     -7.5190838      1.6581026      50218.233      36.893836      36.893836      36.893836    
 500000000   0.3603834     -8.0562908     -7.5157234      1.6723226      50218.233      36.893836      36.893836      36.893836    
Loop time of 769390 on 5 procs for 500000000 steps with 70304 atoms

Performance: 561483.828 tau/day, 649.866 timesteps/s, 45.688 Matom-step/s
94.5% CPU use with 5 MPI tasks x 1 OpenMP threads

MPI task timing breakdown:
Section |  min time  |  avg time  |  max time  |%varavg| %total
---------------------------------------------------------------
Pair    | 2.7717e+05 | 2.9633e+05 | 3.1265e+05 |2302.0 | 38.51
Neigh   | 2222.5     | 2259.9     | 2285.1     |  43.9 |  0.29
Comm    | 1.1148e+05 | 1.1207e+05 | 1.1284e+05 | 132.9 | 14.57
Output  | 0.090895   | 0.094525   | 0.10072    |   1.1 |  0.00
Modify  | 3.0183e+05 | 3.1906e+05 | 3.3932e+05 |2328.5 | 41.47
Other   |            | 3.967e+04  |            |       |  5.16

Nlocal:        14060.8 ave       14100 max       14029 min
Histogram: 1 1 0 0 1 0 1 0 0 1
Nghost:        18742.6 ave       18777 max       18704 min
Histogram: 1 0 0 0 2 0 0 1 0 1
Neighs:              0 ave           0 max           0 min
Histogram: 5 0 0 0 0 0 0 0 0 0

Total # of neighbors = 0
Ave neighs/atom = 0
Neighbor list builds = 88142480
Dangerous builds = 0
clear
OMP_NUM_THREADS environment is not set. Defaulting to 1 thread. (src/comm.cpp:98)
  using 1 OpenMP thread(s) per MPI task
package gpu 0
jump dms340.lmp

variable T equal 340
# T = 1000* (temp in LJ unit)
variable f equal 1000000
log log.${T}
log log.340
