variable TLJ equal (${T}/1000)
variable TLJ equal (320/1000)
variable NCyle equal 5
variable iStep equal (${f})
variable iStep equal (1000000)
variable dumpStep equal (${f}*100)
variable dumpStep equal (1000000*100)
variable runStep equal (${f}*100*${NCyle})
variable runStep equal (1000000*100*${NCyle})
variable runStep equal (1000000*100*5)

units       lj
atom_style  atomic
dimension 3
boundary     p p p
pair_style  lj/cut 2.5
read_data  ../data/T${T}.dat
read_data  ../data/T320.dat
Reading data file ...
  orthogonal box = (0.97250269 0.97250269 0.97250269) to (37.866338 37.866338 37.866338)
  1 by 1 by 5 MPI processor grid
  reading atoms ...
  70304 atoms
  reading velocities ...
  70304 velocities
  read_data CPU = 0.209 seconds
change_box all triclinic
Changing box ...
  triclinic box = (0.97250269 0.97250269 0.97250269) to (37.866338 37.866338 37.866338) with tilt (0 0 0)
mass 1 1
mass 2 1
pair_modify shift yes
pair_coeff  1 1 1 1
pair_coeff  1 2 1.5 0.8
pair_coeff  2 2 0.5 0.88


timestep 0.01
thermo ${iStep}
thermo 1000000
reset_timestep 0
thermo_style custom step temp pe etotal press vol lx ly lz
fix             1 all nvt temp ${TLJ}  ${TLJ}  0.1
fix             1 all nvt temp 0.32  ${TLJ}  0.1
fix             1 all nvt temp 0.32  0.32  0.1
thermo_modify flush yes

fix dsf all deform 1 xy  wiggle 0.5  ${f}   units box
fix dsf all deform 1 xy  wiggle 0.5  1000000   units box
fix ps1 all ave/time 1 1 ${iStep} c_thermo_press[1] c_thermo_press[2]  c_thermo_press[3] c_thermo_press[4]  c_thermo_press[5] c_thermo_press[6]  file  stress.${T}
fix ps1 all ave/time 1 1 1000000 c_thermo_press[1] c_thermo_press[2]  c_thermo_press[3] c_thermo_press[4]  c_thermo_press[5] c_thermo_press[6]  file  stress.${T}
fix ps1 all ave/time 1 1 1000000 c_thermo_press[1] c_thermo_press[2]  c_thermo_press[3] c_thermo_press[4]  c_thermo_press[5] c_thermo_press[6]  file  stress.320
dump            1 all custom ${dumpStep} dump.${T} id type x y z
dump            1 all custom 100000000 dump.${T} id type x y z
dump            1 all custom 100000000 dump.320 id type x y z
dump_modify 1 sort id
fix nodrift all momentum 1  linear 1 1 1
fix com_seed all recenter INIT INIT INIT shift all
run ${runStep}
run 500000000
Generated 0 of 1 mixed pair_coeff terms from geometric mixing rule
Per MPI rank memory allocation (min/avg/max) = 6.663 | 8.017 | 8.92 Mbytes
   Step          Temp          PotEng         TotEng         Press          Volume           Lx             Ly             Lz      
         0   0.32020808    -8.1136423     -7.633337       1.1960806      50218.233      36.893836      36.893836      36.893836    
   1000000   0.3203216     -8.1055761     -7.6251006      1.2562014      50218.233      36.893836      36.893836      36.893836    
   2000000   0.3214152     -8.1061392     -7.6240233      1.2544081      50218.233      36.893836      36.893836      36.893836    
   3000000   0.32059707    -8.1078137     -7.6269249      1.2360497      50218.233      36.893836      36.893836      36.893836    
   4000000   0.31838573    -8.1063721     -7.6288003      1.2518279      50218.233      36.893836      36.893836      36.893836    
   5000000   0.31932539    -8.1068247     -7.6278434      1.2390063      50218.233      36.893836      36.893836      36.893836    
   6000000   0.32001093    -8.1104233     -7.6304137      1.2136776      50218.233      36.893836      36.893836      36.893836    
   7000000   0.31869768    -8.1063857     -7.628346       1.2440446      50218.233      36.893836      36.893836      36.893836    
   8000000   0.32047399    -8.1072906     -7.6265865      1.2458224      50218.233      36.893836      36.893836      36.893836    
   9000000   0.3191886     -8.1069619     -7.6281858      1.2379874      50218.233      36.893836      36.893836      36.893836    
  10000000   0.32032313    -8.1084451     -7.6279672      1.2325633      50218.233      36.893836      36.893836      36.893836    
  11000000   0.32005894    -8.1076543     -7.6275727      1.2422607      50218.233      36.893836      36.893836      36.893836    
  12000000   0.32169325    -8.1061792     -7.6236462      1.2472539      50218.233      36.893836      36.893836      36.893836    
  13000000   0.32090437    -8.1075433     -7.6261936      1.2413831      50218.233      36.893836      36.893836      36.893836    
  14000000   0.31935977    -8.1055154     -7.6264825      1.252578       50218.233      36.893836      36.893836      36.893836    
  15000000   0.31877469    -8.1060258     -7.6278705      1.2521421      50218.233      36.893836      36.893836      36.893836    
  16000000   0.32217674    -8.1056788     -7.6224205      1.2504822      50218.233      36.893836      36.893836      36.893836    
  17000000   0.3184967     -8.1061597     -7.6284214      1.2460586      50218.233      36.893836      36.893836      36.893836    
  18000000   0.31871018    -8.1063584     -7.6283         1.2372798      50218.233      36.893836      36.893836      36.893836    
  19000000   0.32143621    -8.1060338     -7.6238864      1.2498514      50218.233      36.893836      36.893836      36.893836    
  20000000   0.31808859    -8.1072316     -7.6301055      1.2405948      50218.233      36.893836      36.893836      36.893836    
  21000000   0.32131255    -8.1064289     -7.6244669      1.2502477      50218.233      36.893836      36.893836      36.893836    
  22000000   0.31946334    -8.1078354     -7.6286472      1.2405666      50218.233      36.893836      36.893836      36.893836    
  23000000   0.32032425    -8.1093217     -7.6288422      1.220036       50218.233      36.893836      36.893836      36.893836    
  24000000   0.31903983    -8.1066478     -7.6280948      1.2471975      50218.233      36.893836      36.893836      36.893836    
  25000000   0.32042358    -8.1065427     -7.6259141      1.2504795      50218.233      36.893836      36.893836      36.893836    
  26000000   0.32057503    -8.1078887     -7.627033       1.2335992      50218.233      36.893836      36.893836      36.893836    
  27000000   0.3188291     -8.1053464     -7.6271096      1.2540672      50218.233      36.893836      36.893836      36.893836    
  28000000   0.31944765    -8.1069694     -7.6278047      1.2428821      50218.233      36.893836      36.893836      36.893836    
  29000000   0.31878551    -8.1076705     -7.6294991      1.2421003      50218.233      36.893836      36.893836      36.893836    
  30000000   0.31986367    -8.1056995     -7.6259108      1.2496346      50218.233      36.893836      36.893836      36.893836    
  31000000   0.32105705    -8.1079306     -7.6263519      1.2435227      50218.233      36.893836      36.893836      36.893836    
  32000000   0.32040652    -8.1058014     -7.6251985      1.2524132      50218.233      36.893836      36.893836      36.893836    
  33000000   0.31931074    -8.1083805     -7.6294212      1.2208631      50218.233      36.893836      36.893836      36.893836    
  34000000   0.32082551    -8.1047427     -7.6235113      1.2586054      50218.233      36.893836      36.893836      36.893836    
  35000000   0.31671281    -8.1071719     -7.6321094      1.2311737      50218.233      36.893836      36.893836      36.893836    
  36000000   0.31879302    -8.1081297     -7.629947       1.2329574      50218.233      36.893836      36.893836      36.893836    
  37000000   0.32184913    -8.1078673     -7.6251004      1.2443062      50218.233      36.893836      36.893836      36.893836    
  38000000   0.31925517    -8.1093143     -7.6304384      1.2173386      50218.233      36.893836      36.893836      36.893836    
  39000000   0.32006571    -8.1047462     -7.6246545      1.2654244      50218.233      36.893836      36.893836      36.893836    
  40000000   0.32012101    -8.1091436     -7.6289689      1.2346732      50218.233      36.893836      36.893836      36.893836    
  41000000   0.31985191    -8.1093657     -7.6295947      1.2206924      50218.233      36.893836      36.893836      36.893836    
  42000000   0.32218576    -8.107936      -7.6246643      1.2319721      50218.233      36.893836      36.893836      36.893836    
  43000000   0.32069455    -8.1080208     -7.6269858      1.233426       50218.233      36.893836      36.893836      36.893836    
  44000000   0.32116718    -8.1109663     -7.6292224      1.2140695      50218.233      36.893836      36.893836      36.893836    
  45000000   0.32195191    -8.1049143     -7.6219933      1.2521778      50218.233      36.893836      36.893836      36.893836    
  46000000   0.32030473    -8.1088054     -7.6283551      1.2301861      50218.233      36.893836      36.893836      36.893836    
  47000000   0.31811011    -8.1071868     -7.6300284      1.2376336      50218.233      36.893836      36.893836      36.893836    
  48000000   0.32114081    -8.1064981     -7.6247938      1.2480268      50218.233      36.893836      36.893836      36.893836    
  49000000   0.32089526    -8.1097809     -7.6284449      1.2152455      50218.233      36.893836      36.893836      36.893836    
  50000000   0.32108391    -8.1107995     -7.6291805      1.2165281      50218.233      36.893836      36.893836      36.893836    
  51000000   0.31965117    -8.1098184     -7.6303485      1.2208046      50218.233      36.893836      36.893836      36.893836    
  52000000   0.31899742    -8.1084704     -7.6299811      1.2251126      50218.233      36.893836      36.893836      36.893836    
  53000000   0.31978181    -8.110352      -7.6306861      1.2164984      50218.233      36.893836      36.893836      36.893836    
  54000000   0.31981302    -8.1068689     -7.6271562      1.2418734      50218.233      36.893836      36.893836      36.893836    
  55000000   0.31870402    -8.1061977     -7.6281485      1.2409481      50218.233      36.893836      36.893836      36.893836    
  56000000   0.31922644    -8.1070772     -7.6282444      1.234412       50218.233      36.893836      36.893836      36.893836    
  57000000   0.31893465    -8.107116      -7.6287208      1.2338791      50218.233      36.893836      36.893836      36.893836    
  58000000   0.32004815    -8.1101411     -7.6300757      1.2185569      50218.233      36.893836      36.893836      36.893836    
  59000000   0.31909685    -8.1082326     -7.6295942      1.2263863      50218.233      36.893836      36.893836      36.893836    
  60000000   0.32034181    -8.1061872     -7.6256813      1.2492697      50218.233      36.893836      36.893836      36.893836    
  61000000   0.32193778    -8.1068327     -7.6239329      1.2475269      50218.233      36.893836      36.893836      36.893836    
  62000000   0.32024455    -8.1075185     -7.6271585      1.2326972      50218.233      36.893836      36.893836      36.893836    
  63000000   0.32092951    -8.1101129     -7.6287255      1.2223291      50218.233      36.893836      36.893836      36.893836    
  64000000   0.32055249    -8.1078889     -7.627067       1.2372487      50218.233      36.893836      36.893836      36.893836    
  65000000   0.32053125    -8.1089404     -7.6281503      1.2292121      50218.233      36.893836      36.893836      36.893836    
  66000000   0.32033251    -8.1073913     -7.6268994      1.2321849      50218.233      36.893836      36.893836      36.893836    
  67000000   0.31878147    -8.1075759     -7.6294105      1.2334646      50218.233      36.893836      36.893836      36.893836    
  68000000   0.32091504    -8.1057388     -7.6243731      1.2539243      50218.233      36.893836      36.893836      36.893836    
  69000000   0.3202245     -8.1084495     -7.6281196      1.2215442      50218.233      36.893836      36.893836      36.893836    
  70000000   0.31944893    -8.1065509     -7.6273843      1.2514958      50218.233      36.893836      36.893836      36.893836    
  71000000   0.3202822     -8.1051981     -7.6247816      1.2474187      50218.233      36.893836      36.893836      36.893836    
  72000000   0.32072567    -8.1067196     -7.6256379      1.2460373      50218.233      36.893836      36.893836      36.893836    
  73000000   0.31989921    -8.1062346     -7.6263926      1.2431731      50218.233      36.893836      36.893836      36.893836    
  74000000   0.3198163     -8.1078911     -7.6281735      1.2375785      50218.233      36.893836      36.893836      36.893836    
  75000000   0.32027717    -8.1043767     -7.6239678      1.2555038      50218.233      36.893836      36.893836      36.893836    
  76000000   0.32006455    -8.1083338     -7.6282438      1.2311625      50218.233      36.893836      36.893836      36.893836    
  77000000   0.32052893    -8.108823      -7.6280364      1.230428       50218.233      36.893836      36.893836      36.893836    
  78000000   0.32048574    -8.1090883     -7.6283666      1.2192791      50218.233      36.893836      36.893836      36.893836    
  79000000   0.32130482    -8.1084087     -7.6264584      1.2339635      50218.233      36.893836      36.893836      36.893836    
  80000000   0.32091944    -8.1069995     -7.6256272      1.2410153      50218.233      36.893836      36.893836      36.893836    
  81000000   0.31900882    -8.1076435     -7.6291371      1.2347645      50218.233      36.893836      36.893836      36.893836    
  82000000   0.32013938    -8.1061705     -7.6259683      1.2469313      50218.233      36.893836      36.893836      36.893836    
  83000000   0.32008688    -8.1063411     -7.6262176      1.2398783      50218.233      36.893836      36.893836      36.893836    
  84000000   0.3178204     -8.1055477     -7.6288239      1.2493804      50218.233      36.893836      36.893836      36.893836    
  85000000   0.32027058    -8.1072614     -7.6268624      1.2440999      50218.233      36.893836      36.893836      36.893836    
  86000000   0.32068103    -8.1077975     -7.6267828      1.2359709      50218.233      36.893836      36.893836      36.893836    
  87000000   0.31946897    -8.1082538     -7.6290572      1.2266068      50218.233      36.893836      36.893836      36.893836    
  88000000   0.3215898     -8.1096968     -7.6273189      1.2209019      50218.233      36.893836      36.893836      36.893836    
  89000000   0.3199463     -8.1099912     -7.6300786      1.216332       50218.233      36.893836      36.893836      36.893836    
  90000000   0.32156303    -8.1060518     -7.6237141      1.2520343      50218.233      36.893836      36.893836      36.893836    
  91000000   0.32070834    -8.1078438     -7.6267881      1.2366231      50218.233      36.893836      36.893836      36.893836    
  92000000   0.32112456    -8.1099947     -7.6283147      1.2207452      50218.233      36.893836      36.893836      36.893836    
  93000000   0.32059906    -8.106379      -7.6254873      1.2488303      50218.233      36.893836      36.893836      36.893836    
  94000000   0.32028794    -8.1078874     -7.6274623      1.2393343      50218.233      36.893836      36.893836      36.893836    
  95000000   0.32072235    -8.107897      -7.6268203      1.2368793      50218.233      36.893836      36.893836      36.893836    
  96000000   0.3196756     -8.1092403     -7.6297337      1.2313946      50218.233      36.893836      36.893836      36.893836    
  97000000   0.32096395    -8.1091147     -7.6276757      1.234811       50218.233      36.893836      36.893836      36.893836    
  98000000   0.3199833     -8.1056978     -7.6257297      1.2452403      50218.233      36.893836      36.893836      36.893836    
  99000000   0.31900562    -8.1083083     -7.6298067      1.2388986      50218.233      36.893836      36.893836      36.893836    
 100000000   0.3193166     -8.1076591     -7.628691       1.2340034      50218.233      36.893836      36.893836      36.893836    
 101000000   0.32091307    -8.1069499     -7.6255871      1.2429661      50218.233      36.893836      36.893836      36.893836    
 102000000   0.31995282    -8.1080134     -7.628091       1.2341191      50218.233      36.893836      36.893836      36.893836    
 103000000   0.31896029    -8.1082106     -7.629777       1.2298428      50218.233      36.893836      36.893836      36.893836    
 104000000   0.3193051     -8.1101928     -7.631242       1.2269883      50218.233      36.893836      36.893836      36.893836    
 105000000   0.3194171     -8.1085362     -7.6294174      1.2267198      50218.233      36.893836      36.893836      36.893836    
 106000000   0.31997179    -8.106728      -7.6267772      1.2435594      50218.233      36.893836      36.893836      36.893836    
 107000000   0.32107305    -8.1050084     -7.6234057      1.2644409      50218.233      36.893836      36.893836      36.893836    
 108000000   0.32025143    -8.10777       -7.6273997      1.2326795      50218.233      36.893836      36.893836      36.893836    
 109000000   0.31804304    -8.1070353     -7.6299775      1.2328849      50218.233      36.893836      36.893836      36.893836    
 110000000   0.32096219    -8.1087344     -7.627298       1.2359116      50218.233      36.893836      36.893836      36.893836    
 111000000   0.3205934     -8.1075977     -7.6267144      1.2421109      50218.233      36.893836      36.893836      36.893836    
 112000000   0.32019742    -8.1092838     -7.6289945      1.2205071      50218.233      36.893836      36.893836      36.893836    
 113000000   0.32129657    -8.1067513     -7.6248133      1.2417567      50218.233      36.893836      36.893836      36.893836    
 114000000   0.32121185    -8.1084027     -7.6265918      1.2263264      50218.233      36.893836      36.893836      36.893836    
 115000000   0.32067064    -8.1051506     -7.6241515      1.2606629      50218.233      36.893836      36.893836      36.893836    
 116000000   0.31972441    -8.1063164     -7.6267366      1.2444552      50218.233      36.893836      36.893836      36.893836    
 117000000   0.31786125    -8.1080745     -7.6312894      1.2338048      50218.233      36.893836      36.893836      36.893836    
 118000000   0.32179498    -8.105557      -7.6228715      1.2430649      50218.233      36.893836      36.893836      36.893836    
 119000000   0.31971418    -8.1078552     -7.6282907      1.2295007      50218.233      36.893836      36.893836      36.893836    
 120000000   0.31876878    -8.1054653     -7.6273189      1.2506603      50218.233      36.893836      36.893836      36.893836    
 121000000   0.32017601    -8.1081694     -7.6279122      1.237445       50218.233      36.893836      36.893836      36.893836    
 122000000   0.31985788    -8.1067195     -7.6269395      1.247138       50218.233      36.893836      36.893836      36.893836    
 123000000   0.3211445     -8.1063399     -7.62463        1.2468336      50218.233      36.893836      36.893836      36.893836    
 124000000   0.32043145    -8.1062574     -7.6256171      1.2443278      50218.233      36.893836      36.893836      36.893836    
 125000000   0.31835062    -8.1055653     -7.6280462      1.2463616      50218.233      36.893836      36.893836      36.893836    
 126000000   0.32029848    -8.1091373     -7.6286965      1.2263544      50218.233      36.893836      36.893836      36.893836    
 127000000   0.32009496    -8.1063671     -7.6262315      1.2486976      50218.233      36.893836      36.893836      36.893836    
 128000000   0.31948131    -8.1076779     -7.6284627      1.2359329      50218.233      36.893836      36.893836      36.893836    
 129000000   0.32105891    -8.1070363     -7.6254548      1.2386316      50218.233      36.893836      36.893836      36.893836    
 130000000   0.32027147    -8.1084339     -7.6280335      1.2284708      50218.233      36.893836      36.893836      36.893836    
 131000000   0.31788252    -8.1080302     -7.6312132      1.2330239      50218.233      36.893836      36.893836      36.893836    
 132000000   0.31819801    -8.1085492     -7.631259       1.2263395      50218.233      36.893836      36.893836      36.893836    
 133000000   0.31897024    -8.1090681     -7.6306196      1.2274418      50218.233      36.893836      36.893836      36.893836    
 134000000   0.32030705    -8.1103389     -7.6298852      1.2102326      50218.233      36.893836      36.893836      36.893836    
 135000000   0.32060907    -8.1076316     -7.6267248      1.2398342      50218.233      36.893836      36.893836      36.893836    
 136000000   0.32011836    -8.1059236     -7.6257529      1.2544461      50218.233      36.893836      36.893836      36.893836    
 137000000   0.3202685     -8.1096029     -7.629207       1.2115834      50218.233      36.893836      36.893836      36.893836    
 138000000   0.31978006    -8.107485      -7.6278217      1.245489       50218.233      36.893836      36.893836      36.893836    
 139000000   0.32158243    -8.1077719     -7.6254051      1.2385566      50218.233      36.893836      36.893836      36.893836    
 140000000   0.31925437    -8.1086643     -7.6297895      1.2288034      50218.233      36.893836      36.893836      36.893836    
 141000000   0.32024781    -8.109971      -7.6296061      1.2232678      50218.233      36.893836      36.893836      36.893836    
 142000000   0.31924049    -8.1098355     -7.6309816      1.2284687      50218.233      36.893836      36.893836      36.893836    
 143000000   0.31865658    -8.1092215     -7.6312434      1.2205304      50218.233      36.893836      36.893836      36.893836    
 144000000   0.32152422    -8.107685      -7.6254056      1.2456607      50218.233      36.893836      36.893836      36.893836    
 145000000   0.3193817     -8.1069603     -7.6278946      1.2477185      50218.233      36.893836      36.893836      36.893836    
 146000000   0.31887466    -8.1094683     -7.6311631      1.2175062      50218.233      36.893836      36.893836      36.893836    
 147000000   0.32007797    -8.1113384     -7.6312283      1.2035642      50218.233      36.893836      36.893836      36.893836    
 148000000   0.31996917    -8.1085803     -7.6286334      1.2288536      50218.233      36.893836      36.893836      36.893836    
 149000000   0.32037914    -8.1096488     -7.6290869      1.2243779      50218.233      36.893836      36.893836      36.893836    
 150000000   0.32010949    -8.1111402     -7.6309827      1.2151001      50218.233      36.893836      36.893836      36.893836    
 151000000   0.31977858    -8.1120368     -7.6323757      1.2032989      50218.233      36.893836      36.893836      36.893836    
 152000000   0.31921642    -8.1089826     -7.6301647      1.2298476      50218.233      36.893836      36.893836      36.893836    
 153000000   0.31986456    -8.1111529     -7.6313629      1.205661       50218.233      36.893836      36.893836      36.893836    
 154000000   0.31973731    -8.1094314     -7.6298323      1.2257725      50218.233      36.893836      36.893836      36.893836    
 155000000   0.31843829    -8.1102715     -7.6326209      1.2156953      50218.233      36.893836      36.893836      36.893836    
 156000000   0.31919258    -8.1089398     -7.6301577      1.2275996      50218.233      36.893836      36.893836      36.893836    
 157000000   0.32046715    -8.1083452     -7.6276513      1.2333291      50218.233      36.893836      36.893836      36.893836    
 158000000   0.32067196    -8.1082822     -7.6272811      1.2307684      50218.233      36.893836      36.893836      36.893836    
 159000000   0.3203078     -8.1092877     -7.6288328      1.2252374      50218.233      36.893836      36.893836      36.893836    
 160000000   0.31995914    -8.1057304     -7.6257985      1.2459612      50218.233      36.893836      36.893836      36.893836    
 161000000   0.32057919    -8.1101307     -7.6292687      1.2158449      50218.233      36.893836      36.893836      36.893836    
 162000000   0.32093153    -8.1098096     -7.6284192      1.2187938      50218.233      36.893836      36.893836      36.893836    
 163000000   0.32126748    -8.1086202     -7.6267259      1.2244295      50218.233      36.893836      36.893836      36.893836    
 164000000   0.31983125    -8.1081699     -7.6284299      1.2317907      50218.233      36.893836      36.893836      36.893836    
 165000000   0.32007057    -8.1056064     -7.6255074      1.2450342      50218.233      36.893836      36.893836      36.893836    
 166000000   0.31978204    -8.1081284     -7.6284622      1.2303122      50218.233      36.893836      36.893836      36.893836    
 167000000   0.31947947    -8.106798      -7.6275856      1.2430903      50218.233      36.893836      36.893836      36.893836    
 168000000   0.31993483    -8.1081133     -7.6282179      1.2419651      50218.233      36.893836      36.893836      36.893836    
 169000000   0.31985916    -8.1081348     -7.6283529      1.233173       50218.233      36.893836      36.893836      36.893836    
 170000000   0.31915011    -8.106342      -7.6276236      1.2435969      50218.233      36.893836      36.893836      36.893836    
 171000000   0.31962017    -8.1067221     -7.6272987      1.2427476      50218.233      36.893836      36.893836      36.893836    
 172000000   0.32259878    -8.1091787     -7.6252874      1.2234088      50218.233      36.893836      36.893836      36.893836    
 173000000   0.32092808    -8.1074006     -7.6260154      1.242479       50218.233      36.893836      36.893836      36.893836    
 174000000   0.31984895    -8.1065156     -7.626749       1.2528352      50218.233      36.893836      36.893836      36.893836    
 175000000   0.32073063    -8.1089975     -7.6279084      1.236637       50218.233      36.893836      36.893836      36.893836    
 176000000   0.31877866    -8.1078566     -7.6296954      1.2387519      50218.233      36.893836      36.893836      36.893836    
 177000000   0.31970466    -8.1081028     -7.6285527      1.2285663      50218.233      36.893836      36.893836      36.893836    
 178000000   0.31953386    -8.1058839     -7.6265899      1.2574599      50218.233      36.893836      36.893836      36.893836    
 179000000   0.32069075    -8.1067705     -7.6257413      1.2452654      50218.233      36.893836      36.893836      36.893836    
 180000000   0.32030641    -8.1071777     -7.6267249      1.2395073      50218.233      36.893836      36.893836      36.893836    
 181000000   0.32112734    -8.1072016     -7.6255174      1.2483094      50218.233      36.893836      36.893836      36.893836    
 182000000   0.31896121    -8.1064331     -7.627998       1.243831       50218.233      36.893836      36.893836      36.893836    
 183000000   0.32028561    -8.1069375     -7.6265159      1.2424828      50218.233      36.893836      36.893836      36.893836    
 184000000   0.31701209    -8.1085562     -7.6330448      1.2266724      50218.233      36.893836      36.893836      36.893836    
 185000000   0.32076167    -8.1084775     -7.6273418      1.2336409      50218.233      36.893836      36.893836      36.893836    
 186000000   0.31855556    -8.1071255     -7.6292989      1.2433307      50218.233      36.893836      36.893836      36.893836    
 187000000   0.31942378    -8.1090746     -7.6299458      1.2258475      50218.233      36.893836      36.893836      36.893836    
 188000000   0.31996944    -8.1096188     -7.6296714      1.2216471      50218.233      36.893836      36.893836      36.893836    
 189000000   0.32013856    -8.1081392     -7.6279381      1.2321869      50218.233      36.893836      36.893836      36.893836    
 190000000   0.3192799     -8.1069066     -7.6279935      1.2433595      50218.233      36.893836      36.893836      36.893836    
 191000000   0.3183461     -8.1090964     -7.631584       1.2225048      50218.233      36.893836      36.893836      36.893836    
 192000000   0.31976981    -8.1113563     -7.6317084      1.2088074      50218.233      36.893836      36.893836      36.893836    
 193000000   0.31908826    -8.1084735     -7.6298479      1.2309644      50218.233      36.893836      36.893836      36.893836    
 194000000   0.31997549    -8.1081618     -7.6282054      1.2347551      50218.233      36.893836      36.893836      36.893836    
 195000000   0.31979087    -8.1074722     -7.6277927      1.2365545      50218.233      36.893836      36.893836      36.893836    
 196000000   0.32069995    -8.1088233     -7.6277802      1.2306534      50218.233      36.893836      36.893836      36.893836    
 197000000   0.31931935    -8.1076406     -7.6286683      1.221309       50218.233      36.893836      36.893836      36.893836    
 198000000   0.32014026    -8.1092841     -7.6290805      1.2263139      50218.233      36.893836      36.893836      36.893836    
 199000000   0.32141894    -8.1083827     -7.6262611      1.2294938      50218.233      36.893836      36.893836      36.893836    
 200000000   0.32115623    -8.1100376     -7.6283101      1.2241215      50218.233      36.893836      36.893836      36.893836    
 201000000   0.32001093    -8.1087247     -7.6287152      1.2327372      50218.233      36.893836      36.893836      36.893836    
 202000000   0.3213919     -8.1084895     -7.6264085      1.2296531      50218.233      36.893836      36.893836      36.893836    
 203000000   0.31818611    -8.109304      -7.6320316      1.221876       50218.233      36.893836      36.893836      36.893836    
 204000000   0.31980043    -8.1098748     -7.630181       1.2188016      50218.233      36.893836      36.893836      36.893836    
 205000000   0.32006999    -8.1082409     -7.6281427      1.2434855      50218.233      36.893836      36.893836      36.893836    
 206000000   0.32112753    -8.1078951     -7.6262107      1.2386042      50218.233      36.893836      36.893836      36.893836    
 207000000   0.3205469     -8.107778      -7.6269645      1.2387185      50218.233      36.893836      36.893836      36.893836    
 208000000   0.32145829    -8.1074701     -7.6252895      1.2466991      50218.233      36.893836      36.893836      36.893836    
 209000000   0.31950654    -8.1103083     -7.6310553      1.2182703      50218.233      36.893836      36.893836      36.893836    
 210000000   0.3211847     -8.1103573     -7.6285871      1.2163446      50218.233      36.893836      36.893836      36.893836    
 211000000   0.31925733    -8.1090232     -7.630144       1.2229208      50218.233      36.893836      36.893836      36.893836    
 212000000   0.32192082    -8.1108357     -7.6279613      1.2156707      50218.233      36.893836      36.893836      36.893836    
 213000000   0.32064584    -8.1104524     -7.6294905      1.2183025      50218.233      36.893836      36.893836      36.893836    
 214000000   0.31915421    -8.1091223     -7.6303977      1.2353627      50218.233      36.893836      36.893836      36.893836    
 215000000   0.32010774    -8.1121577     -7.6320029      1.205857       50218.233      36.893836      36.893836      36.893836    
 216000000   0.31952065    -8.1093433     -7.6300692      1.2201211      50218.233      36.893836      36.893836      36.893836    
 217000000   0.31846635    -8.1072034     -7.6295107      1.2441338      50218.233      36.893836      36.893836      36.893836    
 218000000   0.32055092    -8.1088974     -7.6280779      1.2270851      50218.233      36.893836      36.893836      36.893836    
 219000000   0.31999751    -8.1094243     -7.6294349      1.2237542      50218.233      36.893836      36.893836      36.893836    
 220000000   0.32018924    -8.1073333     -7.6270563      1.2386201      50218.233      36.893836      36.893836      36.893836    
 221000000   0.31929264    -8.1067774     -7.6278452      1.2381774      50218.233      36.893836      36.893836      36.893836    
 222000000   0.32127141    -8.1105325     -7.6286322      1.214311       50218.233      36.893836      36.893836      36.893836    
 223000000   0.3189793     -8.1100848     -7.6316226      1.2088923      50218.233      36.893836      36.893836      36.893836    
 224000000   0.32207795    -8.1072634     -7.6241534      1.2432303      50218.233      36.893836      36.893836      36.893836    
 225000000   0.32076944    -8.1133165     -7.6321692      1.1924597      50218.233      36.893836      36.893836      36.893836    
 226000000   0.32051521    -8.1072728     -7.6265068      1.2411369      50218.233      36.893836      36.893836      36.893836    
 227000000   0.3202625     -8.1083976     -7.6280107      1.236224       50218.233      36.893836      36.893836      36.893836    
 228000000   0.32093144    -8.1082521     -7.6268618      1.2398913      50218.233      36.893836      36.893836      36.893836    
 229000000   0.32229045    -8.1106671     -7.6272383      1.2128709      50218.233      36.893836      36.893836      36.893836    
 230000000   0.3206789     -8.1078546     -7.6268431      1.2419533      50218.233      36.893836      36.893836      36.893836    
 231000000   0.32013744    -8.1096834     -7.6294841      1.2254718      50218.233      36.893836      36.893836      36.893836    
 232000000   0.32099529    -8.1064363     -7.6249502      1.2495913      50218.233      36.893836      36.893836      36.893836    
 233000000   0.31679862    -8.1057804     -7.6305893      1.2538128      50218.233      36.893836      36.893836      36.893836    
 234000000   0.31881208    -8.1081611     -7.6299498      1.234403       50218.233      36.893836      36.893836      36.893836    
 235000000   0.31986425    -8.1054528     -7.6256633      1.2443581      50218.233      36.893836      36.893836      36.893836    
 236000000   0.31939461    -8.1101181     -7.631033       1.2225785      50218.233      36.893836      36.893836      36.893836    
 237000000   0.31763528    -8.1106303     -7.6341841      1.2098894      50218.233      36.893836      36.893836      36.893836    
 238000000   0.32052505    -8.1105909     -7.6298102      1.2225415      50218.233      36.893836      36.893836      36.893836    
 239000000   0.32026019    -8.1082516     -7.6278681      1.2340466      50218.233      36.893836      36.893836      36.893836    
 240000000   0.31955029    -8.1063919     -7.6270732      1.2361867      50218.233      36.893836      36.893836      36.893836    
 241000000   0.32084388    -8.1121063     -7.6308473      1.208327       50218.233      36.893836      36.893836      36.893836    
 242000000   0.32292242    -8.1099622     -7.6255855      1.2254357      50218.233      36.893836      36.893836      36.893836    
 243000000   0.32017422    -8.1116247     -7.6313702      1.2117693      50218.233      36.893836      36.893836      36.893836    
 244000000   0.31988293    -8.1089403     -7.6291227      1.2228526      50218.233      36.893836      36.893836      36.893836    
 245000000   0.31864328    -8.1059656     -7.6280074      1.2399645      50218.233      36.893836      36.893836      36.893836    
 246000000   0.31808292    -8.1109455     -7.6338279      1.2046427      50218.233      36.893836      36.893836      36.893836    
 247000000   0.32091363    -8.1088168     -7.6274532      1.225866       50218.233      36.893836      36.893836      36.893836    
 248000000   0.32042816    -8.1090755     -7.6284401      1.2236174      50218.233      36.893836      36.893836      36.893836    
 249000000   0.3202178     -8.1095116     -7.6291917      1.2189605      50218.233      36.893836      36.893836      36.893836    
 250000000   0.31951541    -8.1099042     -7.6306379      1.2172218      50218.233      36.893836      36.893836      36.893836    
 251000000   0.31961309    -8.1106624     -7.6312496      1.2144102      50218.233      36.893836      36.893836      36.893836    
 252000000   0.32056458    -8.1099725     -7.6291325      1.2244551      50218.233      36.893836      36.893836      36.893836    
 253000000   0.32015364    -8.1108757     -7.630652       1.2086725      50218.233      36.893836      36.893836      36.893836    
 254000000   0.31850328    -8.1083646     -7.6306165      1.2250121      50218.233      36.893836      36.893836      36.893836    
 255000000   0.31957451    -8.1105572     -7.6312022      1.2188391      50218.233      36.893836      36.893836      36.893836    
 256000000   0.31896987    -8.1103843     -7.6319363      1.2223251      50218.233      36.893836      36.893836      36.893836    
 257000000   0.32019444    -8.1108924     -7.6306076      1.2189007      50218.233      36.893836      36.893836      36.893836    
 258000000   0.31986842    -8.110109      -7.6303132      1.2171059      50218.233      36.893836      36.893836      36.893836    
 259000000   0.32089072    -8.1104081     -7.6290789      1.2121265      50218.233      36.893836      36.893836      36.893836    
 260000000   0.32089578    -8.1113905     -7.6300537      1.2099241      50218.233      36.893836      36.893836      36.893836    
 261000000   0.3191705     -8.1082196     -7.6294706      1.2261054      50218.233      36.893836      36.893836      36.893836    
 262000000   0.31996153    -8.1078692     -7.6279337      1.238021       50218.233      36.893836      36.893836      36.893836    
 263000000   0.32159903    -8.1121245     -7.6297328      1.2009211      50218.233      36.893836      36.893836      36.893836    
 264000000   0.32054396    -8.1084862     -7.6276771      1.2284869      50218.233      36.893836      36.893836      36.893836    
 265000000   0.32000516    -8.1076895     -7.6276886      1.2327043      50218.233      36.893836      36.893836      36.893836    
 266000000   0.32070015    -8.1097996     -7.6287562      1.22543        50218.233      36.893836      36.893836      36.893836    
 267000000   0.31841662    -8.1088295     -7.6312114      1.2282212      50218.233      36.893836      36.893836      36.893836    
 268000000   0.32131074    -8.109305      -7.6273458      1.2228214      50218.233      36.893836      36.893836      36.893836    
 269000000   0.31960534    -8.1077488     -7.6283476      1.2276921      50218.233      36.893836      36.893836      36.893836    
 270000000   0.32061237    -8.1123835     -7.6314718      1.2039114      50218.233      36.893836      36.893836      36.893836    
 271000000   0.31821779    -8.1105718     -7.6332519      1.2136697      50218.233      36.893836      36.893836      36.893836    
 272000000   0.31945857    -8.1081663     -7.6289853      1.2284627      50218.233      36.893836      36.893836      36.893836    
 273000000   0.31995922    -8.1081489     -7.6282169      1.2351969      50218.233      36.893836      36.893836      36.893836    
 274000000   0.31873967    -8.105288      -7.6271853      1.2498885      50218.233      36.893836      36.893836      36.893836    
 275000000   0.31867861    -8.1104425     -7.6324313      1.2153966      50218.233      36.893836      36.893836      36.893836    
 276000000   0.32131544    -8.1106722     -7.6287059      1.2137543      50218.233      36.893836      36.893836      36.893836    
 277000000   0.32164302    -8.1100972     -7.6276395      1.2241446      50218.233      36.893836      36.893836      36.893836    
 278000000   0.32041249    -8.1086387     -7.6280268      1.22959        50218.233      36.893836      36.893836      36.893836    
 279000000   0.31795481    -8.1083829     -7.6314575      1.2207245      50218.233      36.893836      36.893836      36.893836    
 280000000   0.32112207    -8.1082336     -7.6265574      1.2263976      50218.233      36.893836      36.893836      36.893836    
 281000000   0.32094671    -8.1095511     -7.6281379      1.2248729      50218.233      36.893836      36.893836      36.893836    
 282000000   0.320369      -8.1115561     -7.6310094      1.2055728      50218.233      36.893836      36.893836      36.893836    
 283000000   0.32269389    -8.1074201     -7.6233862      1.2439024      50218.233      36.893836      36.893836      36.893836    
 284000000   0.31882023    -8.1116986     -7.633475       1.2010041      50218.233      36.893836      36.893836      36.893836    
 285000000   0.31988044    -8.1078955     -7.6280817      1.2323387      50218.233      36.893836      36.893836      36.893836    
 286000000   0.3213197     -8.1090124     -7.6270397      1.2206252      50218.233      36.893836      36.893836      36.893836    
 287000000   0.31954679    -8.1077272     -7.6284138      1.2337378      50218.233      36.893836      36.893836      36.893836    
 288000000   0.31971328    -8.1100359     -7.6304728      1.2152004      50218.233      36.893836      36.893836      36.893836    
 289000000   0.31869897    -8.1082778     -7.6302361      1.2314141      50218.233      36.893836      36.893836      36.893836    
 290000000   0.31893008    -8.1087368     -7.6303484      1.2354196      50218.233      36.893836      36.893836      36.893836    
 291000000   0.32098882    -8.1121858     -7.6307094      1.2027821      50218.233      36.893836      36.893836      36.893836    
 292000000   0.32090122    -8.109534      -7.628189       1.2191924      50218.233      36.893836      36.893836      36.893836    
 293000000   0.31887214    -8.1104067     -7.6321053      1.2125696      50218.233      36.893836      36.893836      36.893836    
 294000000   0.32099031    -8.1094558     -7.6279772      1.2284517      50218.233      36.893836      36.893836      36.893836    
 295000000   0.31972247    -8.1081221     -7.6285453      1.2309994      50218.233      36.893836      36.893836      36.893836    
 296000000   0.31981886    -8.1072662     -7.6275448      1.2381722      50218.233      36.893836      36.893836      36.893836    
 297000000   0.31953051    -8.112811      -7.633522       1.1983745      50218.233      36.893836      36.893836      36.893836    
 298000000   0.31885867    -8.1110564     -7.6327752      1.2067339      50218.233      36.893836      36.893836      36.893836    
 299000000   0.32057379    -8.110155      -7.6293012      1.2200016      50218.233      36.893836      36.893836      36.893836    
 300000000   0.31904305    -8.1109071     -7.6323494      1.2090202      50218.233      36.893836      36.893836      36.893836    
 301000000   0.31913419    -8.110623      -7.6319285      1.2111597      50218.233      36.893836      36.893836      36.893836    
 302000000   0.31970807    -8.1080513     -7.6284961      1.2275348      50218.233      36.893836      36.893836      36.893836    
 303000000   0.31945473    -8.1095935     -7.6304183      1.2205999      50218.233      36.893836      36.893836      36.893836    
 304000000   0.32094364    -8.1090354     -7.6276268      1.2254751      50218.233      36.893836      36.893836      36.893836    
 305000000   0.31941186    -8.1113341     -7.6322231      1.2077305      50218.233      36.893836      36.893836      36.893836    
 306000000   0.32024642    -8.1099889     -7.6296261      1.2190251      50218.233      36.893836      36.893836      36.893836    
 307000000   0.31973959    -8.1100058     -7.6304033      1.2130312      50218.233      36.893836      36.893836      36.893836    
 308000000   0.32145426    -8.1105729     -7.6283984      1.2264107      50218.233      36.893836      36.893836      36.893836    
 309000000   0.32100341    -8.1112153     -7.629717       1.202847       50218.233      36.893836      36.893836      36.893836    
 310000000   0.3222628     -8.1111256     -7.6277383      1.2108555      50218.233      36.893836      36.893836      36.893836    
 311000000   0.3210051     -8.1134459     -7.6319451      1.1891625      50218.233      36.893836      36.893836      36.893836    
 312000000   0.32184335    -8.1095695     -7.6268113      1.2330134      50218.233      36.893836      36.893836      36.893836    
 313000000   0.31791275    -8.1092714     -7.6324091      1.2208587      50218.233      36.893836      36.893836      36.893836    
 314000000   0.32004702    -8.1069242     -7.6268605      1.2400987      50218.233      36.893836      36.893836      36.893836    
 315000000   0.3192365     -8.1096877     -7.6308397      1.2153567      50218.233      36.893836      36.893836      36.893836    
 316000000   0.31920242    -8.1103829     -7.6315861      1.2071124      50218.233      36.893836      36.893836      36.893836    
 317000000   0.32061484    -8.1088778     -7.6279624      1.2237546      50218.233      36.893836      36.893836      36.893836    
 318000000   0.32009276    -8.1124973     -7.632365       1.1988687      50218.233      36.893836      36.893836      36.893836    
 319000000   0.31968496    -8.1081386     -7.628618       1.2237297      50218.233      36.893836      36.893836      36.893836    
 320000000   0.31972001    -8.1103501     -7.6307769      1.2129324      50218.233      36.893836      36.893836      36.893836    
 321000000   0.32073826    -8.1099071     -7.6288066      1.2160727      50218.233      36.893836      36.893836      36.893836    
 322000000   0.32102618    -8.1085466     -7.6270142      1.2254263      50218.233      36.893836      36.893836      36.893836    
 323000000   0.31884016    -8.11012       -7.6318665      1.2157984      50218.233      36.893836      36.893836      36.893836    
 324000000   0.32151755    -8.1115607     -7.6292913      1.2097235      50218.233      36.893836      36.893836      36.893836    
 325000000   0.32074475    -8.1095727     -7.6284625      1.2203294      50218.233      36.893836      36.893836      36.893836    
 326000000   0.31931484    -8.1076839     -7.6287184      1.2314044      50218.233      36.893836      36.893836      36.893836    
 327000000   0.32044008    -8.1097922     -7.6291389      1.2347705      50218.233      36.893836      36.893836      36.893836    
 328000000   0.32121059    -8.1087765     -7.6269675      1.2299798      50218.233      36.893836      36.893836      36.893836    
 329000000   0.31921051    -8.106468      -7.627659       1.2506812      50218.233      36.893836      36.893836      36.893836    
 330000000   0.31916963    -8.1093839     -7.6306362      1.2173849      50218.233      36.893836      36.893836      36.893836    
 331000000   0.3201896     -8.1082745     -7.6279969      1.2270673      50218.233      36.893836      36.893836      36.893836    
 332000000   0.31985109    -8.1075709     -7.6278011      1.2372375      50218.233      36.893836      36.893836      36.893836    
 333000000   0.31840263    -8.1096493     -7.6320522      1.2141639      50218.233      36.893836      36.893836      36.893836    
 334000000   0.32078125    -8.1087221     -7.627557       1.2327177      50218.233      36.893836      36.893836      36.893836    
 335000000   0.31974463    -8.1090715     -7.6294614      1.2303685      50218.233      36.893836      36.893836      36.893836    
 336000000   0.31924677    -8.111571      -7.6327076      1.2048235      50218.233      36.893836      36.893836      36.893836    
 337000000   0.32068331    -8.1098149     -7.6287968      1.2170134      50218.233      36.893836      36.893836      36.893836    
 338000000   0.31875414    -8.1074288     -7.6293044      1.2324415      50218.233      36.893836      36.893836      36.893836    
 339000000   0.32175906    -8.1103101     -7.6276783      1.2180645      50218.233      36.893836      36.893836      36.893836    
 340000000   0.3193882     -8.111222      -7.6321465      1.2084104      50218.233      36.893836      36.893836      36.893836    
 341000000   0.31989368    -8.1114285     -7.6315948      1.205426       50218.233      36.893836      36.893836      36.893836    
 342000000   0.32006865    -8.1117164     -7.6316202      1.1991822      50218.233      36.893836      36.893836      36.893836    
 343000000   0.32059147    -8.1088242     -7.6279438      1.2319951      50218.233      36.893836      36.893836      36.893836    
 344000000   0.3192807     -8.1080119     -7.6290976      1.2337421      50218.233      36.893836      36.893836      36.893836    
 345000000   0.32092701    -8.1115017     -7.630118       1.2064127      50218.233      36.893836      36.893836      36.893836    
 346000000   0.31872136    -8.1090592     -7.630984       1.219271       50218.233      36.893836      36.893836      36.893836    
 347000000   0.31872984    -8.1119865     -7.6338985      1.1994845      50218.233      36.893836      36.893836      36.893836    
 348000000   0.32061241    -8.1106232     -7.6297115      1.2103187      50218.233      36.893836      36.893836      36.893836    
 349000000   0.3202552     -8.1095326     -7.6291566      1.2162563      50218.233      36.893836      36.893836      36.893836    
 350000000   0.32091571    -8.1117969     -7.6304302      1.2097382      50218.233      36.893836      36.893836      36.893836    
 351000000   0.31827925    -8.109819      -7.6324069      1.2197962      50218.233      36.893836      36.893836      36.893836    
 352000000   0.31888688    -8.1110917     -7.6327682      1.2078184      50218.233      36.893836      36.893836      36.893836    
 353000000   0.32114539    -8.1094971     -7.6277859      1.2245748      50218.233      36.893836      36.893836      36.893836    
 354000000   0.31888676    -8.110134      -7.6318107      1.2090849      50218.233      36.893836      36.893836      36.893836    
 355000000   0.31857768    -8.1100755     -7.6322158      1.2107577      50218.233      36.893836      36.893836      36.893836    
 356000000   0.31865517    -8.1117157     -7.6337398      1.1986207      50218.233      36.893836      36.893836      36.893836    
 357000000   0.31878651    -8.1072448     -7.6290718      1.2397328      50218.233      36.893836      36.893836      36.893836    
 358000000   0.32006679    -8.1124496     -7.6323563      1.204174       50218.233      36.893836      36.893836      36.893836    
 359000000   0.31936764    -8.1096424     -7.6305978      1.2165197      50218.233      36.893836      36.893836      36.893836    
 360000000   0.31855944    -8.1067818     -7.6289494      1.2343028      50218.233      36.893836      36.893836      36.893836    
 361000000   0.32078176    -8.1095696     -7.6284038      1.2229254      50218.233      36.893836      36.893836      36.893836    
 362000000   0.32045936    -8.1116543     -7.630972       1.2050149      50218.233      36.893836      36.893836      36.893836    
 363000000   0.31948801    -8.1122185     -7.6329933      1.1988369      50218.233      36.893836      36.893836      36.893836    
 364000000   0.31940448    -8.109706      -7.6306061      1.2234174      50218.233      36.893836      36.893836      36.893836    
 365000000   0.32113465    -8.108339      -7.6266439      1.227612       50218.233      36.893836      36.893836      36.893836    
 366000000   0.3192408     -8.1101735     -7.6313191      1.2140596      50218.233      36.893836      36.893836      36.893836    
 367000000   0.3198055     -8.1097359     -7.6300344      1.2190666      50218.233      36.893836      36.893836      36.893836    
 368000000   0.32018139    -8.1056345     -7.6253693      1.2476748      50218.233      36.893836      36.893836      36.893836    
 369000000   0.32230499    -8.1114614     -7.6280108      1.2010481      50218.233      36.893836      36.893836      36.893836    
 370000000   0.31936987    -8.105896      -7.626848       1.2500681      50218.233      36.893836      36.893836      36.893836    
 371000000   0.31903022    -8.10589       -7.6273515      1.2525705      50218.233      36.893836      36.893836      36.893836    
 372000000   0.31947041    -8.1076707     -7.6284719      1.2341936      50218.233      36.893836      36.893836      36.893836    
 373000000   0.31852741    -8.1102001     -7.6324158      1.2140387      50218.233      36.893836      36.893836      36.893836    
 374000000   0.3201879     -8.1104356     -7.6301606      1.2181061      50218.233      36.893836      36.893836      36.893836    
 375000000   0.32025522    -8.1079579     -7.6275819      1.2272748      50218.233      36.893836      36.893836      36.893836    
 376000000   0.31967893    -8.1082492     -7.6287376      1.2281347      50218.233      36.893836      36.893836      36.893836    
 377000000   0.32129348    -8.1089394     -7.627006       1.2332251      50218.233      36.893836      36.893836      36.893836    
 378000000   0.32144148    -8.1097412     -7.6275858      1.2093197      50218.233      36.893836      36.893836      36.893836    
 379000000   0.32113217    -8.1110587     -7.6293672      1.2043351      50218.233      36.893836      36.893836      36.893836    
 380000000   0.31933988    -8.1077042     -7.6287012      1.2434576      50218.233      36.893836      36.893836      36.893836    
 381000000   0.32121992    -8.1098906     -7.6280676      1.2240091      50218.233      36.893836      36.893836      36.893836    
 382000000   0.31965541    -8.1106279     -7.6311516      1.2204188      50218.233      36.893836      36.893836      36.893836    
 383000000   0.31921874    -8.1111176     -7.6322963      1.2091476      50218.233      36.893836      36.893836      36.893836    
 384000000   0.320363      -8.1106791     -7.6301414      1.2228283      50218.233      36.893836      36.893836      36.893836    
 385000000   0.32106806    -8.1114277     -7.6298324      1.205538       50218.233      36.893836      36.893836      36.893836    
 386000000   0.31895931    -8.1128432     -7.634411       1.1958802      50218.233      36.893836      36.893836      36.893836    
 387000000   0.31922411    -8.1092428     -7.6304135      1.2244319      50218.233      36.893836      36.893836      36.893836    
 388000000   0.31957099    -8.1089771     -7.6296274      1.2245226      50218.233      36.893836      36.893836      36.893836    
 389000000   0.3210152     -8.1083336     -7.6268177      1.2336443      50218.233      36.893836      36.893836      36.893836    
 390000000   0.31997988    -8.1128681     -7.6329051      1.2053428      50218.233      36.893836      36.893836      36.893836    
 391000000   0.31989975    -8.1105829     -7.6307401      1.2141515      50218.233      36.893836      36.893836      36.893836    
 392000000   0.31964494    -8.1092185     -7.629758       1.2272255      50218.233      36.893836      36.893836      36.893836    
 393000000   0.3192621     -8.1106239     -7.6317376      1.2124137      50218.233      36.893836      36.893836      36.893836    
 394000000   0.3184133     -8.1105242     -7.6329111      1.2138402      50218.233      36.893836      36.893836      36.893836    
 395000000   0.31924476    -8.1097607     -7.6309004      1.2182449      50218.233      36.893836      36.893836      36.893836    
 396000000   0.32103177    -8.1103202     -7.6287794      1.2164744      50218.233      36.893836      36.893836      36.893836    
 397000000   0.32070949    -8.1111505     -7.6300931      1.2097877      50218.233      36.893836      36.893836      36.893836    
 398000000   0.32005365    -8.1108742     -7.6308005      1.2104941      50218.233      36.893836      36.893836      36.893836    
 399000000   0.32002501    -8.1122658     -7.6322352      1.2079332      50218.233      36.893836      36.893836      36.893836    
 400000000   0.31991508    -8.111864      -7.6319982      1.2100151      50218.233      36.893836      36.893836      36.893836    
 401000000   0.32077591    -8.1113617     -7.6302047      1.2098552      50218.233      36.893836      36.893836      36.893836    
 402000000   0.31975108    -8.1111265     -7.6315067      1.2106863      50218.233      36.893836      36.893836      36.893836    
 403000000   0.32067515    -8.1097148     -7.6287089      1.2184984      50218.233      36.893836      36.893836      36.893836    
 404000000   0.31751718    -8.1095113     -7.6332423      1.2205105      50218.233      36.893836      36.893836      36.893836    
 405000000   0.3210722     -8.1100119     -7.6284105      1.2213987      50218.233      36.893836      36.893836      36.893836    
 406000000   0.32049463    -8.1079162     -7.6271811      1.2454892      50218.233      36.893836      36.893836      36.893836    
 407000000   0.31959546    -8.1111766     -7.6317903      1.2080466      50218.233      36.893836      36.893836      36.893836    
 408000000   0.32033533    -8.1113762     -7.63088        1.2041122      50218.233      36.893836      36.893836      36.893836    
 409000000   0.32042974    -8.1123618     -7.6317241      1.207591       50218.233      36.893836      36.893836      36.893836    
 410000000   0.32074771    -8.1109191     -7.6298043      1.2107588      50218.233      36.893836      36.893836      36.893836    
 411000000   0.32131313    -8.1094663     -7.6275035      1.2153431      50218.233      36.893836      36.893836      36.893836    
 412000000   0.31911063    -8.1102403     -7.6315812      1.2080842      50218.233      36.893836      36.893836      36.893836    
 413000000   0.31831357    -8.110065      -7.6326015      1.2165935      50218.233      36.893836      36.893836      36.893836    
 414000000   0.3206974     -8.1128905     -7.6318512      1.2012096      50218.233      36.893836      36.893836      36.893836    
 415000000   0.31906743    -8.1101762     -7.6315819      1.2117129      50218.233      36.893836      36.893836      36.893836    
 416000000   0.32009236    -8.111051      -7.6309193      1.2158219      50218.233      36.893836      36.893836      36.893836    
 417000000   0.32161532    -8.1099389     -7.6275228      1.214033       50218.233      36.893836      36.893836      36.893836    
 418000000   0.32120326    -8.1091947     -7.6273966      1.2214703      50218.233      36.893836      36.893836      36.893836    
 419000000   0.31939881    -8.1102407     -7.6311493      1.2079731      50218.233      36.893836      36.893836      36.893836    
 420000000   0.3191871     -8.1100718     -7.631298       1.2225467      50218.233      36.893836      36.893836      36.893836    
 421000000   0.32115068    -8.1098916     -7.6281725      1.2209251      50218.233      36.893836      36.893836      36.893836    
 422000000   0.32052363    -8.1100105     -7.6292319      1.2181122      50218.233      36.893836      36.893836      36.893836    
 423000000   0.31956966    -8.1106463     -7.6312986      1.2091985      50218.233      36.893836      36.893836      36.893836    
 424000000   0.32109864    -8.1134602     -7.631819       1.186178       50218.233      36.893836      36.893836      36.893836    
 425000000   0.3204522     -8.1094587     -7.6287873      1.2178466      50218.233      36.893836      36.893836      36.893836    
 426000000   0.32015348    -8.1107512     -7.6305278      1.2111096      50218.233      36.893836      36.893836      36.893836    
 427000000   0.31968066    -8.1082318     -7.6287176      1.230619       50218.233      36.893836      36.893836      36.893836    
 428000000   0.31891769    -8.1088939     -7.6305241      1.2219979      50218.233      36.893836      36.893836      36.893836    
 429000000   0.32056616    -8.1099237     -7.6290813      1.2194062      50218.233      36.893836      36.893836      36.893836    
 430000000   0.32217577    -8.1061053     -7.6228485      1.2532042      50218.233      36.893836      36.893836      36.893836    
 431000000   0.32009189    -8.1102943     -7.6301633      1.2082994      50218.233      36.893836      36.893836      36.893836    
 432000000   0.31950757    -8.1097309     -7.6304764      1.2150602      50218.233      36.893836      36.893836      36.893836    
 433000000   0.32036079    -8.110688      -7.6301537      1.2177497      50218.233      36.893836      36.893836      36.893836    
 434000000   0.31780686    -8.1111869     -7.6344834      1.1993801      50218.233      36.893836      36.893836      36.893836    
 435000000   0.31870023    -8.1101167     -7.6320732      1.2163281      50218.233      36.893836      36.893836      36.893836    
 436000000   0.31935097    -8.1107644     -7.6317448      1.2148433      50218.233      36.893836      36.893836      36.893836    
 437000000   0.32002215    -8.1115802     -7.6315538      1.2084305      50218.233      36.893836      36.893836      36.893836    
 438000000   0.31772893    -8.10996       -7.6333734      1.2106164      50218.233      36.893836      36.893836      36.893836    
 439000000   0.31980928    -8.1087202     -7.6290131      1.232632       50218.233      36.893836      36.893836      36.893836    
 440000000   0.32081746    -8.1095401     -7.6283207      1.2238988      50218.233      36.893836      36.893836      36.893836    
 441000000   0.31946097    -8.1122271     -7.6330425      1.2046455      50218.233      36.893836      36.893836      36.893836    
 442000000   0.31879353    -8.1106075     -7.632424       1.2120362      50218.233      36.893836      36.893836      36.893836    
 443000000   0.31975335    -8.1095557     -7.6299325      1.2222375      50218.233      36.893836      36.893836      36.893836    
 444000000   0.32140255    -8.1093537     -7.6272567      1.2223108      50218.233      36.893836      36.893836      36.893836    
 445000000   0.32032192    -8.1098703     -7.6293942      1.2208433      50218.233      36.893836      36.893836      36.893836    
 446000000   0.32044597    -8.109888      -7.6292259      1.2211904      50218.233      36.893836      36.893836      36.893836    
 447000000   0.3214134     -8.1129658     -7.6308526      1.1993784      50218.233      36.893836      36.893836      36.893836    
 448000000   0.3221161     -8.1110536     -7.6278863      1.2088448      50218.233      36.893836      36.893836      36.893836    
 449000000   0.31898709    -8.1107603     -7.6322865      1.2167095      50218.233      36.893836      36.893836      36.893836    
 450000000   0.31928627    -8.1098215     -7.6308989      1.213827       50218.233      36.893836      36.893836      36.893836    
 451000000   0.31905877    -8.1080688     -7.6294875      1.2390053      50218.233      36.893836      36.893836      36.893836    
 452000000   0.32012507    -8.111027      -7.6308463      1.2059023      50218.233      36.893836      36.893836      36.893836    
 453000000   0.31873348    -8.1115796     -7.6334862      1.2011828      50218.233      36.893836      36.893836      36.893836    
 454000000   0.31910261    -8.1110408     -7.6323937      1.2061027      50218.233      36.893836      36.893836      36.893836    
 455000000   0.3190474     -8.1080819     -7.6295176      1.2225173      50218.233      36.893836      36.893836      36.893836    
 456000000   0.32122004    -8.1108546     -7.6290314      1.2190506      50218.233      36.893836      36.893836      36.893836    
 457000000   0.32057823    -8.1081896     -7.6273291      1.2261394      50218.233      36.893836      36.893836      36.893836    
 458000000   0.32048158    -8.1096248     -7.6289093      1.2191565      50218.233      36.893836      36.893836      36.893836    
 459000000   0.32168992    -8.109651      -7.627123       1.2194991      50218.233      36.893836      36.893836      36.893836    
 460000000   0.31937725    -8.1090054     -7.6299463      1.2284337      50218.233      36.893836      36.893836      36.893836    
 461000000   0.31943254    -8.1100288     -7.6308868      1.2182501      50218.233      36.893836      36.893836      36.893836    
 462000000   0.3201575     -8.1108358     -7.6306064      1.2165561      50218.233      36.893836      36.893836      36.893836    
 463000000   0.3209037     -8.1088296     -7.6274809      1.2214322      50218.233      36.893836      36.893836      36.893836    
 464000000   0.32031538    -8.1078716     -7.6274053      1.2324874      50218.233      36.893836      36.893836      36.893836    
 465000000   0.32065277    -8.1126709     -7.6316986      1.1968741      50218.233      36.893836      36.893836      36.893836    
 466000000   0.31851837    -8.1116409     -7.6338702      1.2010626      50218.233      36.893836      36.893836      36.893836    
 467000000   0.31945509    -8.1098887     -7.6307129      1.2104052      50218.233      36.893836      36.893836      36.893836    
 468000000   0.32039377    -8.1091739     -7.6285901      1.2274714      50218.233      36.893836      36.893836      36.893836    
 469000000   0.31955441    -8.1106323     -7.6313075      1.2086261      50218.233      36.893836      36.893836      36.893836    
 470000000   0.32135036    -8.1092801     -7.6272614      1.220743       50218.233      36.893836      36.893836      36.893836    
 471000000   0.32006602    -8.1107105     -7.6306183      1.2121209      50218.233      36.893836      36.893836      36.893836    
 472000000   0.32210216    -8.1099577     -7.6268113      1.2189839      50218.233      36.893836      36.893836      36.893836    
 473000000   0.31806552    -8.1100226     -7.6329311      1.210512       50218.233      36.893836      36.893836      36.893836    
 474000000   0.31941422    -8.1082173     -7.6291028      1.2308375      50218.233      36.893836      36.893836      36.893836    
 475000000   0.32029071    -8.1067935     -7.6263643      1.2386458      50218.233      36.893836      36.893836      36.893836    
 476000000   0.31999452    -8.1090084     -7.6290235      1.2224353      50218.233      36.893836      36.893836      36.893836    
 477000000   0.32009311    -8.1105376     -7.6304048      1.2163034      50218.233      36.893836      36.893836      36.893836    
 478000000   0.31970682    -8.1083887     -7.6288353      1.2264999      50218.233      36.893836      36.893836      36.893836    
 479000000   0.32028909    -8.1138029     -7.6333761      1.184036       50218.233      36.893836      36.893836      36.893836    
 480000000   0.32022902    -8.10828       -7.6279433      1.2340651      50218.233      36.893836      36.893836      36.893836    
 481000000   0.31894779    -8.1086594     -7.6302445      1.2294662      50218.233      36.893836      36.893836      36.893836    
 482000000   0.31905861    -8.1103323     -7.6317512      1.2125528      50218.233      36.893836      36.893836      36.893836    
 483000000   0.31920855    -8.1102133     -7.6314073      1.2135068      50218.233      36.893836      36.893836      36.893836    
 484000000   0.31929688    -8.1126942     -7.6337557      1.1904189      50218.233      36.893836      36.893836      36.893836    
 485000000   0.32130561    -8.110806      -7.6288545      1.2094006      50218.233      36.893836      36.893836      36.893836    
 486000000   0.31993562    -8.1098677     -7.6299711      1.2142304      50218.233      36.893836      36.893836      36.893836    
 487000000   0.31988506    -8.1075315     -7.6277107      1.2317919      50218.233      36.893836      36.893836      36.893836    
 488000000   0.31997452    -8.1111567     -7.6312017      1.2203806      50218.233      36.893836      36.893836      36.893836    
 489000000   0.31890883    -8.1118866     -7.6335302      1.2093354      50218.233      36.893836      36.893836      36.893836    
 490000000   0.31972886    -8.110021      -7.6304345      1.2167782      50218.233      36.893836      36.893836      36.893836    
 491000000   0.32122677    -8.1116617     -7.6298284      1.2060644      50218.233      36.893836      36.893836      36.893836    
 492000000   0.32042539    -8.1106525     -7.6300212      1.2094497      50218.233      36.893836      36.893836      36.893836    
 493000000   0.31992839    -8.1124473     -7.6325615      1.1972702      50218.233      36.893836      36.893836      36.893836    
 494000000   0.31905611    -8.1112144     -7.632637       1.2132648      50218.233      36.893836      36.893836      36.893836    
 495000000   0.32023147    -8.1113181     -7.6309778      1.2008666      50218.233      36.893836      36.893836      36.893836    
 496000000   0.32190089    -8.109338      -7.6264936      1.2251496      50218.233      36.893836      36.893836      36.893836    
 497000000   0.32031142    -8.112449      -7.6319887      1.200063       50218.233      36.893836      36.893836      36.893836    
 498000000   0.31968209    -8.1094861     -7.6299698      1.2125436      50218.233      36.893836      36.893836      36.893836    
 499000000   0.31894651    -8.1129591     -7.6345462      1.2035825      50218.233      36.893836      36.893836      36.893836    
 500000000   0.31891498    -8.1113786     -7.6330129      1.2009094      50218.233      36.893836      36.893836      36.893836    
Loop time of 801842 on 5 procs for 500000000 steps with 70304 atoms

Performance: 538759.740 tau/day, 623.565 timesteps/s, 43.839 Matom-step/s
94.3% CPU use with 5 MPI tasks x 1 OpenMP threads

MPI task timing breakdown:
Section |  min time  |  avg time  |  max time  |%varavg| %total
---------------------------------------------------------------
Pair    | 2.9645e+05 | 3.2417e+05 | 3.5484e+05 |3780.1 | 40.43
Neigh   | 1917       | 2082.9     | 2214       | 233.3 |  0.26
Comm    | 1.0928e+05 | 1.1023e+05 | 1.1096e+05 | 178.1 | 13.75
Output  | 0.090104   | 0.093366   | 0.099001   |   1.0 |  0.00
Modify  | 2.9762e+05 | 3.2712e+05 | 3.5545e+05 |3760.4 | 40.80
Other   |            | 3.824e+04  |            |       |  4.77

Nlocal:        14060.8 ave       14091 max       14033 min
Histogram: 1 0 2 0 0 0 0 0 0 2
Nghost:        18753.2 ave       18808 max       18718 min
Histogram: 3 0 0 0 0 0 0 0 1 1
Neighs:              0 ave           0 max           0 min
Histogram: 5 0 0 0 0 0 0 0 0 0

Total # of neighbors = 0
Ave neighs/atom = 0
Neighbor list builds = 84261879
Dangerous builds = 0
clear
OMP_NUM_THREADS environment is not set. Defaulting to 1 thread. (src/comm.cpp:98)
  using 1 OpenMP thread(s) per MPI task
package gpu 0
jump dms300.lmp

variable T equal 300
# T = 1000* (temp in LJ unit)
variable f equal 1000000
log log.${T}
log log.300
