variable TLJ equal (${T}/1000)
variable TLJ equal (400/1000)
variable NCyle equal 5
variable iStep equal (${f})
variable iStep equal (1000000)
variable dumpStep equal (${f}*100)
variable dumpStep equal (1000000*100)
variable runStep equal (${f}*100*${NCyle})
variable runStep equal (1000000*100*${NCyle})
variable runStep equal (1000000*100*5)

units       lj
atom_style  atomic
dimension 3
boundary     p p p
pair_style  lj/cut 2.5
read_data  ../data/T${T}.dat
read_data  ../data/T400.dat
Reading data file ...
  orthogonal box = (0.97250269 0.97250269 0.97250269) to (37.866338 37.866338 37.866338)
  1 by 1 by 5 MPI processor grid
  reading atoms ...
  70304 atoms
  reading velocities ...
  70304 velocities
  read_data CPU = 0.209 seconds
change_box all triclinic
Changing box ...
  triclinic box = (0.97250269 0.97250269 0.97250269) to (37.866338 37.866338 37.866338) with tilt (0 0 0)
mass 1 1
mass 2 1
pair_modify shift yes
pair_coeff  1 1 1 1
pair_coeff  1 2 1.5 0.8
pair_coeff  2 2 0.5 0.88


timestep 0.01
thermo ${iStep}
thermo 1000000
reset_timestep 0
thermo_style custom step temp pe etotal press vol lx ly lz
fix             1 all nvt temp ${TLJ}  ${TLJ}  0.1
fix             1 all nvt temp 0.4  ${TLJ}  0.1
fix             1 all nvt temp 0.4  0.4  0.1
thermo_modify flush yes

fix dsf all deform 1 xy  wiggle 0.5  ${f}   units box
fix dsf all deform 1 xy  wiggle 0.5  1000000   units box
fix ps1 all ave/time 1 1 ${iStep} c_thermo_press[1] c_thermo_press[2]  c_thermo_press[3] c_thermo_press[4]  c_thermo_press[5] c_thermo_press[6]  file  stress.${T}
fix ps1 all ave/time 1 1 1000000 c_thermo_press[1] c_thermo_press[2]  c_thermo_press[3] c_thermo_press[4]  c_thermo_press[5] c_thermo_press[6]  file  stress.${T}
fix ps1 all ave/time 1 1 1000000 c_thermo_press[1] c_thermo_press[2]  c_thermo_press[3] c_thermo_press[4]  c_thermo_press[5] c_thermo_press[6]  file  stress.400
dump            1 all custom ${dumpStep} dump.${T} id type x y z
dump            1 all custom 100000000 dump.${T} id type x y z
dump            1 all custom 100000000 dump.400 id type x y z
dump_modify 1 sort id
fix nodrift all momentum 1  linear 1 1 1
fix com_seed all recenter INIT INIT INIT shift all
run ${runStep}
run 500000000
Generated 0 of 1 mixed pair_coeff terms from geometric mixing rule
Per MPI rank memory allocation (min/avg/max) = 8.915 | 8.919 | 8.923 Mbytes
   Step          Temp          PotEng         TotEng         Press          Volume           Lx             Ly             Lz      
         0   0.39834578    -7.9990818     -7.4015716      2.1561044      50218.233      36.893836      36.893836      36.893836    
   1000000   0.39916061    -7.9875701     -7.3888377      2.2331285      50218.233      36.893836      36.893836      36.893836    
   2000000   0.40072102    -7.9891721     -7.3880992      2.2361823      50218.233      36.893836      36.893836      36.893836    
   3000000   0.39966392    -7.9867158     -7.3872284      2.2433435      50218.233      36.893836      36.893836      36.893836    
   4000000   0.4007716     -7.9879653     -7.3868165      2.2485045      50218.233      36.893836      36.893836      36.893836    
   5000000   0.39825415    -7.9910974     -7.3937247      2.2188656      50218.233      36.893836      36.893836      36.893836    
   6000000   0.39931529    -7.9880969     -7.3891324      2.2419752      50218.233      36.893836      36.893836      36.893836    
   7000000   0.3997479     -7.9934874     -7.3938741      2.203318       50218.233      36.893836      36.893836      36.893836    
   8000000   0.39817991    -7.9933044     -7.3960431      2.1887918      50218.233      36.893836      36.893836      36.893836    
   9000000   0.39939868    -7.9939281     -7.3948386      2.1945539      50218.233      36.893836      36.893836      36.893836    
  10000000   0.39952257    -7.9909398     -7.3916645      2.2102115      50218.233      36.893836      36.893836      36.893836    
  11000000   0.4006167     -7.9951401     -7.3942236      2.1787292      50218.233      36.893836      36.893836      36.893836    
  12000000   0.39920161    -7.9915571     -7.3927632      2.2174489      50218.233      36.893836      36.893836      36.893836    
  13000000   0.39973838    -7.9859314     -7.3863324      2.2528235      50218.233      36.893836      36.893836      36.893836    
  14000000   0.40165823    -7.9910982     -7.3886194      2.2123711      50218.233      36.893836      36.893836      36.893836    
  15000000   0.40092537    -7.9864973     -7.3851178      2.242802       50218.233      36.893836      36.893836      36.893836    
  16000000   0.39951772    -7.9898851     -7.390617       2.2190958      50218.233      36.893836      36.893836      36.893836    
  17000000   0.40085008    -7.9883909     -7.3871244      2.2257377      50218.233      36.893836      36.893836      36.893836    
  18000000   0.40164648    -7.9902526     -7.3877915      2.2116198      50218.233      36.893836      36.893836      36.893836    
  19000000   0.39956699    -7.9909661     -7.3916242      2.2141652      50218.233      36.893836      36.893836      36.893836    
  20000000   0.39989504    -7.9922522     -7.3924182      2.1945811      50218.233      36.893836      36.893836      36.893836    
  21000000   0.39839615    -7.9888119     -7.3912262      2.229651       50218.233      36.893836      36.893836      36.893836    
  22000000   0.40125248    -7.9911222     -7.3892521      2.2242987      50218.233      36.893836      36.893836      36.893836    
  23000000   0.3977429     -7.9902761     -7.3936702      2.2127195      50218.233      36.893836      36.893836      36.893836    
  24000000   0.40068359    -7.9874887     -7.3864718      2.2424076      50218.233      36.893836      36.893836      36.893836    
  25000000   0.39935009    -7.9919108     -7.3928942      2.2120774      50218.233      36.893836      36.893836      36.893836    
  26000000   0.39844162    -7.9898697     -7.3922158      2.2224161      50218.233      36.893836      36.893836      36.893836    
  27000000   0.3990196     -7.9904066     -7.3918857      2.2126619      50218.233      36.893836      36.893836      36.893836    
  28000000   0.39880151    -7.9917444     -7.3935506      2.2156612      50218.233      36.893836      36.893836      36.893836    
  29000000   0.401536      -7.9915531     -7.3892577      2.2064554      50218.233      36.893836      36.893836      36.893836    
  30000000   0.40399006    -7.9919785     -7.386002       2.2071972      50218.233      36.893836      36.893836      36.893836    
  31000000   0.40021055    -7.9914132     -7.3911059      2.2115794      50218.233      36.893836      36.893836      36.893836    
  32000000   0.40056648    -7.989144      -7.3883028      2.2344033      50218.233      36.893836      36.893836      36.893836    
  33000000   0.39818425    -7.9912328     -7.3939649      2.2092275      50218.233      36.893836      36.893836      36.893836    
  34000000   0.40042569    -7.9881732     -7.3875432      2.2299518      50218.233      36.893836      36.893836      36.893836    
  35000000   0.4001117     -7.9898511     -7.3896921      2.2258155      50218.233      36.893836      36.893836      36.893836    
  36000000   0.40052566    -7.9911793     -7.3903993      2.2203186      50218.233      36.893836      36.893836      36.893836    
  37000000   0.40067898    -7.9908331     -7.3898232      2.215759       50218.233      36.893836      36.893836      36.893836    
  38000000   0.40071007    -7.9915692     -7.3905126      2.2076653      50218.233      36.893836      36.893836      36.893836    
  39000000   0.4004775     -7.9902475     -7.3895398      2.2150966      50218.233      36.893836      36.893836      36.893836    
  40000000   0.40123903    -7.9898466     -7.3879966      2.2174028      50218.233      36.893836      36.893836      36.893836    
  41000000   0.39926987    -7.9926266     -7.3937303      2.2048136      50218.233      36.893836      36.893836      36.893836    
  42000000   0.39861899    -7.9902273     -7.3923073      2.2149465      50218.233      36.893836      36.893836      36.893836    
  43000000   0.40185907    -7.989251      -7.386471       2.2389179      50218.233      36.893836      36.893836      36.893836    
  44000000   0.39987113    -7.99311       -7.3933118      2.2011442      50218.233      36.893836      36.893836      36.893836    
  45000000   0.39951619    -7.9902831     -7.3910174      2.2236258      50218.233      36.893836      36.893836      36.893836    
  46000000   0.40010133    -7.9927751     -7.3926317      2.1924303      50218.233      36.893836      36.893836      36.893836    
  47000000   0.3986818     -7.9933264     -7.3953122      2.191907       50218.233      36.893836      36.893836      36.893836    
  48000000   0.39763706    -7.9923422     -7.3958951      2.1996797      50218.233      36.893836      36.893836      36.893836    
  49000000   0.40064804    -7.9896842     -7.3887207      2.2279206      50218.233      36.893836      36.893836      36.893836    
  50000000   0.39772708    -7.9914694     -7.3948872      2.1981474      50218.233      36.893836      36.893836      36.893836    
  51000000   0.39945071    -7.9902071     -7.3910395      2.2197745      50218.233      36.893836      36.893836      36.893836    
  52000000   0.39845197    -7.9952461     -7.3975766      2.1740257      50218.233      36.893836      36.893836      36.893836    
  53000000   0.40127207    -7.9904968     -7.3885972      2.2171253      50218.233      36.893836      36.893836      36.893836    
  54000000   0.40052462    -7.9902049     -7.3894265      2.2154307      50218.233      36.893836      36.893836      36.893836    
  55000000   0.40146565    -7.9921788     -7.3899889      2.1970378      50218.233      36.893836      36.893836      36.893836    
  56000000   0.40131349    -7.9942225     -7.3922608      2.1795732      50218.233      36.893836      36.893836      36.893836    
  57000000   0.40145659    -7.9935009     -7.3913246      2.2017428      50218.233      36.893836      36.893836      36.893836    
  58000000   0.39824361    -7.9888288     -7.3914719      2.2305324      50218.233      36.893836      36.893836      36.893836    
  59000000   0.39921977    -7.9901438     -7.3913226      2.2198398      50218.233      36.893836      36.893836      36.893836    
  60000000   0.40035817    -7.9898507     -7.3893219      2.2212516      50218.233      36.893836      36.893836      36.893836    
  61000000   0.40007299    -7.9930967     -7.3929957      2.1963172      50218.233      36.893836      36.893836      36.893836    
  62000000   0.3992899     -7.9884054     -7.3894791      2.2263678      50218.233      36.893836      36.893836      36.893836    
  63000000   0.39921844    -7.9899639     -7.3911447      2.2215044      50218.233      36.893836      36.893836      36.893836    
  64000000   0.39967432    -7.9925512     -7.3930482      2.1974138      50218.233      36.893836      36.893836      36.893836    
  65000000   0.40018722    -7.9900762     -7.3898039      2.218125       50218.233      36.893836      36.893836      36.893836    
  66000000   0.40295658    -7.9902005     -7.3857742      2.2229621      50218.233      36.893836      36.893836      36.893836    
  67000000   0.3983107     -7.9926202     -7.3951627      2.194971       50218.233      36.893836      36.893836      36.893836    
  68000000   0.3979138     -7.9905308     -7.3936686      2.2075864      50218.233      36.893836      36.893836      36.893836    
  69000000   0.39913811    -7.992665      -7.3939664      2.1936058      50218.233      36.893836      36.893836      36.893836    
  70000000   0.4006272     -7.9922942     -7.3913619      2.1986612      50218.233      36.893836      36.893836      36.893836    
  71000000   0.39917665    -7.9918753     -7.3931189      2.2101979      50218.233      36.893836      36.893836      36.893836    
  72000000   0.39982784    -7.9917791     -7.3920459      2.2072622      50218.233      36.893836      36.893836      36.893836    
  73000000   0.40121023    -7.9899904     -7.3881836      2.2238045      50218.233      36.893836      36.893836      36.893836    
  74000000   0.39725798    -7.9887829     -7.3929044      2.234091       50218.233      36.893836      36.893836      36.893836    
  75000000   0.39896748    -7.9917744     -7.3933317      2.2039327      50218.233      36.893836      36.893836      36.893836    
  76000000   0.39877596    -7.9920035     -7.3938481      2.2026476      50218.233      36.893836      36.893836      36.893836    
  77000000   0.40304324    -7.9913302     -7.3867739      2.2088551      50218.233      36.893836      36.893836      36.893836    
  78000000   0.39987475    -7.9892747     -7.3894711      2.2219842      50218.233      36.893836      36.893836      36.893836    
  79000000   0.39913504    -7.9893395     -7.3906454      2.218415       50218.233      36.893836      36.893836      36.893836    
  80000000   0.39949207    -7.9906043     -7.3913747      2.2146644      50218.233      36.893836      36.893836      36.893836    
  81000000   0.40175507    -7.9921873     -7.3895633      2.2044246      50218.233      36.893836      36.893836      36.893836    
  82000000   0.40090568    -7.9921375     -7.3907875      2.208386       50218.233      36.893836      36.893836      36.893836    
  83000000   0.40025627    -7.9922262     -7.3918504      2.2011955      50218.233      36.893836      36.893836      36.893836    
  84000000   0.4012237     -7.9903578     -7.3885308      2.2184558      50218.233      36.893836      36.893836      36.893836    
  85000000   0.40127968    -7.9883359     -7.386425       2.2289212      50218.233      36.893836      36.893836      36.893836    
  86000000   0.40061075    -7.991356      -7.3904485      2.222266       50218.233      36.893836      36.893836      36.893836    
  87000000   0.39869024    -7.9931373     -7.3951104      2.1963096      50218.233      36.893836      36.893836      36.893836    
  88000000   0.3993812     -7.9959736     -7.3969103      2.1777585      50218.233      36.893836      36.893836      36.893836    
  89000000   0.40203929    -7.9948047     -7.3917544      2.190691       50218.233      36.893836      36.893836      36.893836    
  90000000   0.40095572    -7.9918081     -7.3903831      2.2127305      50218.233      36.893836      36.893836      36.893836    
  91000000   0.40176437    -7.9925892     -7.3899512      2.1981797      50218.233      36.893836      36.893836      36.893836    
  92000000   0.4017747     -7.9953502     -7.3926967      2.1876215      50218.233      36.893836      36.893836      36.893836    
  93000000   0.39955239    -7.9947841     -7.395464       2.1802893      50218.233      36.893836      36.893836      36.893836    
  94000000   0.40019647    -7.9914775     -7.3911914      2.2054707      50218.233      36.893836      36.893836      36.893836    
  95000000   0.39822148    -7.9916029     -7.3942792      2.2050332      50218.233      36.893836      36.893836      36.893836    
  96000000   0.39895372    -7.9893443     -7.3909223      2.2197981      50218.233      36.893836      36.893836      36.893836    
  97000000   0.39914523    -7.9927613     -7.394052       2.2032895      50218.233      36.893836      36.893836      36.893836    
  98000000   0.39874475    -7.9922988     -7.3941902      2.2006114      50218.233      36.893836      36.893836      36.893836    
  99000000   0.39729128    -7.9918094     -7.395881       2.2052734      50218.233      36.893836      36.893836      36.893836    
 100000000   0.39935628    -7.9946324     -7.3956065      2.1861223      50218.233      36.893836      36.893836      36.893836    
 101000000   0.40052838    -7.9934841     -7.3927001      2.1969484      50218.233      36.893836      36.893836      36.893836    
 102000000   0.40201064    -7.9923137     -7.3893063      2.2090864      50218.233      36.893836      36.893836      36.893836    
 103000000   0.39945245    -7.993464      -7.3942939      2.1829526      50218.233      36.893836      36.893836      36.893836    
 104000000   0.39953201    -7.9902885     -7.390999       2.211794       50218.233      36.893836      36.893836      36.893836    
 105000000   0.40073115    -7.9943205     -7.3932323      2.1855608      50218.233      36.893836      36.893836      36.893836    
 106000000   0.39794733    -7.9955891     -7.3986766      2.171409       50218.233      36.893836      36.893836      36.893836    
 107000000   0.40197435    -7.9965292     -7.3935763      2.1754604      50218.233      36.893836      36.893836      36.893836    
 108000000   0.40121848    -7.9932351     -7.3914159      2.1975702      50218.233      36.893836      36.893836      36.893836    
 109000000   0.40000852    -7.9942773     -7.3942731      2.1975953      50218.233      36.893836      36.893836      36.893836    
 110000000   0.40181364    -7.9925714     -7.3898595      2.2100898      50218.233      36.893836      36.893836      36.893836    
 111000000   0.40029481    -7.9920066     -7.3915729      2.206222       50218.233      36.893836      36.893836      36.893836    
 112000000   0.39849068    -7.9920756     -7.3943481      2.1953647      50218.233      36.893836      36.893836      36.893836    
 113000000   0.40020615    -7.9936603     -7.3933597      2.1850979      50218.233      36.893836      36.893836      36.893836    
 114000000   0.40085754    -7.9932886     -7.3920108      2.2064581      50218.233      36.893836      36.893836      36.893836    
 115000000   0.4003369     -7.9911416     -7.3906448      2.2049706      50218.233      36.893836      36.893836      36.893836    
 116000000   0.40104447    -7.9919466     -7.3903884      2.2046212      50218.233      36.893836      36.893836      36.893836    
 117000000   0.39960739    -7.9963765     -7.3969739      2.1670961      50218.233      36.893836      36.893836      36.893836    
 118000000   0.40130734    -7.996512      -7.3945596      2.1692659      50218.233      36.893836      36.893836      36.893836    
 119000000   0.40040277    -7.9927735     -7.3921779      2.1993671      50218.233      36.893836      36.893836      36.893836    
 120000000   0.40162371    -7.9887091     -7.3862821      2.2311381      50218.233      36.893836      36.893836      36.893836    
 121000000   0.39966733    -7.9912107     -7.3917182      2.2102986      50218.233      36.893836      36.893836      36.893836    
 122000000   0.39947839    -7.9945626     -7.3953536      2.1757581      50218.233      36.893836      36.893836      36.893836    
 123000000   0.40110462    -7.9962586     -7.3946102      2.1755579      50218.233      36.893836      36.893836      36.893836    
 124000000   0.39932899    -7.9933895     -7.3944045      2.1901231      50218.233      36.893836      36.893836      36.893836    
 125000000   0.39997226    -7.9958586     -7.3959088      2.1694268      50218.233      36.893836      36.893836      36.893836    
 126000000   0.40121123    -7.9945623     -7.392754       2.1791905      50218.233      36.893836      36.893836      36.893836    
 127000000   0.40055177    -7.9951512     -7.3943321      2.1843014      50218.233      36.893836      36.893836      36.893836    
 128000000   0.39931697    -7.996303      -7.3973361      2.168658       50218.233      36.893836      36.893836      36.893836    
 129000000   0.40018951    -7.9913495     -7.3910737      2.2066651      50218.233      36.893836      36.893836      36.893836    
 130000000   0.40207172    -7.9929817     -7.3898827      2.1947828      50218.233      36.893836      36.893836      36.893836    
 131000000   0.40068852    -7.9981089     -7.3970846      2.1514479      50218.233      36.893836      36.893836      36.893836    
 132000000   0.40292622    -7.9962709     -7.3918902      2.1768435      50218.233      36.893836      36.893836      36.893836    
 133000000   0.40176744    -7.9917228     -7.3890802      2.2039563      50218.233      36.893836      36.893836      36.893836    
 134000000   0.39967303    -7.995101      -7.3956         2.1713127      50218.233      36.893836      36.893836      36.893836    
 135000000   0.39768124    -7.9967201     -7.4002067      2.1584378      50218.233      36.893836      36.893836      36.893836    
 136000000   0.40022079    -7.9929863     -7.3926637      2.1963401      50218.233      36.893836      36.893836      36.893836    
 137000000   0.40074439    -7.9937955     -7.3926874      2.1874479      50218.233      36.893836      36.893836      36.893836    
 138000000   0.40035045    -7.9939316     -7.3934145      2.1831319      50218.233      36.893836      36.893836      36.893836    
 139000000   0.40133604    -7.9960817     -7.3940862      2.173713       50218.233      36.893836      36.893836      36.893836    
 140000000   0.39888722    -7.9966341     -7.3983118      2.1654913      50218.233      36.893836      36.893836      36.893836    
 141000000   0.39769041    -7.9965934     -7.4000662      2.1688627      50218.233      36.893836      36.893836      36.893836    
 142000000   0.39851328    -7.9924213     -7.3946598      2.1952502      50218.233      36.893836      36.893836      36.893836    
 143000000   0.39897637    -7.9940173     -7.3955613      2.1882284      50218.233      36.893836      36.893836      36.893836    
 144000000   0.39982045    -7.9921822     -7.39246        2.2054168      50218.233      36.893836      36.893836      36.893836    
 145000000   0.40026975    -7.9945045     -7.3941084      2.1797829      50218.233      36.893836      36.893836      36.893836    
 146000000   0.39949252    -7.9963264     -7.3970961      2.1632978      50218.233      36.893836      36.893836      36.893836    
 147000000   0.39862076    -7.9948538     -7.3969312      2.176699       50218.233      36.893836      36.893836      36.893836    
 148000000   0.39943678    -7.9938659     -7.3947192      2.1898494      50218.233      36.893836      36.893836      36.893836    
 149000000   0.39795445    -7.9944177     -7.3974945      2.1803508      50218.233      36.893836      36.893836      36.893836    
 150000000   0.39879158    -7.998462      -7.4002831      2.1639517      50218.233      36.893836      36.893836      36.893836    
 151000000   0.39974393    -7.996025      -7.3964177      2.1780289      50218.233      36.893836      36.893836      36.893836    
 152000000   0.4003447     -7.9962097     -7.3957012      2.1813203      50218.233      36.893836      36.893836      36.893836    
 153000000   0.39902283    -7.9946538     -7.396128       2.1861137      50218.233      36.893836      36.893836      36.893836    
 154000000   0.40180306    -7.9943653     -7.3916693      2.1879669      50218.233      36.893836      36.893836      36.893836    
 155000000   0.40019444    -7.9968529     -7.3965698      2.1785682      50218.233      36.893836      36.893836      36.893836    
 156000000   0.39991978    -7.9961925     -7.3963214      2.1715718      50218.233      36.893836      36.893836      36.893836    
 157000000   0.39989816    -7.9940505     -7.3942118      2.1898907      50218.233      36.893836      36.893836      36.893836    
 158000000   0.40133991    -7.9966713     -7.39467        2.1702834      50218.233      36.893836      36.893836      36.893836    
 159000000   0.40026243    -7.9933762     -7.3929911      2.2039453      50218.233      36.893836      36.893836      36.893836    
 160000000   0.3990062     -7.9926784     -7.3941776      2.1944502      50218.233      36.893836      36.893836      36.893836    
 161000000   0.40101522    -7.9944033     -7.392889       2.1937399      50218.233      36.893836      36.893836      36.893836    
 162000000   0.40107125    -7.9976074     -7.396009       2.1624725      50218.233      36.893836      36.893836      36.893836    
 163000000   0.40102377    -7.9949094     -7.3933823      2.1849321      50218.233      36.893836      36.893836      36.893836    
 164000000   0.39918951    -7.9951886     -7.3964129      2.1803446      50218.233      36.893836      36.893836      36.893836    
 165000000   0.40041277    -7.9924671     -7.3918565      2.199702       50218.233      36.893836      36.893836      36.893836    
 166000000   0.39883046    -7.9942732     -7.396036       2.1778903      50218.233      36.893836      36.893836      36.893836    
 167000000   0.40017191    -7.9938048     -7.3935555      2.188118       50218.233      36.893836      36.893836      36.893836    
 168000000   0.39925745    -7.9953071     -7.3964295      2.1841063      50218.233      36.893836      36.893836      36.893836    
 169000000   0.39857717    -7.9925145     -7.3946572      2.1931211      50218.233      36.893836      36.893836      36.893836    
 170000000   0.39916179    -7.9933345     -7.3946004      2.1972864      50218.233      36.893836      36.893836      36.893836    
 171000000   0.40000462    -7.9953967     -7.3953983      2.1833362      50218.233      36.893836      36.893836      36.893836    
 172000000   0.40082209    -7.9946399     -7.3934153      2.1859188      50218.233      36.893836      36.893836      36.893836    
 173000000   0.40078676    -7.9950356     -7.3938641      2.1767989      50218.233      36.893836      36.893836      36.893836    
 174000000   0.40019961    -7.9910097     -7.3907189      2.2057089      50218.233      36.893836      36.893836      36.893836    
 175000000   0.40006131    -7.9939659     -7.3938824      2.1833628      50218.233      36.893836      36.893836      36.893836    
 176000000   0.40025705    -7.9942308     -7.3938538      2.1874421      50218.233      36.893836      36.893836      36.893836    
 177000000   0.40020847    -7.9946374     -7.3943332      2.1843929      50218.233      36.893836      36.893836      36.893836    
 178000000   0.39803624    -7.9963289     -7.399283       2.1646124      50218.233      36.893836      36.893836      36.893836    
 179000000   0.40082481    -7.9940998     -7.3928711      2.1907071      50218.233      36.893836      36.893836      36.893836    
 180000000   0.40094355    -7.9931253     -7.3917185      2.1861544      50218.233      36.893836      36.893836      36.893836    
 181000000   0.40122935    -7.9953516     -7.3935161      2.1767534      50218.233      36.893836      36.893836      36.893836    
 182000000   0.40139605    -7.9929405     -7.390855       2.2030823      50218.233      36.893836      36.893836      36.893836    
 183000000   0.40034259    -7.9975248     -7.3970194      2.1646055      50218.233      36.893836      36.893836      36.893836    
 184000000   0.39967118    -7.9954483     -7.3959501      2.1736402      50218.233      36.893836      36.893836      36.893836    
 185000000   0.39960824    -7.9948996     -7.3954957      2.1883454      50218.233      36.893836      36.893836      36.893836    
 186000000   0.40055036    -7.9959014     -7.3950845      2.1763067      50218.233      36.893836      36.893836      36.893836    
 187000000   0.40041414    -7.9950209     -7.3944082      2.1745513      50218.233      36.893836      36.893836      36.893836    
 188000000   0.39713988    -7.9947964     -7.399095       2.1848329      50218.233      36.893836      36.893836      36.893836    
 189000000   0.40165721    -7.9939244     -7.3914472      2.1936573      50218.233      36.893836      36.893836      36.893836    
 190000000   0.4004387     -7.9949191     -7.3942696      2.184115       50218.233      36.893836      36.893836      36.893836    
 191000000   0.40120947    -7.9957622     -7.3939565      2.1770066      50218.233      36.893836      36.893836      36.893836    
 192000000   0.40141588    -7.9932996     -7.3911844      2.2066306      50218.233      36.893836      36.893836      36.893836    
 193000000   0.3997905     -7.9973264     -7.3976492      2.1719708      50218.233      36.893836      36.893836      36.893836    
 194000000   0.39962406    -7.9948211     -7.3953936      2.1868216      50218.233      36.893836      36.893836      36.893836    
 195000000   0.39943636    -7.9958356     -7.3966895      2.1807885      50218.233      36.893836      36.893836      36.893836    
 196000000   0.39893513    -7.9972852     -7.398891       2.1611691      50218.233      36.893836      36.893836      36.893836    
 197000000   0.40219913    -7.9976088     -7.3943187      2.1738961      50218.233      36.893836      36.893836      36.893836    
 198000000   0.40120196    -7.9980216     -7.3962272      2.1614452      50218.233      36.893836      36.893836      36.893836    
 199000000   0.39923532    -7.9941361     -7.3952916      2.1859318      50218.233      36.893836      36.893836      36.893836    
 200000000   0.39952091    -7.997231      -7.3979581      2.1585396      50218.233      36.893836      36.893836      36.893836    
 201000000   0.3996815     -7.9958472     -7.3963335      2.1710081      50218.233      36.893836      36.893836      36.893836    
 202000000   0.4008582     -7.9953339     -7.3940551      2.1855189      50218.233      36.893836      36.893836      36.893836    
 203000000   0.39972129    -7.9940958     -7.3945224      2.1879802      50218.233      36.893836      36.893836      36.893836    
 204000000   0.3990463     -7.9929268     -7.3943659      2.2007987      50218.233      36.893836      36.893836      36.893836    
 205000000   0.39958768    -7.9954816     -7.3961086      2.1688891      50218.233      36.893836      36.893836      36.893836    
 206000000   0.40099546    -7.9917541     -7.3902695      2.209326       50218.233      36.893836      36.893836      36.893836    
 207000000   0.40000614    -7.9976809     -7.3976802      2.1635261      50218.233      36.893836      36.893836      36.893836    
 208000000   0.40059715    -7.9966848     -7.3957976      2.1637593      50218.233      36.893836      36.893836      36.893836    
 209000000   0.40020881    -7.9990261     -7.3987214      2.1580646      50218.233      36.893836      36.893836      36.893836    
 210000000   0.40065931    -7.9973958     -7.3964154      2.1671758      50218.233      36.893836      36.893836      36.893836    
 211000000   0.3996775     -7.9923554     -7.3928477      2.2002432      50218.233      36.893836      36.893836      36.893836    
 212000000   0.40083317    -7.9964109     -7.3951697      2.1707599      50218.233      36.893836      36.893836      36.893836    
 213000000   0.39956215    -7.9953648     -7.3960301      2.1719705      50218.233      36.893836      36.893836      36.893836    
 214000000   0.39907582    -7.9934649     -7.3948597      2.1900053      50218.233      36.893836      36.893836      36.893836    
 215000000   0.39853376    -7.9976676     -7.3998755      2.1611112      50218.233      36.893836      36.893836      36.893836    
 216000000   0.39965555    -7.99489       -7.3954153      2.1859973      50218.233      36.893836      36.893836      36.893836    
 217000000   0.39938581    -7.9944406     -7.3953704      2.1908363      50218.233      36.893836      36.893836      36.893836    
 218000000   0.39974877    -7.9967306     -7.3971159      2.1705144      50218.233      36.893836      36.893836      36.893836    
 219000000   0.40014985    -7.9946181     -7.3944019      2.1786223      50218.233      36.893836      36.893836      36.893836    
 220000000   0.40040876    -7.9938507     -7.3932461      2.1914233      50218.233      36.893836      36.893836      36.893836    
 221000000   0.39971641    -7.9969153     -7.3973492      2.1776587      50218.233      36.893836      36.893836      36.893836    
 222000000   0.399583      -7.9949608     -7.3955948      2.1787379      50218.233      36.893836      36.893836      36.893836    
 223000000   0.40019876    -7.993557      -7.3932674      2.1996614      50218.233      36.893836      36.893836      36.893836    
 224000000   0.40141109    -7.9949788     -7.3928707      2.1782063      50218.233      36.893836      36.893836      36.893836    
 225000000   0.3983405     -7.9961773     -7.398675       2.1812621      50218.233      36.893836      36.893836      36.893836    
 226000000   0.40083531    -7.9993472     -7.3981028      2.1493385      50218.233      36.893836      36.893836      36.893836    
 227000000   0.40161954    -7.996265      -7.3938442      2.1782603      50218.233      36.893836      36.893836      36.893836    
 228000000   0.39992869    -7.9956509     -7.3957664      2.1886424      50218.233      36.893836      36.893836      36.893836    
 229000000   0.39988883    -7.9984865     -7.3986618      2.158916       50218.233      36.893836      36.893836      36.893836    
 230000000   0.40127235    -7.9956725     -7.3937726      2.1850979      50218.233      36.893836      36.893836      36.893836    
 231000000   0.40032647    -7.9993141     -7.3988329      2.1613696      50218.233      36.893836      36.893836      36.893836    
 232000000   0.39946757    -7.9954163     -7.3962234      2.1837         50218.233      36.893836      36.893836      36.893836    
 233000000   0.39966846    -7.9971153     -7.3976211      2.1678008      50218.233      36.893836      36.893836      36.893836    
 234000000   0.40193471    -7.9993776     -7.3964841      2.1493051      50218.233      36.893836      36.893836      36.893836    
 235000000   0.39889426    -7.9965947     -7.3982619      2.1669559      50218.233      36.893836      36.893836      36.893836    
 236000000   0.40231398    -7.9970992     -7.3936368      2.1620572      50218.233      36.893836      36.893836      36.893836    
 237000000   0.40017088    -7.9954626     -7.3952148      2.1816417      50218.233      36.893836      36.893836      36.893836    
 238000000   0.40051211    -7.9957493     -7.3949897      2.1776949      50218.233      36.893836      36.893836      36.893836    
 239000000   0.40014028    -7.997261      -7.3970591      2.1571921      50218.233      36.893836      36.893836      36.893836    
 240000000   0.39722989    -7.9976461     -7.4018097      2.1601791      50218.233      36.893836      36.893836      36.893836    
 241000000   0.40045271    -7.9950358     -7.3943653      2.1858179      50218.233      36.893836      36.893836      36.893836    
 242000000   0.40037767    -7.9956578     -7.3950999      2.1690863      50218.233      36.893836      36.893836      36.893836    
 243000000   0.4001264     -7.9969653     -7.3967842      2.1697939      50218.233      36.893836      36.893836      36.893836    
 244000000   0.40069233    -7.9962171     -7.3951871      2.1757433      50218.233      36.893836      36.893836      36.893836    
 245000000   0.40050504    -7.9987512     -7.3980022      2.1445997      50218.233      36.893836      36.893836      36.893836    
 246000000   0.4006504     -7.9966639     -7.3956969      2.1721663      50218.233      36.893836      36.893836      36.893836    
 247000000   0.40207452    -7.9990229     -7.3959197      2.1578255      50218.233      36.893836      36.893836      36.893836    
 248000000   0.40115355    -7.9955131     -7.3937914      2.1747583      50218.233      36.893836      36.893836      36.893836    
 249000000   0.39920306    -7.996091      -7.3972949      2.177715       50218.233      36.893836      36.893836      36.893836    
 250000000   0.39992403    -7.9980228     -7.3981453      2.1568564      50218.233      36.893836      36.893836      36.893836    
 251000000   0.40100696    -7.9977303     -7.3962284      2.1591791      50218.233      36.893836      36.893836      36.893836    
 252000000   0.39929253    -7.9991909     -7.4002607      2.156461       50218.233      36.893836      36.893836      36.893836    
 253000000   0.39933336    -8.0000284     -7.4010369      2.151738       50218.233      36.893836      36.893836      36.893836    
 254000000   0.39923922    -7.9984276     -7.3995773      2.1633329      50218.233      36.893836      36.893836      36.893836    
 255000000   0.3981558     -7.9998525     -7.4026273      2.1330168      50218.233      36.893836      36.893836      36.893836    
 256000000   0.40130844    -7.9996269     -7.3976728      2.1529222      50218.233      36.893836      36.893836      36.893836    
 257000000   0.40108897    -7.9959776     -7.3943527      2.1804119      50218.233      36.893836      36.893836      36.893836    
 258000000   0.39784583    -7.9999924     -7.4032321      2.1464677      50218.233      36.893836      36.893836      36.893836    
 259000000   0.39882931    -7.9988411     -7.4006056      2.1461403      50218.233      36.893836      36.893836      36.893836    
 260000000   0.40061767    -8.0015492     -7.4006313      2.136033       50218.233      36.893836      36.893836      36.893836    
 261000000   0.40089936    -7.9958561     -7.3945156      2.1833676      50218.233      36.893836      36.893836      36.893836    
 262000000   0.39816026    -8.0010716     -7.4038397      2.1277835      50218.233      36.893836      36.893836      36.893836    
 263000000   0.40139176    -8.0003281     -7.398249       2.1506346      50218.233      36.893836      36.893836      36.893836    
 264000000   0.39828565    -7.9988492     -7.4014292      2.1473369      50218.233      36.893836      36.893836      36.893836    
 265000000   0.40009915    -7.9993681     -7.3992279      2.143406       50218.233      36.893836      36.893836      36.893836    
 266000000   0.40163069    -7.9955103     -7.3930728      2.1897393      50218.233      36.893836      36.893836      36.893836    
 267000000   0.3999731     -8.0003648     -7.4004137      2.1432817      50218.233      36.893836      36.893836      36.893836    
 268000000   0.40114503    -7.9974348     -7.3957258      2.1706686      50218.233      36.893836      36.893836      36.893836    
 269000000   0.39965649    -7.9965986     -7.3971223      2.1672424      50218.233      36.893836      36.893836      36.893836    
 270000000   0.39725755    -7.9987455     -7.4028676      2.1549084      50218.233      36.893836      36.893836      36.893836    
 271000000   0.40157644    -7.9971922     -7.3948361      2.182111       50218.233      36.893836      36.893836      36.893836    
 272000000   0.40078808    -7.9961416     -7.394968       2.1754605      50218.233      36.893836      36.893836      36.893836    
 273000000   0.4000837     -7.9983528     -7.3982358      2.160057       50218.233      36.893836      36.893836      36.893836    
 274000000   0.39950372    -7.9959365     -7.3966894      2.1726562      50218.233      36.893836      36.893836      36.893836    
 275000000   0.40070357    -7.9985687     -7.3975219      2.1652431      50218.233      36.893836      36.893836      36.893836    
 276000000   0.40023052    -7.9981761     -7.3978389      2.1666426      50218.233      36.893836      36.893836      36.893836    
 277000000   0.39958191    -7.998647      -7.3992827      2.1572358      50218.233      36.893836      36.893836      36.893836    
 278000000   0.39865341    -7.9942993     -7.3963277      2.1968638      50218.233      36.893836      36.893836      36.893836    
 279000000   0.40014315    -7.995286      -7.3950798      2.1830644      50218.233      36.893836      36.893836      36.893836    
 280000000   0.39726756    -7.9974021     -7.4015092      2.1538771      50218.233      36.893836      36.893836      36.893836    
 281000000   0.40108554    -7.9936666     -7.3920469      2.1991859      50218.233      36.893836      36.893836      36.893836    
 282000000   0.40072668    -7.995339      -7.3942575      2.1855576      50218.233      36.893836      36.893836      36.893836    
 283000000   0.40099708    -7.9955422     -7.3940551      2.1764977      50218.233      36.893836      36.893836      36.893836    
 284000000   0.40327872    -7.9967811     -7.3918716      2.1785196      50218.233      36.893836      36.893836      36.893836    
 285000000   0.39969036    -8.0007532     -7.4012262      2.1378268      50218.233      36.893836      36.893836      36.893836    
 286000000   0.39959836    -7.9962054     -7.3968164      2.1804778      50218.233      36.893836      36.893836      36.893836    
 287000000   0.39903591    -7.9979555     -7.3994102      2.1550627      50218.233      36.893836      36.893836      36.893836    
 288000000   0.40027006    -7.9972512     -7.3968547      2.1666687      50218.233      36.893836      36.893836      36.893836    
 289000000   0.39928773    -7.9985928     -7.3996697      2.1528044      50218.233      36.893836      36.893836      36.893836    
 290000000   0.39952266    -7.9993168     -7.4000414      2.1432626      50218.233      36.893836      36.893836      36.893836    
 291000000   0.40109372    -7.9998258     -7.3981938      2.1539308      50218.233      36.893836      36.893836      36.893836    
 292000000   0.39843445    -8.001925      -7.4042818      2.1197733      50218.233      36.893836      36.893836      36.893836    
 293000000   0.40022205    -8.0011526     -7.400828       2.1448163      50218.233      36.893836      36.893836      36.893836    
 294000000   0.40012371    -7.9966847     -7.3965077      2.1819478      50218.233      36.893836      36.893836      36.893836    
 295000000   0.39963864    -8.00008       -7.4006306      2.146225       50218.233      36.893836      36.893836      36.893836    
 296000000   0.39866509    -7.9969406     -7.3989514      2.1720188      50218.233      36.893836      36.893836      36.893836    
 297000000   0.40106819    -8.0005296     -7.3989358      2.1379436      50218.233      36.893836      36.893836      36.893836    
 298000000   0.39808417    -7.9991691     -7.4020514      2.14381        50218.233      36.893836      36.893836      36.893836    
 299000000   0.40010979    -7.9984068     -7.3982506      2.1557506      50218.233      36.893836      36.893836      36.893836    
 300000000   0.40005588    -7.9989308     -7.3988555      2.154939       50218.233      36.893836      36.893836      36.893836    
 301000000   0.40136683    -7.9983234     -7.3962818      2.1566233      50218.233      36.893836      36.893836      36.893836    
 302000000   0.39855812    -7.9976231     -7.3997945      2.1591262      50218.233      36.893836      36.893836      36.893836    
 303000000   0.39878599    -8.0020121     -7.4038416      2.1260904      50218.233      36.893836      36.893836      36.893836    
 304000000   0.39981757    -7.9972823     -7.3975644      2.1587052      50218.233      36.893836      36.893836      36.893836    
 305000000   0.40068075    -7.9980076     -7.396995       2.1610164      50218.233      36.893836      36.893836      36.893836    
 306000000   0.40091917    -7.9995549     -7.3981847      2.1474737      50218.233      36.893836      36.893836      36.893836    
 307000000   0.39997544    -7.9979062     -7.3979516      2.1529658      50218.233      36.893836      36.893836      36.893836    
 308000000   0.40035262    -7.997864      -7.3973436      2.15363        50218.233      36.893836      36.893836      36.893836    
 309000000   0.39892353    -7.9996505     -7.4012737      2.1508741      50218.233      36.893836      36.893836      36.893836    
 310000000   0.39863118    -7.9972195     -7.3992812      2.1650343      50218.233      36.893836      36.893836      36.893836    
 311000000   0.40074459    -7.9962711     -7.3951628      2.1643488      50218.233      36.893836      36.893836      36.893836    
 312000000   0.39991414    -8.0008753     -7.4010126      2.1358853      50218.233      36.893836      36.893836      36.893836    
 313000000   0.40221095    -7.9971975     -7.3938897      2.1636371      50218.233      36.893836      36.893836      36.893836    
 314000000   0.40035038    -7.9986345     -7.3981175      2.1576892      50218.233      36.893836      36.893836      36.893836    
 315000000   0.40058728    -8.0015165     -7.4006441      2.123835       50218.233      36.893836      36.893836      36.893836    
 316000000   0.39962486    -7.9966687     -7.3972399      2.1646889      50218.233      36.893836      36.893836      36.893836    
 317000000   0.40091051    -7.9996424     -7.3982852      2.1434401      50218.233      36.893836      36.893836      36.893836    
 318000000   0.40022035    -7.998785      -7.398463       2.1507836      50218.233      36.893836      36.893836      36.893836    
 319000000   0.39906567    -7.9999807     -7.4013907      2.1489207      50218.233      36.893836      36.893836      36.893836    
 320000000   0.39943129    -7.9969528     -7.3978144      2.1686419      50218.233      36.893836      36.893836      36.893836    
 321000000   0.40192366    -7.9978052     -7.3949283      2.1539039      50218.233      36.893836      36.893836      36.893836    
 322000000   0.40004001    -7.9995051     -7.3994536      2.1439516      50218.233      36.893836      36.893836      36.893836    
 323000000   0.40007533    -7.9997583     -7.3996538      2.146743       50218.233      36.893836      36.893836      36.893836    
 324000000   0.39916822    -7.9966022     -7.3978584      2.1645299      50218.233      36.893836      36.893836      36.893836    
 325000000   0.40120107    -7.9941038     -7.3923107      2.1912943      50218.233      36.893836      36.893836      36.893836    
 326000000   0.40091785    -7.9986863     -7.3973181      2.1583169      50218.233      36.893836      36.893836      36.893836    
 327000000   0.40038533    -8.0013806     -7.4008111      2.128531       50218.233      36.893836      36.893836      36.893836    
 328000000   0.40152952    -7.9992875     -7.3970018      2.1504815      50218.233      36.893836      36.893836      36.893836    
 329000000   0.39868656    -7.996489      -7.3984676      2.168884       50218.233      36.893836      36.893836      36.893836    
 330000000   0.40080129    -7.9995477     -7.3983543      2.1517169      50218.233      36.893836      36.893836      36.893836    
 331000000   0.39890715    -7.9986628     -7.4003106      2.1444483      50218.233      36.893836      36.893836      36.893836    
 332000000   0.3989339     -7.9960199     -7.3976276      2.178779       50218.233      36.893836      36.893836      36.893836    
 333000000   0.39854585    -7.9974032     -7.399593       2.1564381      50218.233      36.893836      36.893836      36.893836    
 334000000   0.39898718    -7.9986259     -7.4001536      2.1542898      50218.233      36.893836      36.893836      36.893836    
 335000000   0.39998174    -7.9994975     -7.3995334      2.1495038      50218.233      36.893836      36.893836      36.893836    
 336000000   0.39904036    -7.9987451     -7.4001931      2.1511016      50218.233      36.893836      36.893836      36.893836    
 337000000   0.40138677    -7.9964358     -7.3943642      2.174366       50218.233      36.893836      36.893836      36.893836    
 338000000   0.40067941    -7.9984817     -7.3974711      2.1623271      50218.233      36.893836      36.893836      36.893836    
 339000000   0.39868119    -7.9980336     -7.4000203      2.1591803      50218.233      36.893836      36.893836      36.893836    
 340000000   0.40032136    -8.0006704     -7.4001969      2.1483855      50218.233      36.893836      36.893836      36.893836    
 341000000   0.40005065    -7.9988881     -7.3988207      2.1557019      50218.233      36.893836      36.893836      36.893836    
 342000000   0.40048915    -7.9986485     -7.3979233      2.1514706      50218.233      36.893836      36.893836      36.893836    
 343000000   0.40011455    -7.9974629     -7.3972996      2.1628264      50218.233      36.893836      36.893836      36.893836    
 344000000   0.39821125    -7.9989997     -7.4016913      2.1551265      50218.233      36.893836      36.893836      36.893836    
 345000000   0.40017525    -7.9982586     -7.3980043      2.1552663      50218.233      36.893836      36.893836      36.893836    
 346000000   0.3990171     -7.9965689     -7.3980517      2.1761409      50218.233      36.893836      36.893836      36.893836    
 347000000   0.398977      -7.9989156     -7.4004586      2.1514342      50218.233      36.893836      36.893836      36.893836    
 348000000   0.40105491    -8.0006887     -7.3991149      2.1463102      50218.233      36.893836      36.893836      36.893836    
 349000000   0.40019312    -7.998613      -7.3983318      2.1617251      50218.233      36.893836      36.893836      36.893836    
 350000000   0.40039298    -8.0022044     -7.4016235      2.1355544      50218.233      36.893836      36.893836      36.893836    
 351000000   0.40071044    -8.0002617     -7.3992046      2.1398665      50218.233      36.893836      36.893836      36.893836    
 352000000   0.39948915    -8.000362      -7.4011368      2.1349102      50218.233      36.893836      36.893836      36.893836    
 353000000   0.40230259    -7.9986371     -7.3951918      2.1623839      50218.233      36.893836      36.893836      36.893836    
 354000000   0.40071985    -8.0010164     -7.3999451      2.1265236      50218.233      36.893836      36.893836      36.893836    
 355000000   0.39780031    -7.9985374     -7.4018454      2.1491359      50218.233      36.893836      36.893836      36.893836    
 356000000   0.39926915    -7.9996648     -7.4007696      2.1523233      50218.233      36.893836      36.893836      36.893836    
 357000000   0.39937419    -7.9993485     -7.4002957      2.1413965      50218.233      36.893836      36.893836      36.893836    
 358000000   0.40170414    -8.0027147     -7.4001671      2.1277766      50218.233      36.893836      36.893836      36.893836    
 359000000   0.40162836    -7.9977658     -7.3953318      2.1535598      50218.233      36.893836      36.893836      36.893836    
 360000000   0.39929931    -7.9983744     -7.3994339      2.1541346      50218.233      36.893836      36.893836      36.893836    
 361000000   0.39902365    -8.0004867     -7.4019597      2.1425951      50218.233      36.893836      36.893836      36.893836    
 362000000   0.39978855    -8.0003025     -7.4006282      2.1369593      50218.233      36.893836      36.893836      36.893836    
 363000000   0.40071215    -7.9981986     -7.397139       2.1527894      50218.233      36.893836      36.893836      36.893836    
 364000000   0.39952057    -7.9961591     -7.3968868      2.1780565      50218.233      36.893836      36.893836      36.893836    
 365000000   0.39901858    -7.9970295     -7.3985101      2.1646853      50218.233      36.893836      36.893836      36.893836    
 366000000   0.40056488    -8.0018427     -7.4010039      2.1383823      50218.233      36.893836      36.893836      36.893836    
 367000000   0.40032021    -7.9956012     -7.3951295      2.1807974      50218.233      36.893836      36.893836      36.893836    
 368000000   0.40025045    -7.999091      -7.3987239      2.1390001      50218.233      36.893836      36.893836      36.893836    
 369000000   0.40003314    -8.0000475     -7.4000063      2.1371273      50218.233      36.893836      36.893836      36.893836    
 370000000   0.39919995    -7.9987562     -7.3999648      2.149211       50218.233      36.893836      36.893836      36.893836    
 371000000   0.40006676    -7.9979917     -7.3979001      2.1590071      50218.233      36.893836      36.893836      36.893836    
 372000000   0.40093124    -8.0008199     -7.3994316      2.1363965      50218.233      36.893836      36.893836      36.893836    
 373000000   0.40097571    -7.9990757     -7.3976207      2.1457438      50218.233      36.893836      36.893836      36.893836    
 374000000   0.39986403    -7.9978368     -7.3980493      2.1545975      50218.233      36.893836      36.893836      36.893836    
 375000000   0.40222943    -8.0009026     -7.397567       2.1371091      50218.233      36.893836      36.893836      36.893836    
 376000000   0.39858444    -8.0003228     -7.4024546      2.1484581      50218.233      36.893836      36.893836      36.893836    
 377000000   0.40165665    -8.0004656     -7.3979892      2.1415183      50218.233      36.893836      36.893836      36.893836    
 378000000   0.39944218    -7.9992706     -7.4001158      2.147533       50218.233      36.893836      36.893836      36.893836    
 379000000   0.39921519    -7.9983223     -7.399508       2.1616169      50218.233      36.893836      36.893836      36.893836    
 380000000   0.39894961    -8.002005      -7.4035891      2.1334995      50218.233      36.893836      36.893836      36.893836    
 381000000   0.39970049    -7.9994109     -7.3998687      2.1420271      50218.233      36.893836      36.893836      36.893836    
 382000000   0.39895234    -8.0007507     -7.4023307      2.1327398      50218.233      36.893836      36.893836      36.893836    
 383000000   0.40013253    -7.9987646     -7.3985743      2.1547426      50218.233      36.893836      36.893836      36.893836    
 384000000   0.40035274    -7.9998036     -7.399283       2.1506901      50218.233      36.893836      36.893836      36.893836    
 385000000   0.39909456    -7.9976056     -7.3989723      2.1691553      50218.233      36.893836      36.893836      36.893836    
 386000000   0.39959176    -7.9991262     -7.399747       2.1513709      50218.233      36.893836      36.893836      36.893836    
 387000000   0.40187125    -8.0005215     -7.3977232      2.1412009      50218.233      36.893836      36.893836      36.893836    
 388000000   0.39973962    -8.0005264     -7.4009255      2.1443125      50218.233      36.893836      36.893836      36.893836    
 389000000   0.39846737    -7.9980725     -7.40038        2.160788       50218.233      36.893836      36.893836      36.893836    
 390000000   0.39900572    -8.0019321     -7.403432       2.1311076      50218.233      36.893836      36.893836      36.893836    
 391000000   0.40008115    -7.9980372     -7.397924       2.1531064      50218.233      36.893836      36.893836      36.893836    
 392000000   0.40064911    -7.9995842     -7.3986191      2.1499859      50218.233      36.893836      36.893836      36.893836    
 393000000   0.39909101    -7.9982733     -7.3996453      2.1485966      50218.233      36.893836      36.893836      36.893836    
 394000000   0.40005862    -8.0014659     -7.4013865      2.1281376      50218.233      36.893836      36.893836      36.893836    
 395000000   0.39997082    -7.9998738     -7.3999261      2.1395545      50218.233      36.893836      36.893836      36.893836    
 396000000   0.40047454    -8.0001151     -7.3994118      2.1422391      50218.233      36.893836      36.893836      36.893836    
 397000000   0.40032933    -8.0009265     -7.4004411      2.1453901      50218.233      36.893836      36.893836      36.893836    
 398000000   0.40073347    -8.0006336     -7.399542       2.141499       50218.233      36.893836      36.893836      36.893836    
 399000000   0.4006487     -7.9995029     -7.3985384      2.1548282      50218.233      36.893836      36.893836      36.893836    
 400000000   0.40106646    -7.9994996     -7.3979085      2.1434534      50218.233      36.893836      36.893836      36.893836    
 401000000   0.40080678    -8.0030217     -7.4018201      2.1252646      50218.233      36.893836      36.893836      36.893836    
 402000000   0.40144568    -7.9981622     -7.3960022      2.1577173      50218.233      36.893836      36.893836      36.893836    
 403000000   0.4016566     -8.0006065     -7.3981302      2.1386238      50218.233      36.893836      36.893836      36.893836    
 404000000   0.39982463    -8.0006463     -7.4009179      2.1373921      50218.233      36.893836      36.893836      36.893836    
 405000000   0.39960118    -7.9994035     -7.4000103      2.1439112      50218.233      36.893836      36.893836      36.893836    
 406000000   0.39887854    -7.9971717     -7.3988624      2.1584308      50218.233      36.893836      36.893836      36.893836    
 407000000   0.40057938    -8.0009184     -7.4000579      2.1356566      50218.233      36.893836      36.893836      36.893836    
 408000000   0.40011393    -7.9970235     -7.3968611      2.1650599      50218.233      36.893836      36.893836      36.893836    
 409000000   0.39982538    -7.9982705     -7.398541       2.1587452      50218.233      36.893836      36.893836      36.893836    
 410000000   0.39927517    -7.9994501     -7.4005458      2.1459691      50218.233      36.893836      36.893836      36.893836    
 411000000   0.40009189    -8.0026221     -7.4024928      2.1298602      50218.233      36.893836      36.893836      36.893836    
 412000000   0.3994585     -7.9960861     -7.3969068      2.1677332      50218.233      36.893836      36.893836      36.893836    
 413000000   0.39962509    -8.0004816     -7.4010525      2.140661       50218.233      36.893836      36.893836      36.893836    
 414000000   0.39838884    -7.9985765     -7.4010017      2.1572072      50218.233      36.893836      36.893836      36.893836    
 415000000   0.40045881    -7.9972746     -7.3965949      2.1610028      50218.233      36.893836      36.893836      36.893836    
 416000000   0.40021847    -8.0020222     -7.401703       2.1339475      50218.233      36.893836      36.893836      36.893836    
 417000000   0.40021002    -7.99765       -7.3973435      2.1698193      50218.233      36.893836      36.893836      36.893836    
 418000000   0.40081388    -7.9972381     -7.3960258      2.1656272      50218.233      36.893836      36.893836      36.893836    
 419000000   0.39995612    -7.9997777     -7.399852       2.1447828      50218.233      36.893836      36.893836      36.893836    
 420000000   0.40021428    -8.002372      -7.4020591      2.1277866      50218.233      36.893836      36.893836      36.893836    
 421000000   0.39714693    -7.9992678     -7.4035559      2.1430941      50218.233      36.893836      36.893836      36.893836    
 422000000   0.39898215    -7.997784      -7.3993193      2.1689956      50218.233      36.893836      36.893836      36.893836    
 423000000   0.39923748    -7.9988363     -7.3999886      2.1593405      50218.233      36.893836      36.893836      36.893836    
 424000000   0.40143856    -8.0045196     -7.4023703      2.1134677      50218.233      36.893836      36.893836      36.893836    
 425000000   0.40095589    -7.999409      -7.3979837      2.1521063      50218.233      36.893836      36.893836      36.893836    
 426000000   0.40165056    -8.0000022     -7.3975349      2.149786       50218.233      36.893836      36.893836      36.893836    
 427000000   0.40118199    -7.999946      -7.3981816      2.1521702      50218.233      36.893836      36.893836      36.893836    
 428000000   0.39946446    -8.0002802     -7.401092       2.1540577      50218.233      36.893836      36.893836      36.893836    
 429000000   0.40107737    -7.996896      -7.3952885      2.1723701      50218.233      36.893836      36.893836      36.893836    
 430000000   0.40098953    -8.0008946     -7.3994189      2.1488251      50218.233      36.893836      36.893836      36.893836    
 431000000   0.40173809    -7.9985456     -7.3959471      2.1568603      50218.233      36.893836      36.893836      36.893836    
 432000000   0.39968714    -8.0005542     -7.401032       2.1440892      50218.233      36.893836      36.893836      36.893836    
 433000000   0.39814053    -8.0042277     -7.4070254      2.1150406      50218.233      36.893836      36.893836      36.893836    
 434000000   0.40081362    -7.9990162     -7.3978043      2.1570398      50218.233      36.893836      36.893836      36.893836    
 435000000   0.40133826    -7.9991693     -7.3971705      2.1617631      50218.233      36.893836      36.893836      36.893836    
 436000000   0.40047471    -7.9998345     -7.3991309      2.1532378      50218.233      36.893836      36.893836      36.893836    
 437000000   0.40100825    -8.0009992     -7.3994953      2.1373841      50218.233      36.893836      36.893836      36.893836    
 438000000   0.39978942    -7.9996142     -7.3999386      2.1477464      50218.233      36.893836      36.893836      36.893836    
 439000000   0.39948991    -8.000004      -7.4007776      2.1508161      50218.233      36.893836      36.893836      36.893836    
 440000000   0.40022769    -7.9984978     -7.3981648      2.1621597      50218.233      36.893836      36.893836      36.893836    
 441000000   0.40067119    -8.0022862     -7.401288       2.124639       50218.233      36.893836      36.893836      36.893836    
 442000000   0.40085187    -8.0052995     -7.4040303      2.1077421      50218.233      36.893836      36.893836      36.893836    
 443000000   0.4011943     -7.9976378     -7.3958549      2.1534255      50218.233      36.893836      36.893836      36.893836    
 444000000   0.40087545    -7.9993149     -7.3980103      2.1505723      50218.233      36.893836      36.893836      36.893836    
 445000000   0.4015936     -7.9999188     -7.397537       2.1454238      50218.233      36.893836      36.893836      36.893836    
 446000000   0.4011466     -8.000268      -7.3985566      2.1359507      50218.233      36.893836      36.893836      36.893836    
 447000000   0.40099959    -8.0014813     -7.3999905      2.1355568      50218.233      36.893836      36.893836      36.893836    
 448000000   0.40072496    -7.9998602     -7.3987813      2.1497781      50218.233      36.893836      36.893836      36.893836    
 449000000   0.39903854    -8.0049647     -7.4064154      2.1024613      50218.233      36.893836      36.893836      36.893836    
 450000000   0.40025003    -7.9994409     -7.3990744      2.1487202      50218.233      36.893836      36.893836      36.893836    
 451000000   0.39971176    -8.0014272     -7.4018681      2.1311414      50218.233      36.893836      36.893836      36.893836    
 452000000   0.39955879    -8.0007376     -7.4014079      2.1374557      50218.233      36.893836      36.893836      36.893836    
 453000000   0.399215      -8.0000632     -7.4012492      2.1440435      50218.233      36.893836      36.893836      36.893836    
 454000000   0.39966634    -7.9990891     -7.3995981      2.1527231      50218.233      36.893836      36.893836      36.893836    
 455000000   0.39816862    -8.0006417     -7.4033972      2.140626       50218.233      36.893836      36.893836      36.893836    
 456000000   0.40136152    -7.9988472     -7.3968135      2.1608767      50218.233      36.893836      36.893836      36.893836    
 457000000   0.4003197     -8.0004416     -7.3999706      2.151366       50218.233      36.893836      36.893836      36.893836    
 458000000   0.4004041     -8.0020273     -7.4014297      2.1359281      50218.233      36.893836      36.893836      36.893836    
 459000000   0.4001415     -7.9986563     -7.3984526      2.1594929      50218.233      36.893836      36.893836      36.893836    
 460000000   0.40082101    -8.0014596     -7.4002367      2.1421879      50218.233      36.893836      36.893836      36.893836    
 461000000   0.40184888    -8.0015179     -7.3987532      2.1389601      50218.233      36.893836      36.893836      36.893836    
 462000000   0.39952907    -8.0033347     -7.4040497      2.1176417      50218.233      36.893836      36.893836      36.893836    
 463000000   0.40109908    -8.0019287     -7.4002887      2.1266531      50218.233      36.893836      36.893836      36.893836    
 464000000   0.39878311    -7.9991205     -7.4009544      2.1479011      50218.233      36.893836      36.893836      36.893836    
 465000000   0.40107291    -7.9985082     -7.3969074      2.1545584      50218.233      36.893836      36.893836      36.893836    
 466000000   0.40059042    -8.0002148     -7.3993377      2.144068       50218.233      36.893836      36.893836      36.893836    
 467000000   0.39839743    -8.002038      -7.4044504      2.1282521      50218.233      36.893836      36.893836      36.893836    
 468000000   0.39723312    -7.998399      -7.4025578      2.1567242      50218.233      36.893836      36.893836      36.893836    
 469000000   0.40033286    -8.0024213     -7.4019306      2.1370832      50218.233      36.893836      36.893836      36.893836    
 470000000   0.39984612    -8.004769      -7.4050084      2.1146158      50218.233      36.893836      36.893836      36.893836    
 471000000   0.39853457    -8.0007562     -7.4029629      2.1441716      50218.233      36.893836      36.893836      36.893836    
 472000000   0.39996291    -8.0037446     -7.4038088      2.1250653      50218.233      36.893836      36.893836      36.893836    
 473000000   0.39957712    -8.0007419     -7.4013848      2.1404472      50218.233      36.893836      36.893836      36.893836    
 474000000   0.40132707    -8.0012172     -7.3992351      2.14176        50218.233      36.893836      36.893836      36.893836    
 475000000   0.39920423    -8.0030616     -7.4042638      2.1222176      50218.233      36.893836      36.893836      36.893836    
 476000000   0.40048806    -8.0005478     -7.3998243      2.1480551      50218.233      36.893836      36.893836      36.893836    
 477000000   0.39957867    -8.0038081     -7.4044486      2.1166312      50218.233      36.893836      36.893836      36.893836    
 478000000   0.39950938    -8.0013158     -7.4020602      2.1375869      50218.233      36.893836      36.893836      36.893836    
 479000000   0.40105562    -7.9995336     -7.3979588      2.158842       50218.233      36.893836      36.893836      36.893836    
 480000000   0.40094219    -8.0005836     -7.3991788      2.1446574      50218.233      36.893836      36.893836      36.893836    
 481000000   0.40164823    -8.001678      -7.3992142      2.1377279      50218.233      36.893836      36.893836      36.893836    
 482000000   0.39915486    -8.0014823     -7.4027585      2.1382757      50218.233      36.893836      36.893836      36.893836    
 483000000   0.40053128    -8.0024293     -7.4016409      2.121821       50218.233      36.893836      36.893836      36.893836    
 484000000   0.40019242    -8.002267      -7.4019869      2.1269145      50218.233      36.893836      36.893836      36.893836    
 485000000   0.4015595     -7.9988019     -7.3964713      2.1589758      50218.233      36.893836      36.893836      36.893836    
 486000000   0.40050365    -8.003184      -7.402437       2.1292458      50218.233      36.893836      36.893836      36.893836    
 487000000   0.39946117    -7.9968983     -7.3977151      2.1807534      50218.233      36.893836      36.893836      36.893836    
 488000000   0.40011001    -8.0010539     -7.4008974      2.1378829      50218.233      36.893836      36.893836      36.893836    
 489000000   0.40128222    -7.9987985     -7.3968837      2.1492453      50218.233      36.893836      36.893836      36.893836    
 490000000   0.40176494    -8.0018113     -7.3991725      2.1375983      50218.233      36.893836      36.893836      36.893836    
 491000000   0.39912669    -8.0036728     -7.4049913      2.1190276      50218.233      36.893836      36.893836      36.893836    
 492000000   0.40272212    -8.0028417     -7.3987671      2.1294116      50218.233      36.893836      36.893836      36.893836    
 493000000   0.40049612    -8.0044557     -7.40372        2.1172759      50218.233      36.893836      36.893836      36.893836    
 494000000   0.39868491    -8.0016878     -7.403669       2.1307135      50218.233      36.893836      36.893836      36.893836    
 495000000   0.39991495    -7.9998697     -7.4000058      2.1453762      50218.233      36.893836      36.893836      36.893836    
 496000000   0.39949875    -8.0055177     -7.4062781      2.0977805      50218.233      36.893836      36.893836      36.893836    
 497000000   0.39943156    -8.0001606     -7.4010218      2.1358188      50218.233      36.893836      36.893836      36.893836    
 498000000   0.39823938    -8.000166      -7.4028154      2.146191       50218.233      36.893836      36.893836      36.893836    
 499000000   0.39921543    -7.998592      -7.3997773      2.1574458      50218.233      36.893836      36.893836      36.893836    
 500000000   0.40026119    -8.0006855     -7.4003023      2.1487815      50218.233      36.893836      36.893836      36.893836    
Loop time of 782939 on 5 procs for 500000000 steps with 70304 atoms

Performance: 551766.822 tau/day, 638.619 timesteps/s, 44.897 Matom-step/s
94.7% CPU use with 5 MPI tasks x 1 OpenMP threads

MPI task timing breakdown:
Section |  min time  |  avg time  |  max time  |%varavg| %total
---------------------------------------------------------------
Pair    | 2.9383e+05 | 3.1146e+05 | 3.3094e+05 |2165.2 | 39.78
Neigh   | 2433.2     | 2483.5     | 2551.2     |  78.0 |  0.32
Comm    | 1.1537e+05 | 1.1578e+05 | 1.1645e+05 | 107.1 | 14.79
Output  | 0.090534   | 0.093828   | 0.099899   |   1.1 |  0.00
Modify  | 2.9316e+05 | 3.1337e+05 | 3.3058e+05 |2177.3 | 40.03
Other   |            | 3.985e+04  |            |       |  5.09

Nlocal:        14060.8 ave       14121 max       13985 min
Histogram: 1 0 0 0 0 1 2 0 0 1
Nghost:        18731.2 ave       18786 max       18679 min
Histogram: 1 0 0 0 1 2 0 0 0 1
Neighs:              0 ave           0 max           0 min
Histogram: 5 0 0 0 0 0 0 0 0 0

Total # of neighbors = 0
Ave neighs/atom = 0
Neighbor list builds = 95454311
Dangerous builds = 0
clear
OMP_NUM_THREADS environment is not set. Defaulting to 1 thread. (src/comm.cpp:98)
  using 1 OpenMP thread(s) per MPI task
package gpu 0
jump dms380.lmp

variable T equal 380
# T = 1000* (temp in LJ unit)
variable f equal 1000000
log log.${T}
log log.380
