variable TLJ equal (${T}/1000)
variable TLJ equal (500/1000)
variable NCyle equal 5
variable iStep equal (${f})
variable iStep equal (1000000)
variable dumpStep equal (${f}*100)
variable dumpStep equal (1000000*100)
variable runStep equal (${f}*100*${NCyle})
variable runStep equal (1000000*100*${NCyle})
variable runStep equal (1000000*100*5)

units       lj
atom_style  atomic
dimension 3
boundary     p p p
pair_style  lj/cut 2.5
read_data  ../data/T${T}.dat
read_data  ../data/T500.dat
Reading data file ...
  orthogonal box = (0.97250269 0.97250269 0.97250269) to (37.866338 37.866338 37.866338)
  1 by 1 by 5 MPI processor grid
  reading atoms ...
  70304 atoms
  reading velocities ...
  70304 velocities
  read_data CPU = 0.256 seconds
change_box all triclinic
Changing box ...
  triclinic box = (0.97250269 0.97250269 0.97250269) to (37.866338 37.866338 37.866338) with tilt (0 0 0)
mass 1 1
mass 2 1
pair_modify shift yes
pair_coeff  1 1 1 1
pair_coeff  1 2 1.5 0.8
pair_coeff  2 2 0.5 0.88


timestep 0.01
thermo ${iStep}
thermo 1000000
reset_timestep 0
thermo_style custom step temp pe etotal press vol lx ly lz
fix             1 all nvt temp ${TLJ}  ${TLJ}  0.1
fix             1 all nvt temp 0.5  ${TLJ}  0.1
fix             1 all nvt temp 0.5  0.5  0.1
thermo_modify flush yes

fix dsf all deform 1 xy  wiggle 0.5  ${f}   units box
fix dsf all deform 1 xy  wiggle 0.5  1000000   units box
fix ps1 all ave/time 1 1 ${iStep} c_thermo_press[1] c_thermo_press[2]  c_thermo_press[3] c_thermo_press[4]  c_thermo_press[5] c_thermo_press[6]  file  stress.${T}
fix ps1 all ave/time 1 1 1000000 c_thermo_press[1] c_thermo_press[2]  c_thermo_press[3] c_thermo_press[4]  c_thermo_press[5] c_thermo_press[6]  file  stress.${T}
fix ps1 all ave/time 1 1 1000000 c_thermo_press[1] c_thermo_press[2]  c_thermo_press[3] c_thermo_press[4]  c_thermo_press[5] c_thermo_press[6]  file  stress.500
dump            1 all custom ${dumpStep} dump.${T} id type x y z
dump            1 all custom 100000000 dump.${T} id type x y z
dump            1 all custom 100000000 dump.500 id type x y z
dump_modify 1 sort id
fix nodrift all momentum 1  linear 1 1 1
fix com_seed all recenter INIT INIT INIT shift all
run ${runStep}
run 500000000
Generated 0 of 1 mixed pair_coeff terms from geometric mixing rule
Per MPI rank memory allocation (min/avg/max) = 6.67 | 8.472 | 8.928 Mbytes
   Step          Temp          PotEng         TotEng         Press          Volume           Lx             Ly             Lz      
         0   0.50192821    -7.8229874     -7.0701058      3.605369       50218.233      36.893836      36.893836      36.893836    
   1000000   0.50128834    -7.8177948     -7.065873       3.6341197      50218.233      36.893836      36.893836      36.893836    
   2000000   0.49840469    -7.8143131     -7.0667167      3.6531129      50218.233      36.893836      36.893836      36.893836    
   3000000   0.49968018    -7.8134492     -7.0639396      3.6769782      50218.233      36.893836      36.893836      36.893836    
   4000000   0.49891162    -7.8170498     -7.068693       3.6306838      50218.233      36.893836      36.893836      36.893836    
   5000000   0.49905808    -7.8184376     -7.0698612      3.6248529      50218.233      36.893836      36.893836      36.893836    
   6000000   0.49905374    -7.8176607     -7.0690907      3.632681       50218.233      36.893836      36.893836      36.893836    
   7000000   0.49885369    -7.8193197     -7.0710498      3.6203358      50218.233      36.893836      36.893836      36.893836    
   8000000   0.49925459    -7.8202319     -7.0713606      3.6043657      50218.233      36.893836      36.893836      36.893836    
   9000000   0.49988285    -7.8143591     -7.0645455      3.6544202      50218.233      36.893836      36.893836      36.893836    
  10000000   0.49950576    -7.8176248     -7.0683769      3.6330206      50218.233      36.893836      36.893836      36.893836    
  11000000   0.50159759    -7.8110748     -7.0586891      3.6974121      50218.233      36.893836      36.893836      36.893836    
  12000000   0.49986638    -7.8128798     -7.0630908      3.660827       50218.233      36.893836      36.893836      36.893836    
  13000000   0.49810228    -7.8185203     -7.0713775      3.621371       50218.233      36.893836      36.893836      36.893836    
  14000000   0.4995876     -7.81795       -7.0685792      3.6307911      50218.233      36.893836      36.893836      36.893836    
  15000000   0.49920457    -7.8177893     -7.0689931      3.636769       50218.233      36.893836      36.893836      36.893836    
  16000000   0.49872134    -7.8160016     -7.0679303      3.6594772      50218.233      36.893836      36.893836      36.893836    
  17000000   0.50049765    -7.8187742     -7.0680384      3.6404596      50218.233      36.893836      36.893836      36.893836    
  18000000   0.50105067    -7.8201595     -7.0685942      3.6158369      50218.233      36.893836      36.893836      36.893836    
  19000000   0.49828305    -7.8197412     -7.0723272      3.6053416      50218.233      36.893836      36.893836      36.893836    
  20000000   0.50031176    -7.8186792     -7.0682222      3.6344937      50218.233      36.893836      36.893836      36.893836    
  21000000   0.50024321    -7.8214754     -7.0711212      3.611033       50218.233      36.893836      36.893836      36.893836    
  22000000   0.49762298    -7.814588      -7.0681642      3.6587869      50218.233      36.893836      36.893836      36.893836    
  23000000   0.50017363    -7.8187336     -7.0684839      3.634297       50218.233      36.893836      36.893836      36.893836    
  24000000   0.49873249    -7.8157316     -7.0676435      3.6601513      50218.233      36.893836      36.893836      36.893836    
  25000000   0.50029876    -7.8162063     -7.0657688      3.6559267      50218.233      36.893836      36.893836      36.893836    
  26000000   0.49734428    -7.8134513     -7.0674454      3.6752486      50218.233      36.893836      36.893836      36.893836    
  27000000   0.50032382    -7.8169629     -7.0664878      3.6540657      50218.233      36.893836      36.893836      36.893836    
  28000000   0.49996362    -7.8169342     -7.0669994      3.6447786      50218.233      36.893836      36.893836      36.893836    
  29000000   0.49918319    -7.8158315     -7.0670674      3.6508663      50218.233      36.893836      36.893836      36.893836    
  30000000   0.50003936    -7.8178565     -7.0678082      3.6298728      50218.233      36.893836      36.893836      36.893836    
  31000000   0.49939626    -7.8170856     -7.0680019      3.6374313      50218.233      36.893836      36.893836      36.893836    
  32000000   0.49735362    -7.8176843     -7.0716645      3.6226352      50218.233      36.893836      36.893836      36.893836    
  33000000   0.49828282    -7.8192922     -7.0718786      3.623792       50218.233      36.893836      36.893836      36.893836    
  34000000   0.50123962    -7.8204185     -7.0685698      3.6170829      50218.233      36.893836      36.893836      36.893836    
  35000000   0.5005255     -7.8164856     -7.065708       3.6510142      50218.233      36.893836      36.893836      36.893836    
  36000000   0.49863919    -7.8167501     -7.068802       3.6554919      50218.233      36.893836      36.893836      36.893836    
  37000000   0.50038648    -7.8182043     -7.0676352      3.6312073      50218.233      36.893836      36.893836      36.893836    
  38000000   0.50197681    -7.8170061     -7.0640516      3.6488195      50218.233      36.893836      36.893836      36.893836    
  39000000   0.50094673    -7.815904      -7.0644946      3.6574499      50218.233      36.893836      36.893836      36.893836    
  40000000   0.50118001    -7.8165285     -7.0647691      3.6452482      50218.233      36.893836      36.893836      36.893836    
  41000000   0.49876322    -7.8157728     -7.0676386      3.6579171      50218.233      36.893836      36.893836      36.893836    
  42000000   0.50248842    -7.8203608     -7.0666389      3.6321255      50218.233      36.893836      36.893836      36.893836    
  43000000   0.50332667    -7.8127991     -7.0578198      3.6811131      50218.233      36.893836      36.893836      36.893836    
  44000000   0.50184694    -7.8160032     -7.0632435      3.6563925      50218.233      36.893836      36.893836      36.893836    
  45000000   0.49787917    -7.8221646     -7.0753565      3.5961967      50218.233      36.893836      36.893836      36.893836    
  46000000   0.5011949     -7.8173107     -7.065529       3.6434863      50218.233      36.893836      36.893836      36.893836    
  47000000   0.50107058    -7.8152602     -7.063665       3.6606975      50218.233      36.893836      36.893836      36.893836    
  48000000   0.50179684    -7.8181485     -7.065464       3.6387592      50218.233      36.893836      36.893836      36.893836    
  49000000   0.50311465    -7.8179641     -7.0633028      3.642214       50218.233      36.893836      36.893836      36.893836    
  50000000   0.49715476    -7.8153202     -7.0695987      3.6543894      50218.233      36.893836      36.893836      36.893836    
  51000000   0.49920655    -7.8166082     -7.067809       3.6430766      50218.233      36.893836      36.893836      36.893836    
  52000000   0.49854374    -7.8156861     -7.0678812      3.6524737      50218.233      36.893836      36.893836      36.893836    
  53000000   0.50078756    -7.8191539     -7.0679833      3.6312783      50218.233      36.893836      36.893836      36.893836    
  54000000   0.49924136    -7.8169198     -7.0680684      3.6480896      50218.233      36.893836      36.893836      36.893836    
  55000000   0.5004432     -7.8183969     -7.0677428      3.6363018      50218.233      36.893836      36.893836      36.893836    
  56000000   0.50079538    -7.8179822     -7.0667998      3.6351505      50218.233      36.893836      36.893836      36.893836    
  57000000   0.5006497     -7.8169185     -7.0659546      3.6522922      50218.233      36.893836      36.893836      36.893836    
  58000000   0.498847      -7.8183763     -7.0701165      3.6176954      50218.233      36.893836      36.893836      36.893836    
  59000000   0.49656188    -7.8158921     -7.0710598      3.6357577      50218.233      36.893836      36.893836      36.893836    
  60000000   0.49979519    -7.8195416     -7.0698595      3.6223612      50218.233      36.893836      36.893836      36.893836    
  61000000   0.49880828    -7.8167491     -7.0685473      3.6216982      50218.233      36.893836      36.893836      36.893836    
  62000000   0.49614068    -7.8163898     -7.0721894      3.6285901      50218.233      36.893836      36.893836      36.893836    
  63000000   0.49831926    -7.8199286     -7.0724603      3.6111324      50218.233      36.893836      36.893836      36.893836    
  64000000   0.50232221    -7.8165418     -7.0630692      3.6446116      50218.233      36.893836      36.893836      36.893836    
  65000000   0.49961326    -7.8142894     -7.0648801      3.6623424      50218.233      36.893836      36.893836      36.893836    
  66000000   0.4986191     -7.8174214     -7.0695033      3.6353461      50218.233      36.893836      36.893836      36.893836    
  67000000   0.4994529     -7.8208149     -7.0716462      3.6122163      50218.233      36.893836      36.893836      36.893836    
  68000000   0.50105933    -7.8189752     -7.0673969      3.6399716      50218.233      36.893836      36.893836      36.893836    
  69000000   0.49951399    -7.8172603     -7.0679999      3.6447875      50218.233      36.893836      36.893836      36.893836    
  70000000   0.49983821    -7.8174715     -7.0677249      3.6269637      50218.233      36.893836      36.893836      36.893836    
  71000000   0.50157337    -7.8139142     -7.0615649      3.6580862      50218.233      36.893836      36.893836      36.893836    
  72000000   0.49855795    -7.8201549     -7.0723286      3.6130415      50218.233      36.893836      36.893836      36.893836    
  73000000   0.49561908    -7.8174781     -7.0740601      3.6366825      50218.233      36.893836      36.893836      36.893836    
  74000000   0.50110647    -7.8198364     -7.0681874      3.6128058      50218.233      36.893836      36.893836      36.893836    
  75000000   0.49816277    -7.8166862     -7.0694527      3.6462379      50218.233      36.893836      36.893836      36.893836    
  76000000   0.50214923    -7.8158814     -7.0626682      3.6629827      50218.233      36.893836      36.893836      36.893836    
  77000000   0.49737492    -7.817947      -7.0718952      3.6320295      50218.233      36.893836      36.893836      36.893836    
  78000000   0.50127531    -7.8200969     -7.0681946      3.615917       50218.233      36.893836      36.893836      36.893836    
  79000000   0.50137133    -7.8183638     -7.0663175      3.6352516      50218.233      36.893836      36.893836      36.893836    
  80000000   0.49887402    -7.8168441     -7.0685437      3.6465143      50218.233      36.893836      36.893836      36.893836    
  81000000   0.49958353    -7.8166895     -7.0673249      3.6347473      50218.233      36.893836      36.893836      36.893836    
  82000000   0.50100114    -7.818821      -7.06733        3.6315814      50218.233      36.893836      36.893836      36.893836    
  83000000   0.50271308    -7.8198433     -7.0657844      3.6190406      50218.233      36.893836      36.893836      36.893836    
  84000000   0.49758035    -7.8182643     -7.0719044      3.6398885      50218.233      36.893836      36.893836      36.893836    
  85000000   0.4980444     -7.8154227     -7.0683667      3.6529203      50218.233      36.893836      36.893836      36.893836    
  86000000   0.50066099    -7.8152159     -7.0642351      3.655262       50218.233      36.893836      36.893836      36.893836    
  87000000   0.50385607    -7.8146293     -7.0588559      3.6492549      50218.233      36.893836      36.893836      36.893836    
  88000000   0.50005152    -7.8166453     -7.0665787      3.6543752      50218.233      36.893836      36.893836      36.893836    
  89000000   0.49646053    -7.8207242     -7.076044       3.6188182      50218.233      36.893836      36.893836      36.893836    
  90000000   0.50173773    -7.8170192     -7.0644233      3.6554442      50218.233      36.893836      36.893836      36.893836    
  91000000   0.49895948    -7.818424      -7.0699954      3.6172078      50218.233      36.893836      36.893836      36.893836    
  92000000   0.49825307    -7.8212095     -7.0738406      3.6097558      50218.233      36.893836      36.893836      36.893836    
  93000000   0.5006103     -7.8221174     -7.0712127      3.5997684      50218.233      36.893836      36.893836      36.893836    
  94000000   0.50363585    -7.8229229     -7.0674799      3.6081791      50218.233      36.893836      36.893836      36.893836    
  95000000   0.49856388    -7.8178768     -7.0700416      3.6387081      50218.233      36.893836      36.893836      36.893836    
  96000000   0.50124024    -7.8169656     -7.0651159      3.6415316      50218.233      36.893836      36.893836      36.893836    
  97000000   0.49835329    -7.8161219     -7.0686026      3.652197       50218.233      36.893836      36.893836      36.893836    
  98000000   0.49943547    -7.8114567     -7.0623141      3.6763444      50218.233      36.893836      36.893836      36.893836    
  99000000   0.50044922    -7.8155104     -7.0648473      3.646311       50218.233      36.893836      36.893836      36.893836    
 100000000   0.49813587    -7.8155821     -7.068389       3.6499117      50218.233      36.893836      36.893836      36.893836    
 101000000   0.49918214    -7.8195699     -7.0708073      3.6225813      50218.233      36.893836      36.893836      36.893836    
 102000000   0.49900426    -7.8156091     -7.0671134      3.6679793      50218.233      36.893836      36.893836      36.893836    
 103000000   0.50098381    -7.8159133     -7.0644483      3.651007       50218.233      36.893836      36.893836      36.893836    
 104000000   0.49925187    -7.8168758     -7.0680086      3.6435017      50218.233      36.893836      36.893836      36.893836    
 105000000   0.50056007    -7.8168846     -7.0660551      3.6399191      50218.233      36.893836      36.893836      36.893836    
 106000000   0.49927951    -7.8141477     -7.065239       3.6645348      50218.233      36.893836      36.893836      36.893836    
 107000000   0.49773187    -7.8195821     -7.0729949      3.6273351      50218.233      36.893836      36.893836      36.893836    
 108000000   0.49923666    -7.8156385     -7.0667942      3.6641254      50218.233      36.893836      36.893836      36.893836    
 109000000   0.49694086    -7.8134349     -7.0680343      3.6662581      50218.233      36.893836      36.893836      36.893836    
 110000000   0.49906149    -7.8156273     -7.0670457      3.6502617      50218.233      36.893836      36.893836      36.893836    
 111000000   0.49839845    -7.8151374     -7.0675503      3.6626087      50218.233      36.893836      36.893836      36.893836    
 112000000   0.49989215    -7.819217      -7.0693894      3.6302983      50218.233      36.893836      36.893836      36.893836    
 113000000   0.50098846    -7.8182967     -7.0668247      3.6330006      50218.233      36.893836      36.893836      36.893836    
 114000000   0.50112301    -7.8202257     -7.0685519      3.6157362      50218.233      36.893836      36.893836      36.893836    
 115000000   0.5026384     -7.8157439     -7.061797       3.6518812      50218.233      36.893836      36.893836      36.893836    
 116000000   0.50010186    -7.8143894     -7.0642473      3.6564406      50218.233      36.893836      36.893836      36.893836    
 117000000   0.49899517    -7.8182857     -7.0698036      3.635762       50218.233      36.893836      36.893836      36.893836    
 118000000   0.50108007    -7.8165277     -7.0649183      3.6448262      50218.233      36.893836      36.893836      36.893836    
 119000000   0.49910208    -7.8205499     -7.0719074      3.6183978      50218.233      36.893836      36.893836      36.893836    
 120000000   0.49952314    -7.8149604     -7.0656864      3.6601673      50218.233      36.893836      36.893836      36.893836    
 121000000   0.50108667    -7.8176966     -7.0660773      3.6339487      50218.233      36.893836      36.893836      36.893836    
 122000000   0.50243502    -7.8133671     -7.0597253      3.6754422      50218.233      36.893836      36.893836      36.893836    
 123000000   0.49756814    -7.8214026     -7.075061       3.623111       50218.233      36.893836      36.893836      36.893836    
 124000000   0.50022594    -7.81356       -7.0632317      3.6770886      50218.233      36.893836      36.893836      36.893836    
 125000000   0.50359881    -7.8183572     -7.0629698      3.6398093      50218.233      36.893836      36.893836      36.893836    
 126000000   0.49891411    -7.8166834     -7.0683229      3.6395637      50218.233      36.893836      36.893836      36.893836    
 127000000   0.5003983     -7.8134676     -7.0628809      3.6723543      50218.233      36.893836      36.893836      36.893836    
 128000000   0.50151436    -7.8146094     -7.0623486      3.6632095      50218.233      36.893836      36.893836      36.893836    
 129000000   0.5013337     -7.8135582     -7.0615684      3.654663       50218.233      36.893836      36.893836      36.893836    
 130000000   0.50008756    -7.8167654     -7.0666448      3.6388502      50218.233      36.893836      36.893836      36.893836    
 131000000   0.50313053    -7.8169843     -7.0622993      3.6488353      50218.233      36.893836      36.893836      36.893836    
 132000000   0.49983901    -7.8192487     -7.0695009      3.6204557      50218.233      36.893836      36.893836      36.893836    
 133000000   0.50124064    -7.81552       -7.0636697      3.6533565      50218.233      36.893836      36.893836      36.893836    
 134000000   0.4993613     -7.8148976     -7.0658663      3.6549503      50218.233      36.893836      36.893836      36.893836    
 135000000   0.49971956    -7.813457      -7.0638883      3.6648542      50218.233      36.893836      36.893836      36.893836    
 136000000   0.50050249    -7.818512      -7.067769       3.6285882      50218.233      36.893836      36.893836      36.893836    
 137000000   0.501976      -7.8153277     -7.0623744      3.6684234      50218.233      36.893836      36.893836      36.893836    
 138000000   0.49985223    -7.8203561     -7.0705884      3.6121545      50218.233      36.893836      36.893836      36.893836    
 139000000   0.50201033    -7.813502      -7.0604972      3.6814512      50218.233      36.893836      36.893836      36.893836    
 140000000   0.50004706    -7.8185864     -7.0685265      3.6392821      50218.233      36.893836      36.893836      36.893836    
 141000000   0.50039612    -7.8136419     -7.0630584      3.6745924      50218.233      36.893836      36.893836      36.893836    
 142000000   0.50077153    -7.8161966     -7.06505        3.6595463      50218.233      36.893836      36.893836      36.893836    
 143000000   0.49850461    -7.8164384     -7.0686921      3.6322003      50218.233      36.893836      36.893836      36.893836    
 144000000   0.5015238     -7.8134673     -7.0611923      3.6714774      50218.233      36.893836      36.893836      36.893836    
 145000000   0.49636084    -7.812988      -7.0684573      3.6574309      50218.233      36.893836      36.893836      36.893836    
 146000000   0.49907631    -7.8101404     -7.0615366      3.6873744      50218.233      36.893836      36.893836      36.893836    
 147000000   0.49929741    -7.8170555     -7.06812        3.632544       50218.233      36.893836      36.893836      36.893836    
 148000000   0.49756543    -7.8132816     -7.066944       3.671535       50218.233      36.893836      36.893836      36.893836    
 149000000   0.50048016    -7.8167991     -7.0660896      3.6440678      50218.233      36.893836      36.893836      36.893836    
 150000000   0.50015844    -7.821017      -7.07079        3.6248002      50218.233      36.893836      36.893836      36.893836    
 151000000   0.49887231    -7.8149505     -7.0666527      3.6557478      50218.233      36.893836      36.893836      36.893836    
 152000000   0.50456587    -7.820899      -7.0640609      3.611988       50218.233      36.893836      36.893836      36.893836    
 153000000   0.5010814     -7.8147867     -7.0631753      3.6530834      50218.233      36.893836      36.893836      36.893836    
 154000000   0.50149811    -7.8092413     -7.0570049      3.7054398      50218.233      36.893836      36.893836      36.893836    
 155000000   0.49566447    -7.8112673     -7.0677812      3.6888019      50218.233      36.893836      36.893836      36.893836    
 156000000   0.50136415    -7.8152795     -7.063244       3.6621156      50218.233      36.893836      36.893836      36.893836    
 157000000   0.49951161    -7.8168099     -7.0675532      3.6396528      50218.233      36.893836      36.893836      36.893836    
 158000000   0.50257448    -7.8128984     -7.0590474      3.6710131      50218.233      36.893836      36.893836      36.893836    
 159000000   0.50180047    -7.8188963     -7.0662063      3.6394433      50218.233      36.893836      36.893836      36.893836    
 160000000   0.49763691    -7.8165543     -7.0701096      3.6560048      50218.233      36.893836      36.893836      36.893836    
 161000000   0.50221874    -7.8199        -7.0665826      3.6190591      50218.233      36.893836      36.893836      36.893836    
 162000000   0.50015322    -7.8195027     -7.0692835      3.632026       50218.233      36.893836      36.893836      36.893836    
 163000000   0.50303369    -7.8181948     -7.063655       3.6402601      50218.233      36.893836      36.893836      36.893836    
 164000000   0.50005665    -7.8188714     -7.0687971      3.6286714      50218.233      36.893836      36.893836      36.893836    
 165000000   0.50033253    -7.816628      -7.0661399      3.6310442      50218.233      36.893836      36.893836      36.893836    
 166000000   0.50198835    -7.8177359     -7.0647641      3.6427265      50218.233      36.893836      36.893836      36.893836    
 167000000   0.49988037    -7.8193688     -7.0695589      3.6264549      50218.233      36.893836      36.893836      36.893836    
 168000000   0.49875983    -7.8142193     -7.0660902      3.6590271      50218.233      36.893836      36.893836      36.893836    
 169000000   0.49845991    -7.8198708     -7.0721915      3.6170654      50218.233      36.893836      36.893836      36.893836    
 170000000   0.50088792    -7.819041      -7.0677198      3.6275444      50218.233      36.893836      36.893836      36.893836    
 171000000   0.49817624    -7.8146266     -7.0673728      3.6565886      50218.233      36.893836      36.893836      36.893836    
 172000000   0.49931231    -7.819975      -7.0710171      3.6304391      50218.233      36.893836      36.893836      36.893836    
 173000000   0.49919663    -7.820373      -7.0715887      3.6104759      50218.233      36.893836      36.893836      36.893836    
 174000000   0.50049928    -7.8164112     -7.065673       3.6570024      50218.233      36.893836      36.893836      36.893836    
 175000000   0.49789823    -7.816365      -7.0695282      3.6454262      50218.233      36.893836      36.893836      36.893836    
 176000000   0.49983412    -7.815498      -7.0657575      3.6474626      50218.233      36.893836      36.893836      36.893836    
 177000000   0.49908663    -7.8177141     -7.0690948      3.6261682      50218.233      36.893836      36.893836      36.893836    
 178000000   0.5014865     -7.8203883     -7.0681692      3.6126827      50218.233      36.893836      36.893836      36.893836    
 179000000   0.499381      -7.8201757     -7.0711148      3.6131096      50218.233      36.893836      36.893836      36.893836    
 180000000   0.50042714    -7.8217556     -7.0711256      3.6045571      50218.233      36.893836      36.893836      36.893836    
 181000000   0.50029072    -7.8173243     -7.0668989      3.6239653      50218.233      36.893836      36.893836      36.893836    
 182000000   0.49730777    -7.8170202     -7.0710692      3.6339338      50218.233      36.893836      36.893836      36.893836    
 183000000   0.49911769    -7.8204026     -7.0717367      3.6084076      50218.233      36.893836      36.893836      36.893836    
 184000000   0.50095488    -7.8157945     -7.0643729      3.6503695      50218.233      36.893836      36.893836      36.893836    
 185000000   0.501313      -7.8208266     -7.0688678      3.620944       50218.233      36.893836      36.893836      36.893836    
 186000000   0.50015065    -7.816229      -7.0660137      3.6521452      50218.233      36.893836      36.893836      36.893836    
 187000000   0.498825      -7.8163284     -7.0681016      3.6313205      50218.233      36.893836      36.893836      36.893836    
 188000000   0.50016991    -7.8192003     -7.0689561      3.6305776      50218.233      36.893836      36.893836      36.893836    
 189000000   0.4985109     -7.8163003     -7.0685446      3.6393379      50218.233      36.893836      36.893836      36.893836    
 190000000   0.50042153    -7.8144518     -7.0638302      3.6654344      50218.233      36.893836      36.893836      36.893836    
 191000000   0.49870328    -7.8172837     -7.0692394      3.6413267      50218.233      36.893836      36.893836      36.893836    
 192000000   0.49994005    -7.8135993     -7.0636999      3.6624886      50218.233      36.893836      36.893836      36.893836    
 193000000   0.49937501    -7.8154784     -7.0664265      3.6524951      50218.233      36.893836      36.893836      36.893836    
 194000000   0.49897537    -7.8178681     -7.0694157      3.6369628      50218.233      36.893836      36.893836      36.893836    
 195000000   0.49848885    -7.8170884     -7.0693658      3.6289742      50218.233      36.893836      36.893836      36.893836    
 196000000   0.49809444    -7.821726      -7.0745949      3.5980121      50218.233      36.893836      36.893836      36.893836    
 197000000   0.50119436    -7.8147765     -7.0629957      3.6668119      50218.233      36.893836      36.893836      36.893836    
 198000000   0.49894095    -7.8140603     -7.0656596      3.6544161      50218.233      36.893836      36.893836      36.893836    
 199000000   0.49988433    -7.8169484     -7.0671326      3.6502354      50218.233      36.893836      36.893836      36.893836    
 200000000   0.5002003     -7.8167688     -7.066479       3.6489413      50218.233      36.893836      36.893836      36.893836    
 201000000   0.49941304    -7.8147858     -7.0656768      3.6532436      50218.233      36.893836      36.893836      36.893836    
 202000000   0.49948566    -7.8187838     -7.0695659      3.6186993      50218.233      36.893836      36.893836      36.893836    
 203000000   0.4994641     -7.8171402     -7.0679547      3.626433       50218.233      36.893836      36.893836      36.893836    
 204000000   0.5009178     -7.8147148     -7.0633488      3.6721022      50218.233      36.893836      36.893836      36.893836    
 205000000   0.49912488    -7.8181802     -7.0695035      3.6311686      50218.233      36.893836      36.893836      36.893836    
 206000000   0.49897515    -7.8204023     -7.0719502      3.6183903      50218.233      36.893836      36.893836      36.893836    
 207000000   0.49754118    -7.8150783     -7.0687771      3.660026       50218.233      36.893836      36.893836      36.893836    
 208000000   0.50071718    -7.8183469     -7.0672818      3.6266165      50218.233      36.893836      36.893836      36.893836    
 209000000   0.49779244    -7.815869      -7.069191       3.6403174      50218.233      36.893836      36.893836      36.893836    
 210000000   0.49980728    -7.8139039     -7.0642036      3.6680078      50218.233      36.893836      36.893836      36.893836    
 211000000   0.49985035    -7.8189751     -7.0692103      3.6318537      50218.233      36.893836      36.893836      36.893836    
 212000000   0.49870128    -7.8132096     -7.0651683      3.6658936      50218.233      36.893836      36.893836      36.893836    
 213000000   0.5013269     -7.8154407     -7.063461       3.6441157      50218.233      36.893836      36.893836      36.893836    
 214000000   0.49981753    -7.8172609     -7.0675453      3.6438264      50218.233      36.893836      36.893836      36.893836    
 215000000   0.5000739     -7.8152567     -7.0651565      3.6619661      50218.233      36.893836      36.893836      36.893836    
 216000000   0.50104619    -7.8159356     -7.064377       3.6553605      50218.233      36.893836      36.893836      36.893836    
 217000000   0.50135832    -7.8141321     -7.0621053      3.6717961      50218.233      36.893836      36.893836      36.893836    
 218000000   0.49984242    -7.8202335     -7.0704805      3.6062295      50218.233      36.893836      36.893836      36.893836    
 219000000   0.50262221    -7.8103889     -7.0564663      3.708489       50218.233      36.893836      36.893836      36.893836    
 220000000   0.50018227    -7.8136013     -7.0633386      3.6588092      50218.233      36.893836      36.893836      36.893836    
 221000000   0.49808588    -7.8213284     -7.0742102      3.6000892      50218.233      36.893836      36.893836      36.893836    
 222000000   0.49805408    -7.8170279     -7.0699575      3.6340922      50218.233      36.893836      36.893836      36.893836    
 223000000   0.49998789    -7.8215013     -7.0715301      3.6135457      50218.233      36.893836      36.893836      36.893836    
 224000000   0.50149874    -7.8197803     -7.0675429      3.6212902      50218.233      36.893836      36.893836      36.893836    
 225000000   0.49976362    -7.8190129     -7.0693781      3.629252       50218.233      36.893836      36.893836      36.893836    
 226000000   0.49947468    -7.8171658     -7.0679645      3.6414249      50218.233      36.893836      36.893836      36.893836    
 227000000   0.49935213    -7.8149953     -7.0659777      3.6462106      50218.233      36.893836      36.893836      36.893836    
 228000000   0.50207413    -7.8186591     -7.0655586      3.6276822      50218.233      36.893836      36.893836      36.893836    
 229000000   0.49787326    -7.8191152     -7.0723159      3.6216226      50218.233      36.893836      36.893836      36.893836    
 230000000   0.4972358     -7.8184634     -7.0726203      3.6006928      50218.233      36.893836      36.893836      36.893836    
 231000000   0.49942453    -7.8191766     -7.0700505      3.619273       50218.233      36.893836      36.893836      36.893836    
 232000000   0.49848092    -7.8192654     -7.0715547      3.6217324      50218.233      36.893836      36.893836      36.893836    
 233000000   0.50055361    -7.8196042     -7.0687845      3.5981265      50218.233      36.893836      36.893836      36.893836    
 234000000   0.49957065    -7.8177168     -7.0683715      3.6428738      50218.233      36.893836      36.893836      36.893836    
 235000000   0.49864415    -7.8197601     -7.0718045      3.6162155      50218.233      36.893836      36.893836      36.893836    
 236000000   0.50265692    -7.8191054     -7.0651307      3.6278162      50218.233      36.893836      36.893836      36.893836    
 237000000   0.49702438    -7.8158684     -7.0703424      3.6569373      50218.233      36.893836      36.893836      36.893836    
 238000000   0.50008105    -7.8125605     -7.0624496      3.6721535      50218.233      36.893836      36.893836      36.893836    
 239000000   0.50076585    -7.8100893     -7.0589513      3.686075       50218.233      36.893836      36.893836      36.893836    
 240000000   0.50039318    -7.8150613     -7.0644822      3.654456       50218.233      36.893836      36.893836      36.893836    
 241000000   0.50378909    -7.8135714     -7.0578985      3.6503163      50218.233      36.893836      36.893836      36.893836    
 242000000   0.50019035    -7.8196138     -7.0693389      3.6132819      50218.233      36.893836      36.893836      36.893836    
 243000000   0.49790743    -7.8199211     -7.0730706      3.6123709      50218.233      36.893836      36.893836      36.893836    
 244000000   0.50316851    -7.8162431     -7.061501       3.6593056      50218.233      36.893836      36.893836      36.893836    
 245000000   0.49914734    -7.8165776     -7.0678673      3.6513819      50218.233      36.893836      36.893836      36.893836    
 246000000   0.50330065    -7.818577      -7.0636368      3.6278238      50218.233      36.893836      36.893836      36.893836    
 247000000   0.4980426     -7.8152053     -7.068152       3.6576011      50218.233      36.893836      36.893836      36.893836    
 248000000   0.4985056     -7.815993      -7.0682452      3.6421434      50218.233      36.893836      36.893836      36.893836    
 249000000   0.5012749     -7.8189642     -7.0670625      3.6235177      50218.233      36.893836      36.893836      36.893836    
 250000000   0.49948869    -7.8165408     -7.0673184      3.6430138      50218.233      36.893836      36.893836      36.893836    
 251000000   0.49958888    -7.8140909     -7.0647183      3.6571502      50218.233      36.893836      36.893836      36.893836    
 252000000   0.49977806    -7.8147903     -7.0651338      3.6515346      50218.233      36.893836      36.893836      36.893836    
 253000000   0.50000523    -7.8169391     -7.0669419      3.6389557      50218.233      36.893836      36.893836      36.893836    
 254000000   0.5005427     -7.8176786     -7.0668752      3.6425309      50218.233      36.893836      36.893836      36.893836    
 255000000   0.50045614    -7.8158593     -7.0651858      3.6566513      50218.233      36.893836      36.893836      36.893836    
 256000000   0.49964752    -7.8192135     -7.0697528      3.6172421      50218.233      36.893836      36.893836      36.893836    
 257000000   0.50042488    -7.8157375     -7.0651108      3.64704        50218.233      36.893836      36.893836      36.893836    
 258000000   0.50069575    -7.8179665     -7.0669335      3.6354767      50218.233      36.893836      36.893836      36.893836    
 259000000   0.50127758    -7.8177251     -7.0658194      3.6397588      50218.233      36.893836      36.893836      36.893836    
 260000000   0.49730809    -7.8150521     -7.0691006      3.6590942      50218.233      36.893836      36.893836      36.893836    
 261000000   0.4985791     -7.8167327     -7.0688747      3.6376816      50218.233      36.893836      36.893836      36.893836    
 262000000   0.49721828    -7.8177047     -7.0718879      3.629807       50218.233      36.893836      36.893836      36.893836    
 263000000   0.50068577    -7.8200886     -7.0690706      3.6266906      50218.233      36.893836      36.893836      36.893836    
 264000000   0.49878219    -7.8201747     -7.072012       3.6069432      50218.233      36.893836      36.893836      36.893836    
 265000000   0.49738231    -7.8194705     -7.0734076      3.6196026      50218.233      36.893836      36.893836      36.893836    
 266000000   0.50029799    -7.8186616     -7.0682253      3.6340341      50218.233      36.893836      36.893836      36.893836    
 267000000   0.49831109    -7.8185195     -7.0710635      3.6408401      50218.233      36.893836      36.893836      36.893836    
 268000000   0.49620006    -7.8175723     -7.0732828      3.6336385      50218.233      36.893836      36.893836      36.893836    
 269000000   0.49882171    -7.8163867     -7.0681648      3.6405007      50218.233      36.893836      36.893836      36.893836    
 270000000   0.50100032    -7.8139881     -7.0624984      3.6738803      50218.233      36.893836      36.893836      36.893836    
 271000000   0.49785186    -7.8196673     -7.0729001      3.6209757      50218.233      36.893836      36.893836      36.893836    
 272000000   0.49921853    -7.8188108     -7.0699936      3.6267588      50218.233      36.893836      36.893836      36.893836    
 273000000   0.49811762    -7.8138518     -7.066686       3.6693625      50218.233      36.893836      36.893836      36.893836    
 274000000   0.49859579    -7.8189253     -7.0710423      3.6267024      50218.233      36.893836      36.893836      36.893836    
 275000000   0.50273689    -7.8183028     -7.0642082      3.6356742      50218.233      36.893836      36.893836      36.893836    
 276000000   0.49926709    -7.8165874     -7.0676974      3.6301648      50218.233      36.893836      36.893836      36.893836    
 277000000   0.49930818    -7.8160688     -7.0671172      3.6475374      50218.233      36.893836      36.893836      36.893836    
 278000000   0.49960778    -7.8137675     -7.0643665      3.6677521      50218.233      36.893836      36.893836      36.893836    
 279000000   0.49950982    -7.8187576     -7.0695035      3.6123439      50218.233      36.893836      36.893836      36.893836    
 280000000   0.49972944    -7.8201407     -7.0705572      3.6129017      50218.233      36.893836      36.893836      36.893836    
 281000000   0.50020592    -7.8188085     -7.0685103      3.6279494      50218.233      36.893836      36.893836      36.893836    
 282000000   0.50124196    -7.8149208     -7.0630686      3.6420408      50218.233      36.893836      36.893836      36.893836    
 283000000   0.50113515    -7.8205882     -7.0688962      3.6164027      50218.233      36.893836      36.893836      36.893836    
 284000000   0.50091531    -7.8171813     -7.065819       3.6330816      50218.233      36.893836      36.893836      36.893836    
 285000000   0.50220919    -7.8154998     -7.0621967      3.656695       50218.233      36.893836      36.893836      36.893836    
 286000000   0.49844441    -7.8166598     -7.0690039      3.6482092      50218.233      36.893836      36.893836      36.893836    
 287000000   0.49755917    -7.8189747     -7.0726466      3.624619       50218.233      36.893836      36.893836      36.893836    
 288000000   0.49872647    -7.8196781     -7.0715991      3.6160185      50218.233      36.893836      36.893836      36.893836    
 289000000   0.50088669    -7.8168497     -7.0655303      3.6467272      50218.233      36.893836      36.893836      36.893836    
 290000000   0.50020659    -7.8148979     -7.0645987      3.6519012      50218.233      36.893836      36.893836      36.893836    
 291000000   0.50229474    -7.8190448     -7.0656134      3.6272907      50218.233      36.893836      36.893836      36.893836    
 292000000   0.50266895    -7.8131748     -7.0591821      3.6757203      50218.233      36.893836      36.893836      36.893836    
 293000000   0.49983126    -7.8182704     -7.0685342      3.6356574      50218.233      36.893836      36.893836      36.893836    
 294000000   0.50110695    -7.8171763     -7.0655265      3.6313065      50218.233      36.893836      36.893836      36.893836    
 295000000   0.49834844    -7.8225997     -7.0750877      3.599283       50218.233      36.893836      36.893836      36.893836    
 296000000   0.50011603    -7.8153236     -7.0651602      3.6673611      50218.233      36.893836      36.893836      36.893836    
 297000000   0.49987745    -7.8189288     -7.0691233      3.6287483      50218.233      36.893836      36.893836      36.893836    
 298000000   0.49824371    -7.8205553     -7.0732004      3.6164726      50218.233      36.893836      36.893836      36.893836    
 299000000   0.49920256    -7.8182586     -7.0694654      3.6351842      50218.233      36.893836      36.893836      36.893836    
 300000000   0.49699658    -7.8154201     -7.0699359      3.6455786      50218.233      36.893836      36.893836      36.893836    
 301000000   0.49692661    -7.818586      -7.0732067      3.6293765      50218.233      36.893836      36.893836      36.893836    
 302000000   0.50140587    -7.8239594     -7.0718613      3.5900066      50218.233      36.893836      36.893836      36.893836    
 303000000   0.50082898    -7.8202744     -7.0690416      3.6171539      50218.233      36.893836      36.893836      36.893836    
 304000000   0.49883464    -7.8195773     -7.071336       3.6117816      50218.233      36.893836      36.893836      36.893836    
 305000000   0.49874065    -7.8195094     -7.0714091      3.6264278      50218.233      36.893836      36.893836      36.893836    
 306000000   0.5014225     -7.8195684     -7.0674453      3.6156243      50218.233      36.893836      36.893836      36.893836    
 307000000   0.50083227    -7.8161454     -7.0649077      3.6631258      50218.233      36.893836      36.893836      36.893836    
 308000000   0.49588947    -7.817853      -7.0740293      3.6240759      50218.233      36.893836      36.893836      36.893836    
 309000000   0.49904435    -7.8160867     -7.0675308      3.6404943      50218.233      36.893836      36.893836      36.893836    
 310000000   0.49918399    -7.8144032     -7.0656379      3.6557685      50218.233      36.893836      36.893836      36.893836    
 311000000   0.50223991    -7.8142984     -7.0609492      3.6610282      50218.233      36.893836      36.893836      36.893836    
 312000000   0.49649441    -7.8148069     -7.0700758      3.6501046      50218.233      36.893836      36.893836      36.893836    
 313000000   0.50121895    -7.8145247     -7.062707       3.6544993      50218.233      36.893836      36.893836      36.893836    
 314000000   0.50010535    -7.8135504     -7.0634031      3.6768048      50218.233      36.893836      36.893836      36.893836    
 315000000   0.50016637    -7.8167643     -7.0665254      3.6327508      50218.233      36.893836      36.893836      36.893836    
 316000000   0.49852468    -7.8179028     -7.0701264      3.6168592      50218.233      36.893836      36.893836      36.893836    
 317000000   0.49770474    -7.8196709     -7.0731244      3.6150338      50218.233      36.893836      36.893836      36.893836    
 318000000   0.49838598    -7.8113986     -7.0638303      3.6813474      50218.233      36.893836      36.893836      36.893836    
 319000000   0.49911453    -7.8209788     -7.0723177      3.6043271      50218.233      36.893836      36.893836      36.893836    
 320000000   0.49973882    -7.8235295     -7.073932       3.594281       50218.233      36.893836      36.893836      36.893836    
 321000000   0.49947054    -7.8171683     -7.0679731      3.6391578      50218.233      36.893836      36.893836      36.893836    
 322000000   0.49676144    -7.8232216     -7.07809        3.5845605      50218.233      36.893836      36.893836      36.893836    
 323000000   0.49834518    -7.8199201     -7.072413       3.6052355      50218.233      36.893836      36.893836      36.893836    
 324000000   0.50190619    -7.8211755     -7.0683269      3.6159121      50218.233      36.893836      36.893836      36.893836    
 325000000   0.49926433    -7.8186827     -7.0697968      3.6267275      50218.233      36.893836      36.893836      36.893836    
 326000000   0.49833619    -7.8213541     -7.0738605      3.6016552      50218.233      36.893836      36.893836      36.893836    
 327000000   0.49903157    -7.819839      -7.0713023      3.6269366      50218.233      36.893836      36.893836      36.893836    
 328000000   0.50098547    -7.8121724     -7.0607049      3.6843654      50218.233      36.893836      36.893836      36.893836    
 329000000   0.49971626    -7.8155901     -7.0660264      3.6659962      50218.233      36.893836      36.893836      36.893836    
 330000000   0.50064805    -7.8227389     -7.0717775      3.5949396      50218.233      36.893836      36.893836      36.893836    
 331000000   0.50017085    -7.8139561     -7.0637105      3.6582149      50218.233      36.893836      36.893836      36.893836    
 332000000   0.49975068    -7.8212701     -7.0716547      3.6121575      50218.233      36.893836      36.893836      36.893836    
 333000000   0.49860538    -7.8234607     -7.0755633      3.6031191      50218.233      36.893836      36.893836      36.893836    
 334000000   0.50172192    -7.8157128     -7.0631406      3.6556996      50218.233      36.893836      36.893836      36.893836    
 335000000   0.50031408    -7.8193174     -7.0688569      3.6317529      50218.233      36.893836      36.893836      36.893836    
 336000000   0.49974571    -7.8159059     -7.066298       3.6408539      50218.233      36.893836      36.893836      36.893836    
 337000000   0.50043037    -7.8168618     -7.066227       3.6475033      50218.233      36.893836      36.893836      36.893836    
 338000000   0.50153064    -7.8157281     -7.0634428      3.6515694      50218.233      36.893836      36.893836      36.893836    
 339000000   0.49915773    -7.819408      -7.070682       3.6224002      50218.233      36.893836      36.893836      36.893836    
 340000000   0.50043447    -7.8177602     -7.0671192      3.63051        50218.233      36.893836      36.893836      36.893836    
 341000000   0.50120098    -7.8179446     -7.0661538      3.6334867      50218.233      36.893836      36.893836      36.893836    
 342000000   0.49846634    -7.817294      -7.0696051      3.6275424      50218.233      36.893836      36.893836      36.893836    
 343000000   0.49853911    -7.8176975     -7.0698995      3.6387973      50218.233      36.893836      36.893836      36.893836    
 344000000   0.50252741    -7.8178753     -7.0640949      3.6419143      50218.233      36.893836      36.893836      36.893836    
 345000000   0.49814727    -7.8146778     -7.0674676      3.660719       50218.233      36.893836      36.893836      36.893836    
 346000000   0.49925853    -7.8204765     -7.0715993      3.6247076      50218.233      36.893836      36.893836      36.893836    
 347000000   0.49934601    -7.8145063     -7.0654979      3.6606784      50218.233      36.893836      36.893836      36.893836    
 348000000   0.49871303    -7.8186079     -7.070549       3.6273505      50218.233      36.893836      36.893836      36.893836    
 349000000   0.49995419    -7.8148158     -7.0648952      3.6568412      50218.233      36.893836      36.893836      36.893836    
 350000000   0.5017637     -7.8136763     -7.0610414      3.674337       50218.233      36.893836      36.893836      36.893836    
 351000000   0.50018342    -7.8152405     -7.0649761      3.6564805      50218.233      36.893836      36.893836      36.893836    
 352000000   0.50054523    -7.8122296     -7.0614224      3.6643756      50218.233      36.893836      36.893836      36.893836    
 353000000   0.49810134    -7.8169572     -7.0698158      3.6272003      50218.233      36.893836      36.893836      36.893836    
 354000000   0.50014029    -7.8159719     -7.0657722      3.6466057      50218.233      36.893836      36.893836      36.893836    
 355000000   0.50112495    -7.8201169     -7.0684402      3.6218931      50218.233      36.893836      36.893836      36.893836    
 356000000   0.5005173     -7.8168907     -7.0661254      3.6486888      50218.233      36.893836      36.893836      36.893836    
 357000000   0.50105263    -7.8225192     -7.0709509      3.6007936      50218.233      36.893836      36.893836      36.893836    
 358000000   0.5015189     -7.8166884     -7.0644208      3.6491816      50218.233      36.893836      36.893836      36.893836    
 359000000   0.49957943    -7.8166214     -7.0672629      3.6292229      50218.233      36.893836      36.893836      36.893836    
 360000000   0.50018503    -7.8209901     -7.0707232      3.607891       50218.233      36.893836      36.893836      36.893836    
 361000000   0.50269797    -7.8202865     -7.0662502      3.6291644      50218.233      36.893836      36.893836      36.893836    
 362000000   0.49795135    -7.8163913     -7.0694749      3.6390081      50218.233      36.893836      36.893836      36.893836    
 363000000   0.49921575    -7.8114423     -7.0626294      3.6867014      50218.233      36.893836      36.893836      36.893836    
 364000000   0.49861336    -7.8131048     -7.0651954      3.6759696      50218.233      36.893836      36.893836      36.893836    
 365000000   0.50097888    -7.8144202     -7.0629626      3.6564407      50218.233      36.893836      36.893836      36.893836    
 366000000   0.50057156    -7.8154491     -7.0646024      3.6695191      50218.233      36.893836      36.893836      36.893836    
 367000000   0.50104179    -7.8158548     -7.0643028      3.6408306      50218.233      36.893836      36.893836      36.893836    
 368000000   0.49886586    -7.816488      -7.0681998      3.6480819      50218.233      36.893836      36.893836      36.893836    
 369000000   0.49842633    -7.8152896     -7.0676607      3.6607064      50218.233      36.893836      36.893836      36.893836    
 370000000   0.50201034    -7.8194941     -7.0664893      3.6308259      50218.233      36.893836      36.893836      36.893836    
 371000000   0.49897201    -7.8168759     -7.0684286      3.6506453      50218.233      36.893836      36.893836      36.893836    
 372000000   0.50025746    -7.818595      -7.0682195      3.6233344      50218.233      36.893836      36.893836      36.893836    
 373000000   0.50088945    -7.8149241     -7.0636006      3.6686089      50218.233      36.893836      36.893836      36.893836    
 374000000   0.50115277    -7.8187052     -7.0669867      3.62572        50218.233      36.893836      36.893836      36.893836    
 375000000   0.49703969    -7.8149477     -7.0693988      3.6465482      50218.233      36.893836      36.893836      36.893836    
 376000000   0.50039728    -7.8163073     -7.0657221      3.6529987      50218.233      36.893836      36.893836      36.893836    
 377000000   0.49959624    -7.8152904     -7.0659067      3.6521771      50218.233      36.893836      36.893836      36.893836    
 378000000   0.50021423    -7.8177441     -7.0674334      3.6412285      50218.233      36.893836      36.893836      36.893836    
 379000000   0.50217233    -7.8141775     -7.0609298      3.6525119      50218.233      36.893836      36.893836      36.893836    
 380000000   0.50029194    -7.8175762     -7.067149       3.6366533      50218.233      36.893836      36.893836      36.893836    
 381000000   0.49966178    -7.8160765     -7.0665945      3.6489533      50218.233      36.893836      36.893836      36.893836    
 382000000   0.5000445     -7.8237101     -7.073654       3.5826824      50218.233      36.893836      36.893836      36.893836    
 383000000   0.50118019    -7.8162843     -7.0645247      3.6440234      50218.233      36.893836      36.893836      36.893836    
 384000000   0.49924623    -7.8123019     -7.0634432      3.6718393      50218.233      36.893836      36.893836      36.893836    
 385000000   0.50095304    -7.8149829     -7.063564       3.6497142      50218.233      36.893836      36.893836      36.893836    
 386000000   0.49979311    -7.8144363     -7.0647573      3.658712       50218.233      36.893836      36.893836      36.893836    
 387000000   0.5010172     -7.810937      -7.0594219      3.6841677      50218.233      36.893836      36.893836      36.893836    
 388000000   0.50235757    -7.8146857     -7.0611601      3.6777626      50218.233      36.893836      36.893836      36.893836    
 389000000   0.49936183    -7.8172268     -7.0681947      3.643842       50218.233      36.893836      36.893836      36.893836    
 390000000   0.4979983     -7.8196902     -7.0727033      3.6109955      50218.233      36.893836      36.893836      36.893836    
 391000000   0.4991051     -7.8179372     -7.0692902      3.6282141      50218.233      36.893836      36.893836      36.893836    
 392000000   0.50047856    -7.8178967     -7.0671896      3.6339555      50218.233      36.893836      36.893836      36.893836    
 393000000   0.49943574    -7.8154824     -7.0663395      3.6598866      50218.233      36.893836      36.893836      36.893836    
 394000000   0.4977154     -7.8157218     -7.0691593      3.645184       50218.233      36.893836      36.893836      36.893836    
 395000000   0.4969476     -7.8213823     -7.0759715      3.5993944      50218.233      36.893836      36.893836      36.893836    
 396000000   0.49895528    -7.8254309     -7.0770087      3.5687047      50218.233      36.893836      36.893836      36.893836    
 397000000   0.49975068    -7.8224793     -7.072864       3.5948738      50218.233      36.893836      36.893836      36.893836    
 398000000   0.49921021    -7.8174932     -7.0686885      3.6305519      50218.233      36.893836      36.893836      36.893836    
 399000000   0.50095987    -7.8188294     -7.0674003      3.6223577      50218.233      36.893836      36.893836      36.893836    
 400000000   0.50114145    -7.8164267     -7.0647252      3.6385831      50218.233      36.893836      36.893836      36.893836    
 401000000   0.50145714    -7.8183588     -7.0661838      3.6258722      50218.233      36.893836      36.893836      36.893836    
 402000000   0.4998085     -7.818013      -7.0683109      3.6277669      50218.233      36.893836      36.893836      36.893836    
 403000000   0.50110249    -7.8161613     -7.0645182      3.636213       50218.233      36.893836      36.893836      36.893836    
 404000000   0.49835526    -7.8174895     -7.0699672      3.63887        50218.233      36.893836      36.893836      36.893836    
 405000000   0.5008024     -7.8190111     -7.0678182      3.6205803      50218.233      36.893836      36.893836      36.893836    
 406000000   0.49919407    -7.8209075     -7.0721271      3.6146986      50218.233      36.893836      36.893836      36.893836    
 407000000   0.49630235    -7.8128275     -7.0683846      3.665145       50218.233      36.893836      36.893836      36.893836    
 408000000   0.50077575    -7.8142855     -7.0631326      3.6604277      50218.233      36.893836      36.893836      36.893836    
 409000000   0.49874601    -7.8219462     -7.0738378      3.6095803      50218.233      36.893836      36.893836      36.893836    
 410000000   0.50056913    -7.8133009     -7.0624579      3.6632033      50218.233      36.893836      36.893836      36.893836    
 411000000   0.50139461    -7.8179963     -7.0659151      3.6278685      50218.233      36.893836      36.893836      36.893836    
 412000000   0.50092594    -7.8170253     -7.0656471      3.6351196      50218.233      36.893836      36.893836      36.893836    
 413000000   0.49911202    -7.8148136     -7.0661562      3.6564674      50218.233      36.893836      36.893836      36.893836    
 414000000   0.5001023     -7.8209148     -7.070772       3.6178237      50218.233      36.893836      36.893836      36.893836    
 415000000   0.49817583    -7.8194402     -7.072187       3.6210254      50218.233      36.893836      36.893836      36.893836    
 416000000   0.49971477    -7.8161028     -7.0665413      3.6416948      50218.233      36.893836      36.893836      36.893836    
 417000000   0.49906069    -7.8218351     -7.0732547      3.6099091      50218.233      36.893836      36.893836      36.893836    
 418000000   0.5022687     -7.8243358     -7.0709435      3.5941318      50218.233      36.893836      36.893836      36.893836    
 419000000   0.49870498    -7.8189542     -7.0709074      3.6265098      50218.233      36.893836      36.893836      36.893836    
 420000000   0.49959215    -7.8191802     -7.0698026      3.6249566      50218.233      36.893836      36.893836      36.893836    
 421000000   0.49920317    -7.8196537     -7.0708596      3.6237606      50218.233      36.893836      36.893836      36.893836    
 422000000   0.49972528    -7.8198355     -7.0702582      3.6305887      50218.233      36.893836      36.893836      36.893836    
 423000000   0.50122256    -7.8187227     -7.0668995      3.6300256      50218.233      36.893836      36.893836      36.893836    
 424000000   0.50028635    -7.8214472     -7.0710284      3.6062176      50218.233      36.893836      36.893836      36.893836    
 425000000   0.50028237    -7.8188499     -7.068437       3.6358106      50218.233      36.893836      36.893836      36.893836    
 426000000   0.49906951    -7.8236416     -7.075048       3.5917332      50218.233      36.893836      36.893836      36.893836    
 427000000   0.49884694    -7.8164999     -7.0682402      3.644014       50218.233      36.893836      36.893836      36.893836    
 428000000   0.49966467    -7.815174      -7.0656877      3.6619618      50218.233      36.893836      36.893836      36.893836    
 429000000   0.50145616    -7.8159981     -7.0638246      3.6488599      50218.233      36.893836      36.893836      36.893836    
 430000000   0.50033822    -7.8163912     -7.0658946      3.6322754      50218.233      36.893836      36.893836      36.893836    
 431000000   0.50069439    -7.822232      -7.0712011      3.5998978      50218.233      36.893836      36.893836      36.893836    
 432000000   0.49907162    -7.8154309     -7.0668341      3.6465644      50218.233      36.893836      36.893836      36.893836    
 433000000   0.50057406    -7.8128451     -7.0619947      3.6682695      50218.233      36.893836      36.893836      36.893836    
 434000000   0.50301548    -7.8183836     -7.0638711      3.6359378      50218.233      36.893836      36.893836      36.893836    
 435000000   0.49961821    -7.8187634     -7.0693467      3.6154493      50218.233      36.893836      36.893836      36.893836    
 436000000   0.49897665    -7.8204288     -7.0719745      3.6038361      50218.233      36.893836      36.893836      36.893836    
 437000000   0.50057857    -7.8198093     -7.0689521      3.6195563      50218.233      36.893836      36.893836      36.893836    
 438000000   0.4972992     -7.8153434     -7.0694052      3.6488768      50218.233      36.893836      36.893836      36.893836    
 439000000   0.49994199    -7.8188094     -7.0689071      3.6102963      50218.233      36.893836      36.893836      36.893836    
 440000000   0.50055556    -7.8201928     -7.0693701      3.6179519      50218.233      36.893836      36.893836      36.893836    
 441000000   0.4991122     -7.8179735     -7.0693158      3.6174453      50218.233      36.893836      36.893836      36.893836    
 442000000   0.49940491    -7.8157504     -7.0666537      3.648944       50218.233      36.893836      36.893836      36.893836    
 443000000   0.50249148    -7.8215173     -7.0677908      3.6173914      50218.233      36.893836      36.893836      36.893836    
 444000000   0.49950623    -7.8208121     -7.0715634      3.6112302      50218.233      36.893836      36.893836      36.893836    
 445000000   0.49876785    -7.8170428     -7.0689016      3.6326423      50218.233      36.893836      36.893836      36.893836    
 446000000   0.49719112    -7.8187295     -7.0729535      3.6200934      50218.233      36.893836      36.893836      36.893836    
 447000000   0.49793362    -7.8158704     -7.0689806      3.6480607      50218.233      36.893836      36.893836      36.893836    
 448000000   0.50009901    -7.8152979     -7.0651601      3.6561061      50218.233      36.893836      36.893836      36.893836    
 449000000   0.49999453    -7.8173419     -7.0673607      3.6358514      50218.233      36.893836      36.893836      36.893836    
 450000000   0.49966109    -7.8147142     -7.0652332      3.6522229      50218.233      36.893836      36.893836      36.893836    
 451000000   0.50043423    -7.8127875     -7.0621468      3.6694618      50218.233      36.893836      36.893836      36.893836    
 452000000   0.49908212    -7.8169079     -7.0682954      3.6361587      50218.233      36.893836      36.893836      36.893836    
 453000000   0.49809511    -7.8195909     -7.0724588      3.6269112      50218.233      36.893836      36.893836      36.893836    
 454000000   0.49794797    -7.8203074     -7.0733961      3.6155533      50218.233      36.893836      36.893836      36.893836    
 455000000   0.49792252    -7.8183831     -7.0715099      3.6242063      50218.233      36.893836      36.893836      36.893836    
 456000000   0.49966214    -7.8204639     -7.0709814      3.6065375      50218.233      36.893836      36.893836      36.893836    
 457000000   0.50344862    -7.8211473     -7.0659851      3.6014804      50218.233      36.893836      36.893836      36.893836    
 458000000   0.49941843    -7.8225688     -7.0734518      3.5947065      50218.233      36.893836      36.893836      36.893836    
 459000000   0.50020343    -7.8295336     -7.0792391      3.5557635      50218.233      36.893836      36.893836      36.893836    
 460000000   0.49754592    -7.8256053     -7.0792971      3.5710767      50218.233      36.893836      36.893836      36.893836    
 461000000   0.5006611     -7.8158684     -7.0648874      3.6475152      50218.233      36.893836      36.893836      36.893836    
 462000000   0.50033723    -7.8223832     -7.071888       3.6158393      50218.233      36.893836      36.893836      36.893836    
 463000000   0.49877888    -7.8142278     -7.0660702      3.6546282      50218.233      36.893836      36.893836      36.893836    
 464000000   0.49707615    -7.8210848     -7.0754812      3.6124127      50218.233      36.893836      36.893836      36.893836    
 465000000   0.50130888    -7.8211145     -7.0691619      3.6045751      50218.233      36.893836      36.893836      36.893836    
 466000000   0.49927027    -7.8163605     -7.0674657      3.6533734      50218.233      36.893836      36.893836      36.893836    
 467000000   0.50150259    -7.8158354     -7.0635922      3.64791        50218.233      36.893836      36.893836      36.893836    
 468000000   0.50003221    -7.8156922     -7.0656546      3.647067       50218.233      36.893836      36.893836      36.893836    
 469000000   0.49890961    -7.8200685     -7.0717147      3.6134106      50218.233      36.893836      36.893836      36.893836    
 470000000   0.50146058    -7.8204363     -7.0682562      3.6233438      50218.233      36.893836      36.893836      36.893836    
 471000000   0.49819157    -7.8149744     -7.0676976      3.6540332      50218.233      36.893836      36.893836      36.893836    
 472000000   0.50205786    -7.8163494     -7.0632733      3.6463711      50218.233      36.893836      36.893836      36.893836    
 473000000   0.49956164    -7.8170383     -7.0677065      3.6488579      50218.233      36.893836      36.893836      36.893836    
 474000000   0.49659139    -7.8168292     -7.0719527      3.6280847      50218.233      36.893836      36.893836      36.893836    
 475000000   0.50249291    -7.8168035     -7.0630749      3.6486372      50218.233      36.893836      36.893836      36.893836    
 476000000   0.49913611    -7.8162521     -7.0675586      3.6358447      50218.233      36.893836      36.893836      36.893836    
 477000000   0.49855586    -7.8205593     -7.0727362      3.6019275      50218.233      36.893836      36.893836      36.893836    
 478000000   0.49911082    -7.8180206     -7.069365       3.6299793      50218.233      36.893836      36.893836      36.893836    
 479000000   0.49857184    -7.8240515     -7.0762044      3.5824228      50218.233      36.893836      36.893836      36.893836    
 480000000   0.49908469    -7.81807       -7.0694536      3.6306627      50218.233      36.893836      36.893836      36.893836    
 481000000   0.50170365    -7.8194192     -7.0668745      3.6339315      50218.233      36.893836      36.893836      36.893836    
 482000000   0.49983566    -7.8197218     -7.069979       3.6177003      50218.233      36.893836      36.893836      36.893836    
 483000000   0.49915961    -7.8199386     -7.0712099      3.6201768      50218.233      36.893836      36.893836      36.893836    
 484000000   0.50015076    -7.8179082     -7.0676927      3.6321772      50218.233      36.893836      36.893836      36.893836    
 485000000   0.4993711     -7.8159007     -7.0668547      3.6453506      50218.233      36.893836      36.893836      36.893836    
 486000000   0.50054764    -7.8201291     -7.0693184      3.6243739      50218.233      36.893836      36.893836      36.893836    
 487000000   0.49930167    -7.8166742     -7.0677323      3.6499735      50218.233      36.893836      36.893836      36.893836    
 488000000   0.49959086    -7.8158188     -7.0664431      3.6526423      50218.233      36.893836      36.893836      36.893836    
 489000000   0.50030025    -7.816814      -7.0663743      3.6357265      50218.233      36.893836      36.893836      36.893836    
 490000000   0.5011126     -7.818957      -7.0672988      3.6345989      50218.233      36.893836      36.893836      36.893836    
 491000000   0.50038181    -7.8198522     -7.0692901      3.6318315      50218.233      36.893836      36.893836      36.893836    
 492000000   0.49872677    -7.818193      -7.0701135      3.6415561      50218.233      36.893836      36.893836      36.893836    
 493000000   0.49912191    -7.8208471     -7.0721749      3.6112369      50218.233      36.893836      36.893836      36.893836    
 494000000   0.50061611    -7.8176279     -7.0667144      3.6432532      50218.233      36.893836      36.893836      36.893836    
 495000000   0.50188321    -7.8208816     -7.0680675      3.6093487      50218.233      36.893836      36.893836      36.893836    
 496000000   0.49937711    -7.822084      -7.073029       3.6084391      50218.233      36.893836      36.893836      36.893836    
 497000000   0.49943311    -7.8225175     -7.0733785      3.5957898      50218.233      36.893836      36.893836      36.893836    
 498000000   0.49925013    -7.8177012     -7.0688366      3.630547       50218.233      36.893836      36.893836      36.893836    
 499000000   0.49810444    -7.8176296     -7.0704836      3.6300642      50218.233      36.893836      36.893836      36.893836    
 500000000   0.50138077    -7.8133434     -7.061283       3.6775203      50218.233      36.893836      36.893836      36.893836    
Loop time of 788392 on 5 procs for 500000000 steps with 70304 atoms

Performance: 547950.724 tau/day, 634.202 timesteps/s, 44.587 Matom-step/s
94.8% CPU use with 5 MPI tasks x 1 OpenMP threads

MPI task timing breakdown:
Section |  min time  |  avg time  |  max time  |%varavg| %total
---------------------------------------------------------------
Pair    | 2.8804e+05 | 3.1324e+05 | 3.3714e+05 |2925.1 | 39.73
Neigh   | 2562.6     | 2641.1     | 2725.9     | 134.3 |  0.33
Comm    | 1.1711e+05 | 1.1758e+05 | 1.1836e+05 | 151.4 | 14.91
Output  | 0.090755   | 0.094313   | 0.09987    |   1.0 |  0.00
Modify  | 2.9087e+05 | 3.1545e+05 | 3.3963e+05 |2909.1 | 40.01
Other   |            | 3.948e+04  |            |       |  5.01

Nlocal:        14060.8 ave       14089 max       14044 min
Histogram: 2 1 0 0 0 0 1 0 0 1
Nghost:        18750.2 ave       18785 max       18707 min
Histogram: 1 0 1 0 0 0 1 0 1 1
Neighs:              0 ave           0 max           0 min
Histogram: 5 0 0 0 0 0 0 0 0 0

Total # of neighbors = 0
Ave neighs/atom = 0
Neighbor list builds = 102328275
Dangerous builds = 0
clear
OMP_NUM_THREADS environment is not set. Defaulting to 1 thread. (src/comm.cpp:98)
  using 1 OpenMP thread(s) per MPI task
package gpu 0
jump dms480.lmp

variable T equal 480
# T = 1000* (temp in LJ unit)
variable f equal 1000000
log log.${T}
log log.480
