variable TLJ equal (${T}/1000)
variable TLJ equal (420/1000)
variable NCyle equal 5
variable iStep equal (${f})
variable iStep equal (1000000)
variable dumpStep equal (${f}*100)
variable dumpStep equal (1000000*100)
variable runStep equal (${f}*100*${NCyle})
variable runStep equal (1000000*100*${NCyle})
variable runStep equal (1000000*100*5)

units       lj
atom_style  atomic
dimension 3
boundary     p p p
pair_style  lj/cut 2.5
read_data  ../data/T${T}.dat
read_data  ../data/T420.dat
Reading data file ...
  orthogonal box = (0.97250269 0.97250269 0.97250269) to (37.866338 37.866338 37.866338)
  1 by 1 by 5 MPI processor grid
  reading atoms ...
  70304 atoms
  reading velocities ...
  70304 velocities
  read_data CPU = 0.209 seconds
change_box all triclinic
Changing box ...
  triclinic box = (0.97250269 0.97250269 0.97250269) to (37.866338 37.866338 37.866338) with tilt (0 0 0)
mass 1 1
mass 2 1
pair_modify shift yes
pair_coeff  1 1 1 1
pair_coeff  1 2 1.5 0.8
pair_coeff  2 2 0.5 0.88


timestep 0.01
thermo ${iStep}
thermo 1000000
reset_timestep 0
thermo_style custom step temp pe etotal press vol lx ly lz
fix             1 all nvt temp ${TLJ}  ${TLJ}  0.1
fix             1 all nvt temp 0.42  ${TLJ}  0.1
fix             1 all nvt temp 0.42  0.42  0.1
thermo_modify flush yes

fix dsf all deform 1 xy  wiggle 0.5  ${f}   units box
fix dsf all deform 1 xy  wiggle 0.5  1000000   units box
fix ps1 all ave/time 1 1 ${iStep} c_thermo_press[1] c_thermo_press[2]  c_thermo_press[3] c_thermo_press[4]  c_thermo_press[5] c_thermo_press[6]  file  stress.${T}
fix ps1 all ave/time 1 1 1000000 c_thermo_press[1] c_thermo_press[2]  c_thermo_press[3] c_thermo_press[4]  c_thermo_press[5] c_thermo_press[6]  file  stress.${T}
fix ps1 all ave/time 1 1 1000000 c_thermo_press[1] c_thermo_press[2]  c_thermo_press[3] c_thermo_press[4]  c_thermo_press[5] c_thermo_press[6]  file  stress.420
dump            1 all custom ${dumpStep} dump.${T} id type x y z
dump            1 all custom 100000000 dump.${T} id type x y z
dump            1 all custom 100000000 dump.420 id type x y z
dump_modify 1 sort id
fix nodrift all momentum 1  linear 1 1 1
fix com_seed all recenter INIT INIT INIT shift all
run ${runStep}
run 500000000
Generated 0 of 1 mixed pair_coeff terms from geometric mixing rule
Per MPI rank memory allocation (min/avg/max) = 6.663 | 7.565 | 8.918 Mbytes
   Step          Temp          PotEng         TotEng         Press          Volume           Lx             Ly             Lz      
         0   0.42008684    -7.965561      -7.3354397      2.4268343      50218.233      36.893836      36.893836      36.893836    
   1000000   0.42231239    -7.958421      -7.3249614      2.4892505      50218.233      36.893836      36.893836      36.893836    
   2000000   0.42001817    -7.9547048     -7.3246865      2.5103898      50218.233      36.893836      36.893836      36.893836    
   3000000   0.42064427    -7.9608571     -7.3298997      2.4703793      50218.233      36.893836      36.893836      36.893836    
   4000000   0.42027983    -7.9600195     -7.3296087      2.4718372      50218.233      36.893836      36.893836      36.893836    
   5000000   0.42134737    -7.9594025     -7.3273904      2.4778376      50218.233      36.893836      36.893836      36.893836    
   6000000   0.42092421    -7.9622259     -7.3308486      2.4517471      50218.233      36.893836      36.893836      36.893836    
   7000000   0.42030003    -7.962156      -7.3317149      2.452          50218.233      36.893836      36.893836      36.893836    
   8000000   0.42095059    -7.9561823     -7.3247654      2.4972803      50218.233      36.893836      36.893836      36.893836    
   9000000   0.41804187    -7.9586342     -7.3315803      2.4844964      50218.233      36.893836      36.893836      36.893836    
  10000000   0.42091554    -7.9591294     -7.3277651      2.4764164      50218.233      36.893836      36.893836      36.893836    
  11000000   0.42084551    -7.9581833     -7.326924       2.4890399      50218.233      36.893836      36.893836      36.893836    
  12000000   0.42105185    -7.956919      -7.3253502      2.4956034      50218.233      36.893836      36.893836      36.893836    
  13000000   0.41969673    -7.9609044     -7.3313682      2.4589031      50218.233      36.893836      36.893836      36.893836    
  14000000   0.42536133    -7.9609446     -7.3229116      2.4641129      50218.233      36.893836      36.893836      36.893836    
  15000000   0.42078418    -7.9624042     -7.3312369      2.4578538      50218.233      36.893836      36.893836      36.893836    
  16000000   0.41940785    -7.9615301     -7.3324272      2.4565066      50218.233      36.893836      36.893836      36.893836    
  17000000   0.41873994    -7.9628368     -7.3347359      2.4542814      50218.233      36.893836      36.893836      36.893836    
  18000000   0.41982623    -7.9604737     -7.3307433      2.4736088      50218.233      36.893836      36.893836      36.893836    
  19000000   0.4193048     -7.960196      -7.3312477      2.4805362      50218.233      36.893836      36.893836      36.893836    
  20000000   0.41994619    -7.9582261     -7.3283158      2.4880707      50218.233      36.893836      36.893836      36.893836    
  21000000   0.42145164    -7.9602531     -7.3280846      2.4726831      50218.233      36.893836      36.893836      36.893836    
  22000000   0.41946546    -7.9630835     -7.3338943      2.4507286      50218.233      36.893836      36.893836      36.893836    
  23000000   0.41820836    -7.9586306     -7.331327       2.4862513      50218.233      36.893836      36.893836      36.893836    
  24000000   0.4195637     -7.9615356     -7.332199       2.4670293      50218.233      36.893836      36.893836      36.893836    
  25000000   0.41778715    -7.9604352     -7.3337634      2.4657149      50218.233      36.893836      36.893836      36.893836    
  26000000   0.42178167    -7.959193      -7.3265295      2.4740179      50218.233      36.893836      36.893836      36.893836    
  27000000   0.41825179    -7.961911      -7.3345422      2.4518297      50218.233      36.893836      36.893836      36.893836    
  28000000   0.41997337    -7.962289      -7.3323379      2.4513053      50218.233      36.893836      36.893836      36.893836    
  29000000   0.41829391    -7.9596313     -7.3321994      2.4628464      50218.233      36.893836      36.893836      36.893836    
  30000000   0.41873916    -7.9594031     -7.3313033      2.4646215      50218.233      36.893836      36.893836      36.893836    
  31000000   0.41950702    -7.9606653     -7.3314138      2.4620582      50218.233      36.893836      36.893836      36.893836    
  32000000   0.41968255    -7.9595006     -7.3299857      2.4650447      50218.233      36.893836      36.893836      36.893836    
  33000000   0.42405836    -7.9582512     -7.3221727      2.486037       50218.233      36.893836      36.893836      36.893836    
  34000000   0.42086564    -7.9606169     -7.3293275      2.4648393      50218.233      36.893836      36.893836      36.893836    
  35000000   0.42140026    -7.9595875     -7.3274961      2.4701599      50218.233      36.893836      36.893836      36.893836    
  36000000   0.41904015    -7.9642315     -7.3356802      2.4391948      50218.233      36.893836      36.893836      36.893836    
  37000000   0.42144572    -7.9627391     -7.3305795      2.4533599      50218.233      36.893836      36.893836      36.893836    
  38000000   0.41747242    -7.9647602     -7.3385605      2.4393659      50218.233      36.893836      36.893836      36.893836    
  39000000   0.42115452    -7.9635435     -7.3318207      2.4469458      50218.233      36.893836      36.893836      36.893836    
  40000000   0.4219981     -7.9673061     -7.334318       2.413058       50218.233      36.893836      36.893836      36.893836    
  41000000   0.41750988    -7.9600052     -7.3337493      2.4598414      50218.233      36.893836      36.893836      36.893836    
  42000000   0.42003       -7.961391      -7.331355       2.4576862      50218.233      36.893836      36.893836      36.893836    
  43000000   0.42087959    -7.963485      -7.3321746      2.4459015      50218.233      36.893836      36.893836      36.893836    
  44000000   0.42089345    -7.9653426     -7.3340114      2.4465329      50218.233      36.893836      36.893836      36.893836    
  45000000   0.421047      -7.9647474     -7.3331859      2.4229863      50218.233      36.893836      36.893836      36.893836    
  46000000   0.41952572    -7.9629888     -7.3337092      2.4369185      50218.233      36.893836      36.893836      36.893836    
  47000000   0.41984442    -7.961815      -7.3320573      2.4454905      50218.233      36.893836      36.893836      36.893836    
  48000000   0.42107274    -7.9666032     -7.3350031      2.4214003      50218.233      36.893836      36.893836      36.893836    
  49000000   0.41848337    -7.9673151     -7.339599       2.4035183      50218.233      36.893836      36.893836      36.893836    
  50000000   0.41955016    -7.9630205     -7.3337042      2.442295       50218.233      36.893836      36.893836      36.893836    
  51000000   0.41865258    -7.9644595     -7.3364896      2.4348292      50218.233      36.893836      36.893836      36.893836    
  52000000   0.42122455    -7.9640021     -7.3321743      2.4370431      50218.233      36.893836      36.893836      36.893836    
  53000000   0.4214911     -7.9650584     -7.3328307      2.4314177      50218.233      36.893836      36.893836      36.893836    
  54000000   0.42162223    -7.9625549     -7.3301306      2.4563339      50218.233      36.893836      36.893836      36.893836    
  55000000   0.4198753     -7.9600361     -7.3302321      2.4699863      50218.233      36.893836      36.893836      36.893836    
  56000000   0.420971      -7.9618834     -7.3304359      2.4573356      50218.233      36.893836      36.893836      36.893836    
  57000000   0.41994203    -7.9633053     -7.3334013      2.4527999      50218.233      36.893836      36.893836      36.893836    
  58000000   0.41968348    -7.9661471     -7.3366309      2.4314407      50218.233      36.893836      36.893836      36.893836    
  59000000   0.41892537    -7.9586543     -7.3302752      2.477561       50218.233      36.893836      36.893836      36.893836    
  60000000   0.42144578    -7.9650681     -7.3329085      2.4332249      50218.233      36.893836      36.893836      36.893836    
  61000000   0.41998484    -7.9640251     -7.3340568      2.4452963      50218.233      36.893836      36.893836      36.893836    
  62000000   0.42017287    -7.9615757     -7.3313253      2.4654134      50218.233      36.893836      36.893836      36.893836    
  63000000   0.41827301    -7.9614703     -7.3340697      2.4571394      50218.233      36.893836      36.893836      36.893836    
  64000000   0.41927565    -7.9629748     -7.3340703      2.4454422      50218.233      36.893836      36.893836      36.893836    
  65000000   0.4212336     -7.9619338     -7.3300924      2.4565378      50218.233      36.893836      36.893836      36.893836    
  66000000   0.42204673    -7.9620847     -7.3290236      2.4485586      50218.233      36.893836      36.893836      36.893836    
  67000000   0.42091523    -7.9648575     -7.3334937      2.432131       50218.233      36.893836      36.893836      36.893836    
  68000000   0.42077713    -7.9627819     -7.3316251      2.4565637      50218.233      36.893836      36.893836      36.893836    
  69000000   0.42045562    -7.964818      -7.3341435      2.4286923      50218.233      36.893836      36.893836      36.893836    
  70000000   0.41897925    -7.9619476     -7.3334876      2.4594581      50218.233      36.893836      36.893836      36.893836    
  71000000   0.42033312    -7.9593301     -7.3288394      2.46444        50218.233      36.893836      36.893836      36.893836    
  72000000   0.42009373    -7.9650366     -7.334905       2.4341037      50218.233      36.893836      36.893836      36.893836    
  73000000   0.42121435    -7.962751      -7.3309385      2.4565441      50218.233      36.893836      36.893836      36.893836    
  74000000   0.42160362    -7.9610026     -7.3286061      2.4718772      50218.233      36.893836      36.893836      36.893836    
  75000000   0.42105519    -7.9637801     -7.3322063      2.4339976      50218.233      36.893836      36.893836      36.893836    
  76000000   0.41990099    -7.9599971     -7.3301546      2.4663356      50218.233      36.893836      36.893836      36.893836    
  77000000   0.41973261    -7.961948      -7.332358       2.4537665      50218.233      36.893836      36.893836      36.893836    
  78000000   0.42124911    -7.9666002     -7.3347355      2.4270472      50218.233      36.893836      36.893836      36.893836    
  79000000   0.42324991    -7.9617797     -7.3269139      2.4557427      50218.233      36.893836      36.893836      36.893836    
  80000000   0.4218628     -7.9608201     -7.3280349      2.4621627      50218.233      36.893836      36.893836      36.893836    
  81000000   0.42004036    -7.958958      -7.3289064      2.4722687      50218.233      36.893836      36.893836      36.893836    
  82000000   0.41729658    -7.9624469     -7.3365109      2.4483764      50218.233      36.893836      36.893836      36.893836    
  83000000   0.41867036    -7.9631466     -7.33515        2.4400664      50218.233      36.893836      36.893836      36.893836    
  84000000   0.42075618    -7.9590014     -7.3278761      2.4798521      50218.233      36.893836      36.893836      36.893836    
  85000000   0.42142529    -7.9596588     -7.3275298      2.4645019      50218.233      36.893836      36.893836      36.893836    
  86000000   0.4195079     -7.9594052     -7.3301523      2.4762428      50218.233      36.893836      36.893836      36.893836    
  87000000   0.42069395    -7.9610049     -7.329973       2.4616438      50218.233      36.893836      36.893836      36.893836    
  88000000   0.41943179    -7.964116      -7.3349772      2.43781        50218.233      36.893836      36.893836      36.893836    
  89000000   0.41827635    -7.9641526     -7.336747       2.43469        50218.233      36.893836      36.893836      36.893836    
  90000000   0.42267219    -7.9600616     -7.3260624      2.4799331      50218.233      36.893836      36.893836      36.893836    
  91000000   0.41973007    -7.9616245     -7.3320383      2.4564541      50218.233      36.893836      36.893836      36.893836    
  92000000   0.4199057     -7.963628      -7.3337784      2.4523448      50218.233      36.893836      36.893836      36.893836    
  93000000   0.41957223    -7.9597509     -7.3304015      2.4564475      50218.233      36.893836      36.893836      36.893836    
  94000000   0.42131132    -7.9654697     -7.3335117      2.4259566      50218.233      36.893836      36.893836      36.893836    
  95000000   0.4180927     -7.9625912     -7.3354611      2.451928       50218.233      36.893836      36.893836      36.893836    
  96000000   0.4201079     -7.9637465     -7.3335936      2.441519       50218.233      36.893836      36.893836      36.893836    
  97000000   0.42243014    -7.9624973     -7.3288611      2.4646513      50218.233      36.893836      36.893836      36.893836    
  98000000   0.4188156     -7.9649687     -7.3367542      2.4438647      50218.233      36.893836      36.893836      36.893836    
  99000000   0.41871498    -7.9649651     -7.3369015      2.4374445      50218.233      36.893836      36.893836      36.893836    
 100000000   0.42050282    -7.9647298     -7.3339845      2.4365129      50218.233      36.893836      36.893836      36.893836    
 101000000   0.42170417    -7.9661391     -7.3335919      2.4304976      50218.233      36.893836      36.893836      36.893836    
 102000000   0.42052393    -7.9612884     -7.3305115      2.4639989      50218.233      36.893836      36.893836      36.893836    
 103000000   0.41830592    -7.9638431     -7.3363932      2.4422824      50218.233      36.893836      36.893836      36.893836    
 104000000   0.41922691    -7.9616758     -7.3328444      2.4594454      50218.233      36.893836      36.893836      36.893836    
 105000000   0.42209516    -7.9632859     -7.3301522      2.4482384      50218.233      36.893836      36.893836      36.893836    
 106000000   0.42013662    -7.9640476     -7.3338517      2.4384752      50218.233      36.893836      36.893836      36.893836    
 107000000   0.42123137    -7.960331      -7.328493       2.4617366      50218.233      36.893836      36.893836      36.893836    
 108000000   0.42167096    -7.9633395     -7.330842       2.4414409      50218.233      36.893836      36.893836      36.893836    
 109000000   0.42058685    -7.9637216     -7.3328503      2.4456642      50218.233      36.893836      36.893836      36.893836    
 110000000   0.41796118    -7.9620313     -7.3350985      2.4566159      50218.233      36.893836      36.893836      36.893836    
 111000000   0.4197226     -7.9656985     -7.3361236      2.4263115      50218.233      36.893836      36.893836      36.893836    
 112000000   0.41847695    -7.9614401     -7.3337336      2.4611083      50218.233      36.893836      36.893836      36.893836    
 113000000   0.41935586    -7.9639532     -7.3349284      2.4386546      50218.233      36.893836      36.893836      36.893836    
 114000000   0.42083038    -7.9634354     -7.3321988      2.4481902      50218.233      36.893836      36.893836      36.893836    
 115000000   0.42026241    -7.9642705     -7.3338859      2.4347017      50218.233      36.893836      36.893836      36.893836    
 116000000   0.41721619    -7.9616143     -7.3357989      2.450845       50218.233      36.893836      36.893836      36.893836    
 117000000   0.42276       -7.9633046     -7.3291736      2.4464624      50218.233      36.893836      36.893836      36.893836    
 118000000   0.41996011    -7.959903      -7.3299718      2.4728966      50218.233      36.893836      36.893836      36.893836    
 119000000   0.41913238    -7.9638253     -7.3351357      2.4376374      50218.233      36.893836      36.893836      36.893836    
 120000000   0.42062587    -7.9657545     -7.3348246      2.427574       50218.233      36.893836      36.893836      36.893836    
 121000000   0.4210718     -7.9637617     -7.332163       2.4366698      50218.233      36.893836      36.893836      36.893836    
 122000000   0.41957875    -7.9653917     -7.3360325      2.4237443      50218.233      36.893836      36.893836      36.893836    
 123000000   0.4193008     -7.9601481     -7.3312059      2.4697542      50218.233      36.893836      36.893836      36.893836    
 124000000   0.41844989    -7.9636608     -7.3359949      2.4460824      50218.233      36.893836      36.893836      36.893836    
 125000000   0.42085146    -7.9671304     -7.3358621      2.4195743      50218.233      36.893836      36.893836      36.893836    
 126000000   0.42104514    -7.9697267     -7.3381679      2.3960835      50218.233      36.893836      36.893836      36.893836    
 127000000   0.42198847    -7.9621021     -7.3291284      2.4533179      50218.233      36.893836      36.893836      36.893836    
 128000000   0.41852488    -7.9643319     -7.3365535      2.4368451      50218.233      36.893836      36.893836      36.893836    
 129000000   0.41848167    -7.9639453     -7.3362317      2.4451857      50218.233      36.893836      36.893836      36.893836    
 130000000   0.41992712    -7.9635201     -7.3336383      2.4509006      50218.233      36.893836      36.893836      36.893836    
 131000000   0.42312527    -7.9629473     -7.3282684      2.4462221      50218.233      36.893836      36.893836      36.893836    
 132000000   0.4220769     -7.965533      -7.3324267      2.4295093      50218.233      36.893836      36.893836      36.893836    
 133000000   0.41967383    -7.9622193     -7.3327175      2.4493767      50218.233      36.893836      36.893836      36.893836    
 134000000   0.42012924    -7.9608675     -7.3306826      2.4674555      50218.233      36.893836      36.893836      36.893836    
 135000000   0.42143963    -7.9650674     -7.332917       2.4317303      50218.233      36.893836      36.893836      36.893836    
 136000000   0.41931815    -7.9638428     -7.3348745      2.4364594      50218.233      36.893836      36.893836      36.893836    
 137000000   0.41932669    -7.9624857     -7.3335046      2.4581364      50218.233      36.893836      36.893836      36.893836    
 138000000   0.42004433    -7.9645197     -7.3344622      2.4417949      50218.233      36.893836      36.893836      36.893836    
 139000000   0.42201778    -7.962578      -7.3295603      2.4507381      50218.233      36.893836      36.893836      36.893836    
 140000000   0.41894671    -7.9634442     -7.335033       2.4385211      50218.233      36.893836      36.893836      36.893836    
 141000000   0.42253501    -7.9613936     -7.3276001      2.4637877      50218.233      36.893836      36.893836      36.893836    
 142000000   0.42157803    -7.9643912     -7.3320331      2.4404942      50218.233      36.893836      36.893836      36.893836    
 143000000   0.41912716    -7.9676327     -7.3389509      2.4055837      50218.233      36.893836      36.893836      36.893836    
 144000000   0.42213543    -7.9670395     -7.3338454      2.4249765      50218.233      36.893836      36.893836      36.893836    
 145000000   0.42050482    -7.9626563     -7.331908       2.4418968      50218.233      36.893836      36.893836      36.893836    
 146000000   0.42027278    -7.9651295     -7.3347293      2.4232372      50218.233      36.893836      36.893836      36.893836    
 147000000   0.42132572    -7.9645808     -7.3326012      2.4312841      50218.233      36.893836      36.893836      36.893836    
 148000000   0.41982225    -7.964846      -7.3351215      2.4333179      50218.233      36.893836      36.893836      36.893836    
 149000000   0.42164538    -7.9673724     -7.3349133      2.422879       50218.233      36.893836      36.893836      36.893836    
 150000000   0.42032529    -7.967435      -7.3369561      2.4038947      50218.233      36.893836      36.893836      36.893836    
 151000000   0.42230207    -7.9665692     -7.3331251      2.4128502      50218.233      36.893836      36.893836      36.893836    
 152000000   0.42082285    -7.9680971     -7.3368718      2.4080363      50218.233      36.893836      36.893836      36.893836    
 153000000   0.42128805    -7.965932      -7.334009       2.4204393      50218.233      36.893836      36.893836      36.893836    
 154000000   0.42027071    -7.9648401     -7.334443       2.4193571      50218.233      36.893836      36.893836      36.893836    
 155000000   0.41823904    -7.9674228     -7.3400732      2.4139068      50218.233      36.893836      36.893836      36.893836    
 156000000   0.4199767     -7.9659047     -7.3359486      2.4121496      50218.233      36.893836      36.893836      36.893836    
 157000000   0.42133718    -7.9640742     -7.3320775      2.4397477      50218.233      36.893836      36.893836      36.893836    
 158000000   0.42141477    -7.9659925     -7.3338793      2.4250649      50218.233      36.893836      36.893836      36.893836    
 159000000   0.42064101    -7.9633333     -7.3323808      2.4497895      50218.233      36.893836      36.893836      36.893836    
 160000000   0.41854765    -7.9677624     -7.3399499      2.4091642      50218.233      36.893836      36.893836      36.893836    
 161000000   0.42088854    -7.9646634     -7.3333395      2.4338547      50218.233      36.893836      36.893836      36.893836    
 162000000   0.41847348    -7.9640579     -7.3363566      2.4301401      50218.233      36.893836      36.893836      36.893836    
 163000000   0.42147316    -7.9634054     -7.3312047      2.4416147      50218.233      36.893836      36.893836      36.893836    
 164000000   0.42131325    -7.9662101     -7.3342492      2.4244304      50218.233      36.893836      36.893836      36.893836    
 165000000   0.42089403    -7.9647615     -7.3334295      2.4307627      50218.233      36.893836      36.893836      36.893836    
 166000000   0.41980721    -7.9605248     -7.330823       2.4656556      50218.233      36.893836      36.893836      36.893836    
 167000000   0.41944258    -7.9650363     -7.3358814      2.4384134      50218.233      36.893836      36.893836      36.893836    
 168000000   0.41838162    -7.9646833     -7.3371197      2.4222243      50218.233      36.893836      36.893836      36.893836    
 169000000   0.41919428    -7.9637509     -7.3349684      2.4359757      50218.233      36.893836      36.893836      36.893836    
 170000000   0.41889963    -7.9631227     -7.3347822      2.4436812      50218.233      36.893836      36.893836      36.893836    
 171000000   0.41956283    -7.9641818     -7.3348465      2.436221       50218.233      36.893836      36.893836      36.893836    
 172000000   0.41957995    -7.9671409     -7.3377799      2.4124934      50218.233      36.893836      36.893836      36.893836    
 173000000   0.41921376    -7.9659993     -7.3371876      2.4281408      50218.233      36.893836      36.893836      36.893836    
 174000000   0.41956492    -7.9649047     -7.3355662      2.4246034      50218.233      36.893836      36.893836      36.893836    
 175000000   0.41941504    -7.9669092     -7.3377956      2.416176       50218.233      36.893836      36.893836      36.893836    
 176000000   0.41829866    -7.9680616     -7.3406225      2.4085561      50218.233      36.893836      36.893836      36.893836    
 177000000   0.42126782    -7.9659642     -7.3340715      2.4272037      50218.233      36.893836      36.893836      36.893836    
 178000000   0.41705719    -7.9649871     -7.3394102      2.4204925      50218.233      36.893836      36.893836      36.893836    
 179000000   0.41971304    -7.9673752     -7.3378146      2.4140813      50218.233      36.893836      36.893836      36.893836    
 180000000   0.41864933    -7.9664408     -7.3384758      2.4178462      50218.233      36.893836      36.893836      36.893836    
 181000000   0.41982638    -7.9663102     -7.3365795      2.4224305      50218.233      36.893836      36.893836      36.893836    
 182000000   0.42083805    -7.9648191     -7.333571       2.4368569      50218.233      36.893836      36.893836      36.893836    
 183000000   0.42087091    -7.9713631     -7.3400658      2.3882864      50218.233      36.893836      36.893836      36.893836    
 184000000   0.41964029    -7.969367      -7.3399155      2.4022119      50218.233      36.893836      36.893836      36.893836    
 185000000   0.42192381    -7.964319      -7.3314423      2.4347693      50218.233      36.893836      36.893836      36.893836    
 186000000   0.42083778    -7.9670828     -7.3358351      2.4166619      50218.233      36.893836      36.893836      36.893836    
 187000000   0.41924952    -7.9668008     -7.3379354      2.4116696      50218.233      36.893836      36.893836      36.893836    
 188000000   0.41807477    -7.9677679     -7.3406647      2.4032508      50218.233      36.893836      36.893836      36.893836    
 189000000   0.41982465    -7.9684874     -7.3387594      2.4058352      50218.233      36.893836      36.893836      36.893836    
 190000000   0.41843873    -7.9662839     -7.3386347      2.4297984      50218.233      36.893836      36.893836      36.893836    
 191000000   0.41865823    -7.9659452     -7.3379668      2.4254533      50218.233      36.893836      36.893836      36.893836    
 192000000   0.41989744    -7.9679443     -7.3381071      2.4006727      50218.233      36.893836      36.893836      36.893836    
 193000000   0.41936139    -7.9671634     -7.3381303      2.4144227      50218.233      36.893836      36.893836      36.893836    
 194000000   0.42131651    -7.9680048     -7.336039       2.4072349      50218.233      36.893836      36.893836      36.893836    
 195000000   0.42047005    -7.9681688     -7.3374727      2.4134417      50218.233      36.893836      36.893836      36.893836    
 196000000   0.41875062    -7.9660319     -7.3379149      2.4159949      50218.233      36.893836      36.893836      36.893836    
 197000000   0.42113843    -7.9655273     -7.3338286      2.4275237      50218.233      36.893836      36.893836      36.893836    
 198000000   0.41799648    -7.9699991     -7.3430133      2.3833185      50218.233      36.893836      36.893836      36.893836    
 199000000   0.42126844    -7.9681373     -7.3362437      2.409871       50218.233      36.893836      36.893836      36.893836    
 200000000   0.41814713    -7.9661359     -7.3389242      2.4188898      50218.233      36.893836      36.893836      36.893836    
 201000000   0.42138685    -7.9690674     -7.3369961      2.3931676      50218.233      36.893836      36.893836      36.893836    
 202000000   0.42104646    -7.9723653     -7.3408046      2.3746536      50218.233      36.893836      36.893836      36.893836    
 203000000   0.4199588     -7.9674338     -7.3375046      2.4137824      50218.233      36.893836      36.893836      36.893836    
 204000000   0.41956697    -7.9715776     -7.3422361      2.3824591      50218.233      36.893836      36.893836      36.893836    
 205000000   0.41841242    -7.9682521     -7.3406424      2.4098328      50218.233      36.893836      36.893836      36.893836    
 206000000   0.41936184    -7.9695753     -7.3405415      2.3912675      50218.233      36.893836      36.893836      36.893836    
 207000000   0.42169783    -7.9704736     -7.3379358      2.3828039      50218.233      36.893836      36.893836      36.893836    
 208000000   0.41955222    -7.9674249     -7.3381055      2.4193304      50218.233      36.893836      36.893836      36.893836    
 209000000   0.41905679    -7.9666231     -7.3380469      2.4139091      50218.233      36.893836      36.893836      36.893836    
 210000000   0.42046773    -7.966802      -7.3361094      2.4087296      50218.233      36.893836      36.893836      36.893836    
 211000000   0.42093721    -7.9655831     -7.3341863      2.4280906      50218.233      36.893836      36.893836      36.893836    
 212000000   0.41956218    -7.967504      -7.3381697      2.4159162      50218.233      36.893836      36.893836      36.893836    
 213000000   0.41973945    -7.9694588     -7.3398586      2.4024964      50218.233      36.893836      36.893836      36.893836    
 214000000   0.42007522    -7.9675792     -7.3374753      2.4106272      50218.233      36.893836      36.893836      36.893836    
 215000000   0.41976482    -7.9663996     -7.3367613      2.4130185      50218.233      36.893836      36.893836      36.893836    
 216000000   0.41794703    -7.9673772     -7.3404655      2.4063315      50218.233      36.893836      36.893836      36.893836    
 217000000   0.42134829    -7.9695164     -7.337503       2.3941496      50218.233      36.893836      36.893836      36.893836    
 218000000   0.42039368    -7.9705295     -7.3399479      2.3901669      50218.233      36.893836      36.893836      36.893836    
 219000000   0.4179401     -7.9709132     -7.3440119      2.3861376      50218.233      36.893836      36.893836      36.893836    
 220000000   0.41806881    -7.9705462     -7.3434519      2.3845112      50218.233      36.893836      36.893836      36.893836    
 221000000   0.41893521    -7.9670916     -7.3386977      2.4129438      50218.233      36.893836      36.893836      36.893836    
 222000000   0.42009616    -7.9660614     -7.3359261      2.4237567      50218.233      36.893836      36.893836      36.893836    
 223000000   0.42240448    -7.9681928     -7.3345951      2.4122351      50218.233      36.893836      36.893836      36.893836    
 224000000   0.41767073    -7.9684756     -7.3419784      2.4005402      50218.233      36.893836      36.893836      36.893836    
 225000000   0.41858309    -7.9655127     -7.337647       2.4156428      50218.233      36.893836      36.893836      36.893836    
 226000000   0.41926195    -7.9675704     -7.3386865      2.4063653      50218.233      36.893836      36.893836      36.893836    
 227000000   0.42078088    -7.9686943     -7.337532       2.4114338      50218.233      36.893836      36.893836      36.893836    
 228000000   0.41830423    -7.9692638     -7.3418164      2.4084657      50218.233      36.893836      36.893836      36.893836    
 229000000   0.41858272    -7.9683898     -7.3405247      2.4098791      50218.233      36.893836      36.893836      36.893836    
 230000000   0.42115787    -7.9662097     -7.3344819      2.4335645      50218.233      36.893836      36.893836      36.893836    
 231000000   0.41951517    -7.9671924     -7.3379286      2.4279588      50218.233      36.893836      36.893836      36.893836    
 232000000   0.41864764    -7.9652363     -7.3372738      2.4378397      50218.233      36.893836      36.893836      36.893836    
 233000000   0.42019089    -7.9664999     -7.3362225      2.4344942      50218.233      36.893836      36.893836      36.893836    
 234000000   0.42069077    -7.9707269     -7.3396997      2.3888084      50218.233      36.893836      36.893836      36.893836    
 235000000   0.42010359    -7.9671455     -7.336999       2.4232023      50218.233      36.893836      36.893836      36.893836    
 236000000   0.41885054    -7.9678712     -7.3396043      2.4096487      50218.233      36.893836      36.893836      36.893836    
 237000000   0.41952676    -7.9701573     -7.3408761      2.4035471      50218.233      36.893836      36.893836      36.893836    
 238000000   0.419443      -7.9676369     -7.3384814      2.431557       50218.233      36.893836      36.893836      36.893836    
 239000000   0.42155268    -7.9684788     -7.3361588      2.4163541      50218.233      36.893836      36.893836      36.893836    
 240000000   0.42013731    -7.9707389     -7.3405419      2.3947004      50218.233      36.893836      36.893836      36.893836    
 241000000   0.42118753    -7.9688768     -7.3371045      2.413447       50218.233      36.893836      36.893836      36.893836    
 242000000   0.4208069     -7.96781       -7.3366086      2.4191322      50218.233      36.893836      36.893836      36.893836    
 243000000   0.42036029    -7.9673413     -7.3368099      2.4231543      50218.233      36.893836      36.893836      36.893836    
 244000000   0.4201469     -7.9713506     -7.3411392      2.3916777      50218.233      36.893836      36.893836      36.893836    
 245000000   0.42205479    -7.9717931     -7.33872        2.3860651      50218.233      36.893836      36.893836      36.893836    
 246000000   0.42139772    -7.967974      -7.3358865      2.4208969      50218.233      36.893836      36.893836      36.893836    
 247000000   0.41926134    -7.9692882     -7.3404052      2.4115569      50218.233      36.893836      36.893836      36.893836    
 248000000   0.41856564    -7.9675525     -7.339713       2.4077899      50218.233      36.893836      36.893836      36.893836    
 249000000   0.4192283     -7.9721456     -7.3433121      2.3842303      50218.233      36.893836      36.893836      36.893836    
 250000000   0.41971265    -7.968208      -7.338648       2.4110197      50218.233      36.893836      36.893836      36.893836    
 251000000   0.42090543    -7.9684343     -7.3370852      2.4118856      50218.233      36.893836      36.893836      36.893836    
 252000000   0.41889711    -7.968516      -7.3401793      2.4056093      50218.233      36.893836      36.893836      36.893836    
 253000000   0.41748762    -7.9714813     -7.3452587      2.3754184      50218.233      36.893836      36.893836      36.893836    
 254000000   0.42027272    -7.9751785     -7.3447784      2.3534485      50218.233      36.893836      36.893836      36.893836    
 255000000   0.42001957    -7.9733871     -7.3433667      2.3723722      50218.233      36.893836      36.893836      36.893836    
 256000000   0.41978503    -7.9707724     -7.3411039      2.3992149      50218.233      36.893836      36.893836      36.893836    
 257000000   0.42102145    -7.9685364     -7.3370132      2.4154637      50218.233      36.893836      36.893836      36.893836    
 258000000   0.41867038    -7.9702572     -7.3422606      2.4015133      50218.233      36.893836      36.893836      36.893836    
 259000000   0.42086236    -7.9712879     -7.3400033      2.3902685      50218.233      36.893836      36.893836      36.893836    
 260000000   0.42131712    -7.9706258     -7.3386591      2.3941178      50218.233      36.893836      36.893836      36.893836    
 261000000   0.41947242    -7.970215      -7.3410153      2.3965815      50218.233      36.893836      36.893836      36.893836    
 262000000   0.42161892    -7.9698212     -7.3374018      2.4043827      50218.233      36.893836      36.893836      36.893836    
 263000000   0.4196617     -7.9693261     -7.3398425      2.4106949      50218.233      36.893836      36.893836      36.893836    
 264000000   0.42216714    -7.9691292     -7.3358875      2.3965926      50218.233      36.893836      36.893836      36.893836    
 265000000   0.42080007    -7.9696781     -7.338487       2.4077086      50218.233      36.893836      36.893836      36.893836    
 266000000   0.41953351    -7.9704467     -7.3411554      2.397202       50218.233      36.893836      36.893836      36.893836    
 267000000   0.42043744    -7.9676013     -7.3369541      2.4164619      50218.233      36.893836      36.893836      36.893836    
 268000000   0.42001763    -7.9687392     -7.3387217      2.4114509      50218.233      36.893836      36.893836      36.893836    
 269000000   0.41918747    -7.9658954     -7.3371232      2.4317561      50218.233      36.893836      36.893836      36.893836    
 270000000   0.41833221    -7.9646814     -7.337192       2.4463245      50218.233      36.893836      36.893836      36.893836    
 271000000   0.41974746    -7.9649153     -7.3353031      2.4377372      50218.233      36.893836      36.893836      36.893836    
 272000000   0.42000253    -7.9638796     -7.3338847      2.4392339      50218.233      36.893836      36.893836      36.893836    
 273000000   0.41818153    -7.9725826     -7.3453193      2.3767928      50218.233      36.893836      36.893836      36.893836    
 274000000   0.41830051    -7.9639938     -7.336552       2.4492626      50218.233      36.893836      36.893836      36.893836    
 275000000   0.42085597    -7.9691264     -7.3378515      2.4159937      50218.233      36.893836      36.893836      36.893836    
 276000000   0.42230672    -7.9714911     -7.3380401      2.3885332      50218.233      36.893836      36.893836      36.893836    
 277000000   0.42230217    -7.9683564     -7.3349121      2.4142975      50218.233      36.893836      36.893836      36.893836    
 278000000   0.42093091    -7.9662347     -7.3348473      2.4254945      50218.233      36.893836      36.893836      36.893836    
 279000000   0.42044555    -7.9689669     -7.3383075      2.4127881      50218.233      36.893836      36.893836      36.893836    
 280000000   0.42092215    -7.9728192     -7.341445       2.3863786      50218.233      36.893836      36.893836      36.893836    
 281000000   0.4200999     -7.9665198     -7.336379       2.4210259      50218.233      36.893836      36.893836      36.893836    
 282000000   0.42118621    -7.969702      -7.3379317      2.4092229      50218.233      36.893836      36.893836      36.893836    
 283000000   0.41875436    -7.9701559     -7.3420333      2.4002813      50218.233      36.893836      36.893836      36.893836    
 284000000   0.41914233    -7.970202      -7.3414975      2.403857       50218.233      36.893836      36.893836      36.893836    
 285000000   0.41954144    -7.9678804     -7.3385772      2.4171803      50218.233      36.893836      36.893836      36.893836    
 286000000   0.42111549    -7.9690862     -7.3374219      2.4111417      50218.233      36.893836      36.893836      36.893836    
 287000000   0.42033261    -7.9669979     -7.336508       2.4233209      50218.233      36.893836      36.893836      36.893836    
 288000000   0.41676415    -7.9698382     -7.3447008      2.4107229      50218.233      36.893836      36.893836      36.893836    
 289000000   0.42296914    -7.968921      -7.3344763      2.411607       50218.233      36.893836      36.893836      36.893836    
 290000000   0.42082203    -7.9712184     -7.3399943      2.3907247      50218.233      36.893836      36.893836      36.893836    
 291000000   0.41747494    -7.968         -7.3417965      2.4044341      50218.233      36.893836      36.893836      36.893836    
 292000000   0.41775074    -7.9685793     -7.3419621      2.4106525      50218.233      36.893836      36.893836      36.893836    
 293000000   0.41957815    -7.9684593     -7.3391011      2.4185269      50218.233      36.893836      36.893836      36.893836    
 294000000   0.41860779    -7.9735656     -7.3456629      2.3806343      50218.233      36.893836      36.893836      36.893836    
 295000000   0.42054263    -7.9712081     -7.3404031      2.3764725      50218.233      36.893836      36.893836      36.893836    
 296000000   0.4212895     -7.9644053     -7.33248        2.4437231      50218.233      36.893836      36.893836      36.893836    
 297000000   0.42183188    -7.9717922     -7.3390533      2.3826609      50218.233      36.893836      36.893836      36.893836    
 298000000   0.42001047    -7.9696486     -7.3396419      2.4077172      50218.233      36.893836      36.893836      36.893836    
 299000000   0.42074912    -7.9747005     -7.3435858      2.3701424      50218.233      36.893836      36.893836      36.893836    
 300000000   0.41939344    -7.9689945     -7.3399132      2.4067075      50218.233      36.893836      36.893836      36.893836    
 301000000   0.42013481    -7.9730754     -7.3428821      2.3757284      50218.233      36.893836      36.893836      36.893836    
 302000000   0.4195963     -7.9712867     -7.3419012      2.3899292      50218.233      36.893836      36.893836      36.893836    
 303000000   0.41914904    -7.9661074     -7.3373927      2.4206814      50218.233      36.893836      36.893836      36.893836    
 304000000   0.4171245     -7.9703723     -7.3446945      2.3915676      50218.233      36.893836      36.893836      36.893836    
 305000000   0.41952403    -7.9693395     -7.3400624      2.4106708      50218.233      36.893836      36.893836      36.893836    
 306000000   0.41934006    -7.9705623     -7.3415611      2.3935007      50218.233      36.893836      36.893836      36.893836    
 307000000   0.42143694    -7.9713295     -7.339183       2.3838245      50218.233      36.893836      36.893836      36.893836    
 308000000   0.41918898    -7.9677372     -7.3389627      2.4217345      50218.233      36.893836      36.893836      36.893836    
 309000000   0.42184361    -7.9699549     -7.3371985      2.3920207      50218.233      36.893836      36.893836      36.893836    
 310000000   0.41996534    -7.9676886     -7.3377495      2.4133127      50218.233      36.893836      36.893836      36.893836    
 311000000   0.42071522    -7.9690515     -7.3379877      2.4069178      50218.233      36.893836      36.893836      36.893836    
 312000000   0.42078081    -7.9682911     -7.3371289      2.4168302      50218.233      36.893836      36.893836      36.893836    
 313000000   0.41976679    -7.9682346     -7.3385934      2.4181801      50218.233      36.893836      36.893836      36.893836    
 314000000   0.41998122    -7.9683989     -7.338436       2.4076738      50218.233      36.893836      36.893836      36.893836    
 315000000   0.42006565    -7.9690758     -7.3389863      2.4127469      50218.233      36.893836      36.893836      36.893836    
 316000000   0.42119133    -7.9684463     -7.3366683      2.4174158      50218.233      36.893836      36.893836      36.893836    
 317000000   0.42001846    -7.9672996     -7.3372809      2.4126991      50218.233      36.893836      36.893836      36.893836    
 318000000   0.42040147    -7.9710858     -7.3404926      2.3965664      50218.233      36.893836      36.893836      36.893836    
 319000000   0.42033723    -7.9709039     -7.340407       2.3967407      50218.233      36.893836      36.893836      36.893836    
 320000000   0.42016574    -7.965651      -7.3354114      2.4281773      50218.233      36.893836      36.893836      36.893836    
 321000000   0.42146905    -7.9708762     -7.3386816      2.3970738      50218.233      36.893836      36.893836      36.893836    
 322000000   0.41926587    -7.9735641     -7.3446742      2.3651286      50218.233      36.893836      36.893836      36.893836    
 323000000   0.4206915     -7.9709002     -7.3398719      2.3867461      50218.233      36.893836      36.893836      36.893836    
 324000000   0.42131653    -7.9708903     -7.3389245      2.3942375      50218.233      36.893836      36.893836      36.893836    
 325000000   0.41839937    -7.969811      -7.3422208      2.4042579      50218.233      36.893836      36.893836      36.893836    
 326000000   0.41834096    -7.969648      -7.3421455      2.4073502      50218.233      36.893836      36.893836      36.893836    
 327000000   0.41946374    -7.9712996     -7.342113       2.3878953      50218.233      36.893836      36.893836      36.893836    
 328000000   0.41946188    -7.9735759     -7.344392       2.3817083      50218.233      36.893836      36.893836      36.893836    
 329000000   0.41971527    -7.9733323     -7.3437683      2.3711463      50218.233      36.893836      36.893836      36.893836    
 330000000   0.42157036    -7.9700708     -7.3377242      2.3993061      50218.233      36.893836      36.893836      36.893836    
 331000000   0.41753055    -7.969851      -7.3435641      2.3861545      50218.233      36.893836      36.893836      36.893836    
 332000000   0.41970241    -7.9703367     -7.340792       2.3942689      50218.233      36.893836      36.893836      36.893836    
 333000000   0.42119214    -7.9728071     -7.3410279      2.3794956      50218.233      36.893836      36.893836      36.893836    
 334000000   0.4180271     -7.9711063     -7.3440746      2.3849368      50218.233      36.893836      36.893836      36.893836    
 335000000   0.41994808    -7.9725633     -7.3426502      2.3848578      50218.233      36.893836      36.893836      36.893836    
 336000000   0.41993254    -7.9692072     -7.3393174      2.4122845      50218.233      36.893836      36.893836      36.893836    
 337000000   0.41898794    -7.9756082     -7.3471352      2.3563569      50218.233      36.893836      36.893836      36.893836    
 338000000   0.41851292    -7.9710989     -7.3433385      2.384076       50218.233      36.893836      36.893836      36.893836    
 339000000   0.42145365    -7.9728021     -7.3406306      2.3683615      50218.233      36.893836      36.893836      36.893836    
 340000000   0.41981082    -7.973086      -7.3433787      2.369823       50218.233      36.893836      36.893836      36.893836    
 341000000   0.41992767    -7.9715669     -7.3416844      2.3865693      50218.233      36.893836      36.893836      36.893836    
 342000000   0.41778972    -7.9697499     -7.3430743      2.3937464      50218.233      36.893836      36.893836      36.893836    
 343000000   0.41909936    -7.9703406     -7.3417005      2.3902956      50218.233      36.893836      36.893836      36.893836    
 344000000   0.41911522    -7.9756194     -7.3469556      2.3470754      50218.233      36.893836      36.893836      36.893836    
 345000000   0.42124725    -7.9688681     -7.3370062      2.4058204      50218.233      36.893836      36.893836      36.893836    
 346000000   0.4202375     -7.9732043     -7.342857       2.3722586      50218.233      36.893836      36.893836      36.893836    
 347000000   0.42035773    -7.9743559     -7.3438282      2.3720558      50218.233      36.893836      36.893836      36.893836    
 348000000   0.41910221    -7.9730317     -7.3443873      2.376557       50218.233      36.893836      36.893836      36.893836    
 349000000   0.4200634     -7.9727958     -7.3427096      2.3820983      50218.233      36.893836      36.893836      36.893836    
 350000000   0.41769974    -7.9740296     -7.3474889      2.3681146      50218.233      36.893836      36.893836      36.893836    
 351000000   0.41777919    -7.9731214     -7.3464615      2.3708716      50218.233      36.893836      36.893836      36.893836    
 352000000   0.42179107    -7.9738125     -7.3411349      2.3703385      50218.233      36.893836      36.893836      36.893836    
 353000000   0.41953383    -7.9718047     -7.3425129      2.3912615      50218.233      36.893836      36.893836      36.893836    
 354000000   0.42251708    -7.9758935     -7.3421269      2.3561127      50218.233      36.893836      36.893836      36.893836    
 355000000   0.41843481    -7.971431      -7.3437877      2.3899896      50218.233      36.893836      36.893836      36.893836    
 356000000   0.41872191    -7.9747465     -7.3466726      2.3502876      50218.233      36.893836      36.893836      36.893836    
 357000000   0.41935331    -7.9721274     -7.3431063      2.381004       50218.233      36.893836      36.893836      36.893836    
 358000000   0.42134987    -7.9739591     -7.3419433      2.3708568      50218.233      36.893836      36.893836      36.893836    
 359000000   0.41872623    -7.9716423     -7.3435619      2.3838007      50218.233      36.893836      36.893836      36.893836    
 360000000   0.42117991    -7.9756596     -7.3438987      2.3642821      50218.233      36.893836      36.893836      36.893836    
 361000000   0.41988972    -7.9728916     -7.343066       2.3737212      50218.233      36.893836      36.893836      36.893836    
 362000000   0.41969168    -7.9684799     -7.3389513      2.4054555      50218.233      36.893836      36.893836      36.893836    
 363000000   0.42093883    -7.9747586     -7.3433593      2.3635914      50218.233      36.893836      36.893836      36.893836    
 364000000   0.41958489    -7.9695856     -7.3402172      2.4033883      50218.233      36.893836      36.893836      36.893836    
 365000000   0.42174044    -7.9727103     -7.3401086      2.381396       50218.233      36.893836      36.893836      36.893836    
 366000000   0.42041135    -7.9717587     -7.3411506      2.383651       50218.233      36.893836      36.893836      36.893836    
 367000000   0.42030775    -7.9728346     -7.3423819      2.3777434      50218.233      36.893836      36.893836      36.893836    
 368000000   0.41898791    -7.9683704     -7.3398975      2.4038742      50218.233      36.893836      36.893836      36.893836    
 369000000   0.42079904    -7.9716863     -7.3404967      2.3845502      50218.233      36.893836      36.893836      36.893836    
 370000000   0.4217546     -7.9697615     -7.3371386      2.4026197      50218.233      36.893836      36.893836      36.893836    
 371000000   0.4208314     -7.9732506     -7.3420124      2.3767198      50218.233      36.893836      36.893836      36.893836    
 372000000   0.42154371    -7.9705553     -7.3382487      2.3944327      50218.233      36.893836      36.893836      36.893836    
 373000000   0.42256154    -7.9707707     -7.3369374      2.3965719      50218.233      36.893836      36.893836      36.893836    
 374000000   0.42235258    -7.970161      -7.3366412      2.394962       50218.233      36.893836      36.893836      36.893836    
 375000000   0.41893271    -7.9727755     -7.3443854      2.3778324      50218.233      36.893836      36.893836      36.893836    
 376000000   0.41881154    -7.9691688     -7.3409605      2.3908046      50218.233      36.893836      36.893836      36.893836    
 377000000   0.41894559    -7.9709442     -7.3425347      2.3832755      50218.233      36.893836      36.893836      36.893836    
 378000000   0.41943138    -7.9728521     -7.3437139      2.3858935      50218.233      36.893836      36.893836      36.893836    
 379000000   0.41938511    -7.9744055     -7.3453368      2.3612785      50218.233      36.893836      36.893836      36.893836    
 380000000   0.42187445    -7.9758994     -7.3430967      2.3538649      50218.233      36.893836      36.893836      36.893836    
 381000000   0.41896005    -7.9724022     -7.343971       2.3722313      50218.233      36.893836      36.893836      36.893836    
 382000000   0.41851667    -7.9744644     -7.3466983      2.3626591      50218.233      36.893836      36.893836      36.893836    
 383000000   0.41914741    -7.9753165     -7.3466043      2.3590631      50218.233      36.893836      36.893836      36.893836    
 384000000   0.4198933     -7.9729746     -7.3431436      2.3742486      50218.233      36.893836      36.893836      36.893836    
 385000000   0.41937237    -7.9703412     -7.3412916      2.3934932      50218.233      36.893836      36.893836      36.893836    
 386000000   0.41863387    -7.9752776     -7.3473358      2.3611165      50218.233      36.893836      36.893836      36.893836    
 387000000   0.42099191    -7.9741006     -7.3426217      2.3595545      50218.233      36.893836      36.893836      36.893836    
 388000000   0.42044075    -7.9747358     -7.3440836      2.3612096      50218.233      36.893836      36.893836      36.893836    
 389000000   0.42053591    -7.9764894     -7.3456945      2.3488009      50218.233      36.893836      36.893836      36.893836    
 390000000   0.42040621    -7.9724502     -7.3418498      2.378498       50218.233      36.893836      36.893836      36.893836    
 391000000   0.4202185     -7.9733772     -7.3430584      2.3667342      50218.233      36.893836      36.893836      36.893836    
 392000000   0.4198487     -7.9777595     -7.3479955      2.3398723      50218.233      36.893836      36.893836      36.893836    
 393000000   0.41753159    -7.9686195     -7.342331       2.3995366      50218.233      36.893836      36.893836      36.893836    
 394000000   0.41929976    -7.9766455     -7.3477048      2.3498023      50218.233      36.893836      36.893836      36.893836    
 395000000   0.4216879     -7.9687621     -7.3362392      2.4061155      50218.233      36.893836      36.893836      36.893836    
 396000000   0.41996182    -7.9741279     -7.3441941      2.3578332      50218.233      36.893836      36.893836      36.893836    
 397000000   0.42025515    -7.9720358     -7.341662       2.3836561      50218.233      36.893836      36.893836      36.893836    
 398000000   0.41867341    -7.9736624     -7.3456612      2.3661159      50218.233      36.893836      36.893836      36.893836    
 399000000   0.42032369    -7.9726815     -7.3422049      2.3746414      50218.233      36.893836      36.893836      36.893836    
 400000000   0.41972659    -7.9727762     -7.3431952      2.3720645      50218.233      36.893836      36.893836      36.893836    
 401000000   0.42197756    -7.9717699     -7.3388126      2.382936       50218.233      36.893836      36.893836      36.893836    
 402000000   0.4184538     -7.9736906     -7.3460188      2.3666993      50218.233      36.893836      36.893836      36.893836    
 403000000   0.42049767    -7.9701563     -7.3394188      2.4042775      50218.233      36.893836      36.893836      36.893836    
 404000000   0.41898919    -7.9756708     -7.3471959      2.3506773      50218.233      36.893836      36.893836      36.893836    
 405000000   0.41827682    -7.975947      -7.3485407      2.3358883      50218.233      36.893836      36.893836      36.893836    
 406000000   0.4210908     -7.9708457     -7.3392185      2.3788483      50218.233      36.893836      36.893836      36.893836    
 407000000   0.41924149    -7.974101      -7.3452477      2.3638056      50218.233      36.893836      36.893836      36.893836    
 408000000   0.41924548    -7.9749604     -7.3461011      2.3539338      50218.233      36.893836      36.893836      36.893836    
 409000000   0.42103771    -7.9737325     -7.3421849      2.3652945      50218.233      36.893836      36.893836      36.893836    
 410000000   0.42065595    -7.9707659     -7.339791       2.3947563      50218.233      36.893836      36.893836      36.893836    
 411000000   0.42030901    -7.9739179     -7.3434634      2.3634795      50218.233      36.893836      36.893836      36.893836    
 412000000   0.41654561    -7.975874      -7.3510645      2.3428336      50218.233      36.893836      36.893836      36.893836    
 413000000   0.42104975    -7.9707586     -7.339193       2.3976862      50218.233      36.893836      36.893836      36.893836    
 414000000   0.42050985    -7.9717057     -7.3409499      2.3728274      50218.233      36.893836      36.893836      36.893836    
 415000000   0.41844542    -7.9735433     -7.3458841      2.371742       50218.233      36.893836      36.893836      36.893836    
 416000000   0.42128108    -7.9736025     -7.3416899      2.3695924      50218.233      36.893836      36.893836      36.893836    
 417000000   0.41740512    -7.9726086     -7.3465098      2.3690087      50218.233      36.893836      36.893836      36.893836    
 418000000   0.41768667    -7.9714475     -7.3449264      2.3849753      50218.233      36.893836      36.893836      36.893836    
 419000000   0.41903324    -7.9730662     -7.3445253      2.3619238      50218.233      36.893836      36.893836      36.893836    
 420000000   0.4226111     -7.9744238     -7.3405161      2.3681272      50218.233      36.893836      36.893836      36.893836    
 421000000   0.42050338    -7.9759245     -7.3451784      2.3388321      50218.233      36.893836      36.893836      36.893836    
 422000000   0.42018682    -7.9691262     -7.338855       2.3879985      50218.233      36.893836      36.893836      36.893836    
 423000000   0.42088581    -7.9720228     -7.3407031      2.3823556      50218.233      36.893836      36.893836      36.893836    
 424000000   0.42038898    -7.9715139     -7.3409394      2.3829108      50218.233      36.893836      36.893836      36.893836    
 425000000   0.41926685    -7.9723989     -7.3435076      2.3672044      50218.233      36.893836      36.893836      36.893836    
 426000000   0.42085486    -7.97354       -7.3422667      2.3731491      50218.233      36.893836      36.893836      36.893836    
 427000000   0.41804757    -7.972979      -7.3459166      2.3700038      50218.233      36.893836      36.893836      36.893836    
 428000000   0.41905731    -7.9730789     -7.3445019      2.3654453      50218.233      36.893836      36.893836      36.893836    
 429000000   0.42077771    -7.9756875     -7.3445299      2.3559234      50218.233      36.893836      36.893836      36.893836    
 430000000   0.41831451    -7.9715675     -7.3441046      2.3763692      50218.233      36.893836      36.893836      36.893836    
 431000000   0.42009625    -7.9730226     -7.3428872      2.3779187      50218.233      36.893836      36.893836      36.893836    
 432000000   0.42290681    -7.9715451     -7.3371939      2.3876748      50218.233      36.893836      36.893836      36.893836    
 433000000   0.41924453    -7.9715091     -7.3426512      2.3746236      50218.233      36.893836      36.893836      36.893836    
 434000000   0.42227816    -7.9725562     -7.3391479      2.3695675      50218.233      36.893836      36.893836      36.893836    
 435000000   0.42065474    -7.9714896     -7.3405164      2.3774685      50218.233      36.893836      36.893836      36.893836    
 436000000   0.41859071    -7.9729173     -7.3450402      2.3659002      50218.233      36.893836      36.893836      36.893836    
 437000000   0.41899512    -7.9714961     -7.3430124      2.3793141      50218.233      36.893836      36.893836      36.893836    
 438000000   0.41990863    -7.9701781     -7.3403241      2.384898       50218.233      36.893836      36.893836      36.893836    
 439000000   0.42270033    -7.9688483     -7.3348068      2.400186       50218.233      36.893836      36.893836      36.893836    
 440000000   0.42155163    -7.9715104     -7.339192       2.3827614      50218.233      36.893836      36.893836      36.893836    
 441000000   0.42088419    -7.9719651     -7.3406478      2.3886225      50218.233      36.893836      36.893836      36.893836    
 442000000   0.42056004    -7.9697766     -7.3389455      2.4022441      50218.233      36.893836      36.893836      36.893836    
 443000000   0.41978417    -7.9736815     -7.3440142      2.3656279      50218.233      36.893836      36.893836      36.893836    
 444000000   0.42141466    -7.9730692     -7.3409562      2.3753239      50218.233      36.893836      36.893836      36.893836    
 445000000   0.42014769    -7.9699902     -7.3397777      2.3889996      50218.233      36.893836      36.893836      36.893836    
 446000000   0.41958271    -7.9707937     -7.3414286      2.393668       50218.233      36.893836      36.893836      36.893836    
 447000000   0.42025144    -7.9757166     -7.3453484      2.359989       50218.233      36.893836      36.893836      36.893836    
 448000000   0.42124554    -7.9739044     -7.3420451      2.3706117      50218.233      36.893836      36.893836      36.893836    
 449000000   0.41838216    -7.9742056     -7.3466413      2.356152       50218.233      36.893836      36.893836      36.893836    
 450000000   0.41804109    -7.9719604     -7.3449077      2.3857181      50218.233      36.893836      36.893836      36.893836    
 451000000   0.41990806    -7.9726225     -7.3427694      2.3748099      50218.233      36.893836      36.893836      36.893836    
 452000000   0.42064747    -7.972524      -7.3415618      2.3820031      50218.233      36.893836      36.893836      36.893836    
 453000000   0.42035905    -7.9730213     -7.3424917      2.3697972      50218.233      36.893836      36.893836      36.893836    
 454000000   0.42117187    -7.9742308     -7.342482       2.3721863      50218.233      36.893836      36.893836      36.893836    
 455000000   0.42055039    -7.9770667     -7.3462501      2.3368895      50218.233      36.893836      36.893836      36.893836    
 456000000   0.41940887    -7.9708011     -7.3416967      2.3781627      50218.233      36.893836      36.893836      36.893836    
 457000000   0.42093976    -7.9720225     -7.3406218      2.3826051      50218.233      36.893836      36.893836      36.893836    
 458000000   0.42092114    -7.9720656     -7.3406929      2.3772446      50218.233      36.893836      36.893836      36.893836    
 459000000   0.41870959    -7.9748568     -7.3468014      2.3421188      50218.233      36.893836      36.893836      36.893836    
 460000000   0.42141603    -7.9724864     -7.3403713      2.3825099      50218.233      36.893836      36.893836      36.893836    
 461000000   0.41996184    -7.9743186     -7.3443849      2.3631949      50218.233      36.893836      36.893836      36.893836    
 462000000   0.41756874    -7.9723557     -7.3460115      2.3785177      50218.233      36.893836      36.893836      36.893836    
 463000000   0.41910903    -7.9759496     -7.347295       2.3503619      50218.233      36.893836      36.893836      36.893836    
 464000000   0.42181499    -7.9717507     -7.3390373      2.3799044      50218.233      36.893836      36.893836      36.893836    
 465000000   0.41943924    -7.9722264     -7.3430765      2.3785288      50218.233      36.893836      36.893836      36.893836    
 466000000   0.41836407    -7.9704156     -7.3428785      2.3812059      50218.233      36.893836      36.893836      36.893836    
 467000000   0.42061156    -7.9721206     -7.3412122      2.390793       50218.233      36.893836      36.893836      36.893836    
 468000000   0.42127055    -7.9720769     -7.34018        2.3785322      50218.233      36.893836      36.893836      36.893836    
 469000000   0.41639434    -7.9739624     -7.3493798      2.3555748      50218.233      36.893836      36.893836      36.893836    
 470000000   0.42006448    -7.9702087     -7.3401209      2.3920424      50218.233      36.893836      36.893836      36.893836    
 471000000   0.41998864    -7.9703273     -7.3403533      2.3983396      50218.233      36.893836      36.893836      36.893836    
 472000000   0.42204126    -7.9717683     -7.3387154      2.3867469      50218.233      36.893836      36.893836      36.893836    
 473000000   0.42191011    -7.9711575     -7.3383013      2.3853663      50218.233      36.893836      36.893836      36.893836    
 474000000   0.42037285    -7.9744358     -7.3438855      2.3616698      50218.233      36.893836      36.893836      36.893836    
 475000000   0.41974582    -7.970465      -7.3408552      2.3949892      50218.233      36.893836      36.893836      36.893836    
 476000000   0.4196924     -7.9722362     -7.3427066      2.3828527      50218.233      36.893836      36.893836      36.893836    
 477000000   0.42000236    -7.9741241     -7.3441295      2.3668889      50218.233      36.893836      36.893836      36.893836    
 478000000   0.42145175    -7.9722079     -7.3400393      2.3680889      50218.233      36.893836      36.893836      36.893836    
 479000000   0.42122936    -7.9716052     -7.3397702      2.3802478      50218.233      36.893836      36.893836      36.893836    
 480000000   0.41931485    -7.9748175     -7.3458542      2.364893       50218.233      36.893836      36.893836      36.893836    
 481000000   0.42006899    -7.9738864     -7.3437919      2.3731985      50218.233      36.893836      36.893836      36.893836    
 482000000   0.41966159    -7.9703289     -7.3408455      2.3910142      50218.233      36.893836      36.893836      36.893836    
 483000000   0.4213916     -7.9735887     -7.3415103      2.3729313      50218.233      36.893836      36.893836      36.893836    
 484000000   0.4204729     -7.9702533     -7.3395529      2.4013767      50218.233      36.893836      36.893836      36.893836    
 485000000   0.42087449    -7.9706516     -7.3393488      2.3869579      50218.233      36.893836      36.893836      36.893836    
 486000000   0.42092939    -7.9733021     -7.341917       2.3768353      50218.233      36.893836      36.893836      36.893836    
 487000000   0.41934829    -7.9715911     -7.3425776      2.3885774      50218.233      36.893836      36.893836      36.893836    
 488000000   0.42081153    -7.9713133     -7.340105       2.3898402      50218.233      36.893836      36.893836      36.893836    
 489000000   0.41840381    -7.9693724     -7.3417756      2.3981593      50218.233      36.893836      36.893836      36.893836    
 490000000   0.42084569    -7.9742395     -7.3429799      2.3678091      50218.233      36.893836      36.893836      36.893836    
 491000000   0.41734436    -7.9727536     -7.3467459      2.3577705      50218.233      36.893836      36.893836      36.893836    
 492000000   0.42000039    -7.9725853     -7.3425936      2.3770552      50218.233      36.893836      36.893836      36.893836    
 493000000   0.42064101    -7.9742045     -7.3432519      2.3693415      50218.233      36.893836      36.893836      36.893836    
 494000000   0.42059646    -7.9740898     -7.3432041      2.357859       50218.233      36.893836      36.893836      36.893836    
 495000000   0.41988889    -7.9726355     -7.3428111      2.3755927      50218.233      36.893836      36.893836      36.893836    
 496000000   0.41774872    -7.9755602     -7.348946       2.3513311      50218.233      36.893836      36.893836      36.893836    
 497000000   0.41971835    -7.9741136     -7.3445451      2.3667575      50218.233      36.893836      36.893836      36.893836    
 498000000   0.41786159    -7.9747642     -7.3479807      2.3565057      50218.233      36.893836      36.893836      36.893836    
 499000000   0.41996782    -7.9729071     -7.3429644      2.3754236      50218.233      36.893836      36.893836      36.893836    
 500000000   0.41916379    -7.9753864     -7.3466496      2.3609235      50218.233      36.893836      36.893836      36.893836    
Loop time of 836702 on 5 procs for 500000000 steps with 70304 atoms

Performance: 516312.719 tau/day, 597.584 timesteps/s, 42.013 Matom-step/s
94.5% CPU use with 5 MPI tasks x 1 OpenMP threads

MPI task timing breakdown:
Section |  min time  |  avg time  |  max time  |%varavg| %total
---------------------------------------------------------------
Pair    | 3.2388e+05 | 3.48e+05   | 3.7646e+05 |3340.6 | 41.59
Neigh   | 2595       | 2700.7     | 2823.5     | 150.7 |  0.32
Comm    | 1.1654e+05 | 1.1745e+05 | 1.1804e+05 | 153.0 | 14.04
Output  | 0.091267   | 0.094467   | 0.099894   |   1.0 |  0.00
Modify  | 3.0118e+05 | 3.2908e+05 | 3.5311e+05 |3425.5 | 39.33
Other   |            | 3.947e+04  |            |       |  4.72

Nlocal:        14060.8 ave       14090 max       14028 min
Histogram: 1 0 1 0 0 0 1 1 0 1
Nghost:          18760 ave       18808 max       18724 min
Histogram: 1 2 0 0 0 0 0 0 1 1
Neighs:              0 ave           0 max           0 min
Histogram: 5 0 0 0 0 0 0 0 0 0

Total # of neighbors = 0
Ave neighs/atom = 0
Neighbor list builds = 98462365
Dangerous builds = 0
clear
OMP_NUM_THREADS environment is not set. Defaulting to 1 thread. (src/comm.cpp:98)
  using 1 OpenMP thread(s) per MPI task
package gpu 0
jump dms400.lmp

variable T equal 400
# T = 1000* (temp in LJ unit)
variable f equal 1000000
log log.${T}
log log.400
