variable TLJ equal (${T}/1000)
variable TLJ equal (240/1000)
variable NCyle equal 5
variable iStep equal (${f})
variable iStep equal (1000000)
variable dumpStep equal (${f}*100)
variable dumpStep equal (1000000*100)
variable runStep equal (${f}*100*${NCyle})
variable runStep equal (1000000*100*${NCyle})
variable runStep equal (1000000*100*5)

units       lj
atom_style  atomic
dimension 3
boundary     p p p
pair_style  lj/cut 2.5
read_data  ../data/T${T}.dat
read_data  ../data/T240.dat
Reading data file ...
  orthogonal box = (0.97250269 0.97250269 0.97250269) to (37.866338 37.866338 37.866338)
  1 by 1 by 5 MPI processor grid
  reading atoms ...
  70304 atoms
  reading velocities ...
  70304 velocities
  read_data CPU = 0.209 seconds
change_box all triclinic
Changing box ...
  triclinic box = (0.97250269 0.97250269 0.97250269) to (37.866338 37.866338 37.866338) with tilt (0 0 0)
mass 1 1
mass 2 1
pair_modify shift yes
pair_coeff  1 1 1 1
pair_coeff  1 2 1.5 0.8
pair_coeff  2 2 0.5 0.88


timestep 0.01
thermo ${iStep}
thermo 1000000
reset_timestep 0
thermo_style custom step temp pe etotal press vol lx ly lz
fix             1 all nvt temp ${TLJ}  ${TLJ}  0.1
fix             1 all nvt temp 0.24  ${TLJ}  0.1
fix             1 all nvt temp 0.24  0.24  0.1
thermo_modify flush yes

fix dsf all deform 1 xy  wiggle 0.5  ${f}   units box
fix dsf all deform 1 xy  wiggle 0.5  1000000   units box
fix ps1 all ave/time 1 1 ${iStep} c_thermo_press[1] c_thermo_press[2]  c_thermo_press[3] c_thermo_press[4]  c_thermo_press[5] c_thermo_press[6]  file  stress.${T}
fix ps1 all ave/time 1 1 1000000 c_thermo_press[1] c_thermo_press[2]  c_thermo_press[3] c_thermo_press[4]  c_thermo_press[5] c_thermo_press[6]  file  stress.${T}
fix ps1 all ave/time 1 1 1000000 c_thermo_press[1] c_thermo_press[2]  c_thermo_press[3] c_thermo_press[4]  c_thermo_press[5] c_thermo_press[6]  file  stress.240
dump            1 all custom ${dumpStep} dump.${T} id type x y z
dump            1 all custom 100000000 dump.${T} id type x y z
dump            1 all custom 100000000 dump.240 id type x y z
dump_modify 1 sort id
fix nodrift all momentum 1  linear 1 1 1
fix com_seed all recenter INIT INIT INIT shift all
run ${runStep}
run 500000000
Generated 0 of 1 mixed pair_coeff terms from geometric mixing rule
Per MPI rank memory allocation (min/avg/max) = 8.919 | 8.92 | 8.92 Mbytes
   Step          Temp          PotEng         TotEng         Press          Volume           Lx             Ly             Lz      
         0   0.24086365    -8.2266845     -7.8653942      0.23843613     50218.233      36.893836      36.893836      36.893836    
   1000000   0.23956568    -8.2234544     -7.864111       0.26366136     50218.233      36.893836      36.893836      36.893836    
   2000000   0.24056558    -8.2237674     -7.8629241      0.27104029     50218.233      36.893836      36.893836      36.893836    
   3000000   0.24028442    -8.2235606     -7.8631391      0.26673477     50218.233      36.893836      36.893836      36.893836    
   4000000   0.24051808    -8.2238651     -7.8630931      0.26734224     50218.233      36.893836      36.893836      36.893836    
   5000000   0.24114772    -8.2236282     -7.8619117      0.26425423     50218.233      36.893836      36.893836      36.893836    
   6000000   0.24176327    -8.2229458     -7.8603061      0.27549729     50218.233      36.893836      36.893836      36.893836    
   7000000   0.24070275    -8.2238672     -7.8628182      0.2694177      50218.233      36.893836      36.893836      36.893836    
   8000000   0.23928591    -8.2246508     -7.8657271      0.26576364     50218.233      36.893836      36.893836      36.893836    
   9000000   0.2400597     -8.221681      -7.8615966      0.28062742     50218.233      36.893836      36.893836      36.893836    
  10000000   0.23963374    -8.2237184     -7.8642729      0.26317871     50218.233      36.893836      36.893836      36.893836    
  11000000   0.24044765    -8.2232676     -7.8626013      0.27537169     50218.233      36.893836      36.893836      36.893836    
  12000000   0.23975766    -8.2233528     -7.8637215      0.26353402     50218.233      36.893836      36.893836      36.893836    
  13000000   0.23897455    -8.22389       -7.8654333      0.25738834     50218.233      36.893836      36.893836      36.893836    
  14000000   0.24013587    -8.222949      -7.8627503      0.26762324     50218.233      36.893836      36.893836      36.893836    
  15000000   0.23920772    -8.22412       -7.8653136      0.26414659     50218.233      36.893836      36.893836      36.893836    
  16000000   0.23908374    -8.2241866     -7.8655661      0.26301104     50218.233      36.893836      36.893836      36.893836    
  17000000   0.24063105    -8.2231128     -7.8621714      0.27158513     50218.233      36.893836      36.893836      36.893836    
  18000000   0.23970233    -8.2237843     -7.8642359      0.27282449     50218.233      36.893836      36.893836      36.893836    
  19000000   0.24090571    -8.2225292     -7.8611758      0.2850246      50218.233      36.893836      36.893836      36.893836    
  20000000   0.24059389    -8.2232446     -7.8623589      0.26738666     50218.233      36.893836      36.893836      36.893836    
  21000000   0.2399945     -8.2225039     -7.8625173      0.27175232     50218.233      36.893836      36.893836      36.893836    
  22000000   0.2394431     -8.2205297     -7.8613702      0.29128395     50218.233      36.893836      36.893836      36.893836    
  23000000   0.23979855    -8.2232518     -7.8635591      0.26887218     50218.233      36.893836      36.893836      36.893836    
  24000000   0.23888957    -8.2198663     -7.8615371      0.29397733     50218.233      36.893836      36.893836      36.893836    
  25000000   0.24066287    -8.222941      -7.8619519      0.26867326     50218.233      36.893836      36.893836      36.893836    
  26000000   0.23977677    -8.2225929     -7.8629329      0.28071712     50218.233      36.893836      36.893836      36.893836    
  27000000   0.23981258    -8.2201342     -7.8604205      0.29160871     50218.233      36.893836      36.893836      36.893836    
  28000000   0.24046641    -8.2206666     -7.8599721      0.28688718     50218.233      36.893836      36.893836      36.893836    
  29000000   0.24005889    -8.2219613     -7.8618781      0.28045284     50218.233      36.893836      36.893836      36.893836    
  30000000   0.24064499    -8.2221819     -7.8612196      0.27774215     50218.233      36.893836      36.893836      36.893836    
  31000000   0.24169222    -8.2209969     -7.8584637      0.28435701     50218.233      36.893836      36.893836      36.893836    
  32000000   0.23998091    -8.2222432     -7.862277       0.27492715     50218.233      36.893836      36.893836      36.893836    
  33000000   0.23963255    -8.2247766     -7.8653329      0.2504035      50218.233      36.893836      36.893836      36.893836    
  34000000   0.23761299    -8.221912      -7.8654976      0.27718068     50218.233      36.893836      36.893836      36.893836    
  35000000   0.23952564    -8.2224467     -7.8631634      0.26880027     50218.233      36.893836      36.893836      36.893836    
  36000000   0.24199266    -8.2216848     -7.8587009      0.28155283     50218.233      36.893836      36.893836      36.893836    
  37000000   0.24089922    -8.2233851     -7.8620414      0.26750885     50218.233      36.893836      36.893836      36.893836    
  38000000   0.23914455    -8.2238114     -7.8650997      0.25412989     50218.233      36.893836      36.893836      36.893836    
  39000000   0.24073819    -8.2219238     -7.8608216      0.27608692     50218.233      36.893836      36.893836      36.893836    
  40000000   0.23882807    -8.2219601     -7.8637231      0.2790824      50218.233      36.893836      36.893836      36.893836    
  41000000   0.24048241    -8.2231413     -7.8624228      0.27192361     50218.233      36.893836      36.893836      36.893836    
  42000000   0.2392504     -8.2227722     -7.8639017      0.26708305     50218.233      36.893836      36.893836      36.893836    
  43000000   0.23948628    -8.221713      -7.8624886      0.2713399      50218.233      36.893836      36.893836      36.893836    
  44000000   0.23952446    -8.2259216     -7.86664        0.24814704     50218.233      36.893836      36.893836      36.893836    
  45000000   0.24007047    -8.2253956     -7.865295       0.25511396     50218.233      36.893836      36.893836      36.893836    
  46000000   0.24026144    -8.2232718     -7.8628848      0.27205587     50218.233      36.893836      36.893836      36.893836    
  47000000   0.24013976    -8.2228141     -7.8626096      0.27449567     50218.233      36.893836      36.893836      36.893836    
  48000000   0.23915793    -8.2209092     -7.8621774      0.28729964     50218.233      36.893836      36.893836      36.893836    
  49000000   0.23923382    -8.2250158     -7.8661701      0.25017659     50218.233      36.893836      36.893836      36.893836    
  50000000   0.23959339    -8.2234908     -7.8641058      0.26430803     50218.233      36.893836      36.893836      36.893836    
  51000000   0.2410128     -8.2249671     -7.863453       0.25703988     50218.233      36.893836      36.893836      36.893836    
  52000000   0.24039585    -8.223287      -7.8626984      0.26932568     50218.233      36.893836      36.893836      36.893836    
  53000000   0.23941281    -8.2249112     -7.8657971      0.25026525     50218.233      36.893836      36.893836      36.893836    
  54000000   0.23830351    -8.2227927     -7.8653425      0.26846497     50218.233      36.893836      36.893836      36.893836    
  55000000   0.23930978    -8.2245413     -7.8655818      0.25729581     50218.233      36.893836      36.893836      36.893836    
  56000000   0.23900856    -8.2249803     -7.8664725      0.25151103     50218.233      36.893836      36.893836      36.893836    
  57000000   0.23995949    -8.2228659     -7.8629318      0.269326       50218.233      36.893836      36.893836      36.893836    
  58000000   0.24136437    -8.2240576     -7.8620162      0.26392105     50218.233      36.893836      36.893836      36.893836    
  59000000   0.23925212    -8.224474      -7.8656009      0.25167263     50218.233      36.893836      36.893836      36.893836    
  60000000   0.24139225    -8.2247764     -7.8626931      0.25694773     50218.233      36.893836      36.893836      36.893836    
  61000000   0.24130726    -8.2244069     -7.8624512      0.25978576     50218.233      36.893836      36.893836      36.893836    
  62000000   0.24051356    -8.2219721     -7.8612069      0.27801898     50218.233      36.893836      36.893836      36.893836    
  63000000   0.24016321    -8.2245941     -7.8643544      0.25817015     50218.233      36.893836      36.893836      36.893836    
  64000000   0.24069842    -8.2256628     -7.8646203      0.2514282      50218.233      36.893836      36.893836      36.893836    
  65000000   0.24019698    -8.2207865     -7.8604961      0.28611295     50218.233      36.893836      36.893836      36.893836    
  66000000   0.24027       -8.2234488     -7.8630489      0.27446764     50218.233      36.893836      36.893836      36.893836    
  67000000   0.2397871     -8.2233873     -7.8637118      0.26619936     50218.233      36.893836      36.893836      36.893836    
  68000000   0.24000562    -8.2224262     -7.8624228      0.27608975     50218.233      36.893836      36.893836      36.893836    
  69000000   0.24144558    -8.2207201     -7.8585569      0.28635943     50218.233      36.893836      36.893836      36.893836    
  70000000   0.23825721    -8.2231411     -7.8657604      0.26346759     50218.233      36.893836      36.893836      36.893836    
  71000000   0.2400827     -8.2242557     -7.8641367      0.25452561     50218.233      36.893836      36.893836      36.893836    
  72000000   0.2391599     -8.2217179     -7.8629832      0.28197087     50218.233      36.893836      36.893836      36.893836    
  73000000   0.24028287    -8.2214672     -7.861048       0.27677161     50218.233      36.893836      36.893836      36.893836    
  74000000   0.23977004    -8.2221496     -7.8624997      0.2753109      50218.233      36.893836      36.893836      36.893836    
  75000000   0.24025232    -8.224242      -7.8638687      0.26155788     50218.233      36.893836      36.893836      36.893836    
  76000000   0.24137734    -8.2222228     -7.8601619      0.28305893     50218.233      36.893836      36.893836      36.893836    
  77000000   0.23975351    -8.2230293     -7.8634041      0.27553567     50218.233      36.893836      36.893836      36.893836    
  78000000   0.24003181    -8.2227992     -7.8627566      0.26628321     50218.233      36.893836      36.893836      36.893836    
  79000000   0.23921982    -8.2226031     -7.8637784      0.27581076     50218.233      36.893836      36.893836      36.893836    
  80000000   0.24000652    -8.2225163     -7.8625117      0.27154599     50218.233      36.893836      36.893836      36.893836    
  81000000   0.23998234    -8.2230497     -7.8630813      0.27558562     50218.233      36.893836      36.893836      36.893836    
  82000000   0.23852218    -8.2231127     -7.8653345      0.2671605      50218.233      36.893836      36.893836      36.893836    
  83000000   0.24057599    -8.2234683     -7.8626094      0.26396222     50218.233      36.893836      36.893836      36.893836    
  84000000   0.24074166    -8.2233929     -7.8622855      0.26683654     50218.233      36.893836      36.893836      36.893836    
  85000000   0.24091713    -8.2213344     -7.8599639      0.28092586     50218.233      36.893836      36.893836      36.893836    
  86000000   0.24169958    -8.2234742     -7.86093        0.26557995     50218.233      36.893836      36.893836      36.893836    
  87000000   0.24099076    -8.2210518     -7.8595708      0.28944117     50218.233      36.893836      36.893836      36.893836    
  88000000   0.24017407    -8.2227466     -7.8624907      0.26989662     50218.233      36.893836      36.893836      36.893836    
  89000000   0.24017845    -8.2228187     -7.8625561      0.27337949     50218.233      36.893836      36.893836      36.893836    
  90000000   0.24006267    -8.2242522     -7.8641634      0.25573113     50218.233      36.893836      36.893836      36.893836    
  91000000   0.23929958    -8.2239089     -7.8649646      0.2619173      50218.233      36.893836      36.893836      36.893836    
  92000000   0.23968486    -8.2244986     -7.8649764      0.25969173     50218.233      36.893836      36.893836      36.893836    
  93000000   0.24012833    -8.2241689     -7.8639816      0.26004098     50218.233      36.893836      36.893836      36.893836    
  94000000   0.24121175    -8.2245353     -7.8627228      0.25727891     50218.233      36.893836      36.893836      36.893836    
  95000000   0.23967599    -8.223078      -7.8635691      0.26578157     50218.233      36.893836      36.893836      36.893836    
  96000000   0.23769649    -8.2237909     -7.8672512      0.25757228     50218.233      36.893836      36.893836      36.893836    
  97000000   0.23980004    -8.2248201     -7.8651251      0.25245693     50218.233      36.893836      36.893836      36.893836    
  98000000   0.23975575    -8.2237694     -7.8641409      0.26576243     50218.233      36.893836      36.893836      36.893836    
  99000000   0.23853783    -8.2243119     -7.8665103      0.25627241     50218.233      36.893836      36.893836      36.893836    
 100000000   0.23977931    -8.2226266     -7.8629628      0.26787201     50218.233      36.893836      36.893836      36.893836    
 101000000   0.24011415    -8.2227104     -7.8625443      0.26936952     50218.233      36.893836      36.893836      36.893836    
 102000000   0.23965307    -8.224104      -7.8646295      0.26339062     50218.233      36.893836      36.893836      36.893836    
 103000000   0.24058225    -8.2237346     -7.8628664      0.26418224     50218.233      36.893836      36.893836      36.893836    
 104000000   0.23988654    -8.2236654     -7.8638407      0.26063035     50218.233      36.893836      36.893836      36.893836    
 105000000   0.2398413     -8.2243267     -7.8645699      0.25685755     50218.233      36.893836      36.893836      36.893836    
 106000000   0.2399662     -8.2233007     -7.8633565      0.26469598     50218.233      36.893836      36.893836      36.893836    
 107000000   0.23939647    -8.2244413     -7.8653517      0.25550777     50218.233      36.893836      36.893836      36.893836    
 108000000   0.24035855    -8.2240715     -7.8635388      0.25457776     50218.233      36.893836      36.893836      36.893836    
 109000000   0.23947701    -8.2212124     -7.862002       0.28497465     50218.233      36.893836      36.893836      36.893836    
 110000000   0.23993574    -8.2246649     -7.8647664      0.25059511     50218.233      36.893836      36.893836      36.893836    
 111000000   0.23982805    -8.225537      -7.8658         0.25140292     50218.233      36.893836      36.893836      36.893836    
 112000000   0.24010161    -8.2224341     -7.8622868      0.26802419     50218.233      36.893836      36.893836      36.893836    
 113000000   0.2392122     -8.2224757     -7.8636625      0.27075134     50218.233      36.893836      36.893836      36.893836    
 114000000   0.24068052    -8.224777      -7.8637613      0.2598959      50218.233      36.893836      36.893836      36.893836    
 115000000   0.24067522    -8.2245331     -7.8635254      0.25284032     50218.233      36.893836      36.893836      36.893836    
 116000000   0.24030981    -8.2225884     -7.8621288      0.27579823     50218.233      36.893836      36.893836      36.893836    
 117000000   0.24026964    -8.2244803     -7.864081       0.26128526     50218.233      36.893836      36.893836      36.893836    
 118000000   0.24124666    -8.2224248     -7.8605599      0.28678973     50218.233      36.893836      36.893836      36.893836    
 119000000   0.24088405    -8.2245168     -7.8631959      0.26100113     50218.233      36.893836      36.893836      36.893836    
 120000000   0.24011178    -8.2211905     -7.8610279      0.2856         50218.233      36.893836      36.893836      36.893836    
 121000000   0.23902618    -8.2221404     -7.8636063      0.27358273     50218.233      36.893836      36.893836      36.893836    
 122000000   0.23961651    -8.2236033     -7.8641836      0.26023325     50218.233      36.893836      36.893836      36.893836    
 123000000   0.24106957    -8.2232225     -7.8616233      0.26469956     50218.233      36.893836      36.893836      36.893836    
 124000000   0.24131571    -8.2239731     -7.8620046      0.26624464     50218.233      36.893836      36.893836      36.893836    
 125000000   0.23970804    -8.2221543     -7.8625974      0.27376375     50218.233      36.893836      36.893836      36.893836    
 126000000   0.24004978    -8.2243142     -7.8642447      0.25337281     50218.233      36.893836      36.893836      36.893836    
 127000000   0.23996838    -8.2210841     -7.8611367      0.28840424     50218.233      36.893836      36.893836      36.893836    
 128000000   0.24001047    -8.2248325     -7.8648219      0.24912707     50218.233      36.893836      36.893836      36.893836    
 129000000   0.23867932    -8.2244862     -7.8664723      0.25945398     50218.233      36.893836      36.893836      36.893836    
 130000000   0.24062796    -8.221821      -7.8608842      0.28206932     50218.233      36.893836      36.893836      36.893836    
 131000000   0.23850267    -8.220674      -7.8629251      0.28450257     50218.233      36.893836      36.893836      36.893836    
 132000000   0.24058131    -8.2222153     -7.8613485      0.27909463     50218.233      36.893836      36.893836      36.893836    
 133000000   0.24037004    -8.2226108     -7.8620608      0.27279477     50218.233      36.893836      36.893836      36.893836    
 134000000   0.24061004    -8.2215988     -7.8606889      0.28315783     50218.233      36.893836      36.893836      36.893836    
 135000000   0.24017999    -8.2232847     -7.8630199      0.25649196     50218.233      36.893836      36.893836      36.893836    
 136000000   0.24009736    -8.2224449     -7.862304       0.27295602     50218.233      36.893836      36.893836      36.893836    
 137000000   0.24070416    -8.2231459     -7.8620948      0.26655664     50218.233      36.893836      36.893836      36.893836    
 138000000   0.23949401    -8.2219779     -7.862742       0.28178825     50218.233      36.893836      36.893836      36.893836    
 139000000   0.23963016    -8.2229595     -7.8635194      0.26635864     50218.233      36.893836      36.893836      36.893836    
 140000000   0.23968717    -8.223911      -7.8643854      0.25684842     50218.233      36.893836      36.893836      36.893836    
 141000000   0.23945153    -8.22189       -7.8627178      0.27863133     50218.233      36.893836      36.893836      36.893836    
 142000000   0.23903985    -8.223757      -7.8652024      0.2752646      50218.233      36.893836      36.893836      36.893836    
 143000000   0.23951444    -8.224703      -7.8654364      0.26199159     50218.233      36.893836      36.893836      36.893836    
 144000000   0.23997041    -8.2231823     -7.8632318      0.27125491     50218.233      36.893836      36.893836      36.893836    
 145000000   0.23935376    -8.2235247     -7.8644992      0.26199648     50218.233      36.893836      36.893836      36.893836    
 146000000   0.23937829    -8.2240046     -7.8649423      0.26094645     50218.233      36.893836      36.893836      36.893836    
 147000000   0.24061007    -8.2258789     -7.8649689      0.2484984      50218.233      36.893836      36.893836      36.893836    
 148000000   0.23888397    -8.2250197     -7.8666988      0.25105292     50218.233      36.893836      36.893836      36.893836    
 149000000   0.24051456    -8.2234672     -7.8627005      0.26230423     50218.233      36.893836      36.893836      36.893836    
 150000000   0.2399455     -8.2239103     -7.8639972      0.25968818     50218.233      36.893836      36.893836      36.893836    
 151000000   0.23961404    -8.224743      -7.865327       0.25810511     50218.233      36.893836      36.893836      36.893836    
 152000000   0.24056528    -8.2239629     -7.8631201      0.26312038     50218.233      36.893836      36.893836      36.893836    
 153000000   0.23945516    -8.2249386     -7.865761       0.25157828     50218.233      36.893836      36.893836      36.893836    
 154000000   0.24133735    -8.2255156     -7.8635147      0.2469542      50218.233      36.893836      36.893836      36.893836    
 155000000   0.23964024    -8.2253389     -7.8658836      0.24958766     50218.233      36.893836      36.893836      36.893836    
 156000000   0.2399925     -8.22455       -7.8645664      0.25821017     50218.233      36.893836      36.893836      36.893836    
 157000000   0.2396887     -8.2235699     -7.864042       0.26938493     50218.233      36.893836      36.893836      36.893836    
 158000000   0.2376872     -8.2231273     -7.8666016      0.27032347     50218.233      36.893836      36.893836      36.893836    
 159000000   0.23976721    -8.2231619     -7.8635162      0.2637028      50218.233      36.893836      36.893836      36.893836    
 160000000   0.2389163     -8.2212734     -7.8629041      0.28019356     50218.233      36.893836      36.893836      36.893836    
 161000000   0.24047553    -8.223745      -7.8630369      0.25594224     50218.233      36.893836      36.893836      36.893836    
 162000000   0.23935093    -8.2228397     -7.8638184      0.26588869     50218.233      36.893836      36.893836      36.893836    
 163000000   0.23842076    -8.2238357     -7.8662096      0.2551913      50218.233      36.893836      36.893836      36.893836    
 164000000   0.23905125    -8.2201146     -7.8615429      0.29846102     50218.233      36.893836      36.893836      36.893836    
 165000000   0.2403194     -8.223158      -7.862684       0.26059684     50218.233      36.893836      36.893836      36.893836    
 166000000   0.24084947    -8.222081      -7.8608119      0.27322398     50218.233      36.893836      36.893836      36.893836    
 167000000   0.23910853    -8.2227515     -7.8640938      0.2700257      50218.233      36.893836      36.893836      36.893836    
 168000000   0.23917087    -8.2215079     -7.8627567      0.28495409     50218.233      36.893836      36.893836      36.893836    
 169000000   0.2411737     -8.2232138     -7.8614584      0.26686429     50218.233      36.893836      36.893836      36.893836    
 170000000   0.24053284    -8.223026      -7.8622318      0.26964771     50218.233      36.893836      36.893836      36.893836    
 171000000   0.2408313     -8.2227003     -7.8614585      0.26959789     50218.233      36.893836      36.893836      36.893836    
 172000000   0.2399941     -8.2227783     -7.8627923      0.27191519     50218.233      36.893836      36.893836      36.893836    
 173000000   0.24095808    -8.2213675     -7.8599356      0.28639149     50218.233      36.893836      36.893836      36.893836    
 174000000   0.2386206     -8.2215925     -7.8636667      0.27840884     50218.233      36.893836      36.893836      36.893836    
 175000000   0.23909459    -8.2212827     -7.862646       0.27672522     50218.233      36.893836      36.893836      36.893836    
 176000000   0.24071123    -8.2229911     -7.8619294      0.27329323     50218.233      36.893836      36.893836      36.893836    
 177000000   0.2386231     -8.2219746     -7.8640451      0.2803704      50218.233      36.893836      36.893836      36.893836    
 178000000   0.23942151    -8.2230044     -7.8638772      0.27121835     50218.233      36.893836      36.893836      36.893836    
 179000000   0.23965559    -8.2215478     -7.8620695      0.28192446     50218.233      36.893836      36.893836      36.893836    
 180000000   0.2405716     -8.2219123     -7.8610601      0.2722654      50218.233      36.893836      36.893836      36.893836    
 181000000   0.24029977    -8.2221802     -7.8617357      0.27902048     50218.233      36.893836      36.893836      36.893836    
 182000000   0.24165903    -8.2226042     -7.8601209      0.27967872     50218.233      36.893836      36.893836      36.893836    
 183000000   0.23998978    -8.2230784     -7.8630989      0.27029875     50218.233      36.893836      36.893836      36.893836    
 184000000   0.24022545    -8.2214576     -7.8611245      0.27709577     50218.233      36.893836      36.893836      36.893836    
 185000000   0.24003223    -8.2232881     -7.8632449      0.27132124     50218.233      36.893836      36.893836      36.893836    
 186000000   0.23964625    -8.2227925     -7.8633282      0.26913538     50218.233      36.893836      36.893836      36.893836    
 187000000   0.24019321    -8.2237027     -7.863418       0.26582437     50218.233      36.893836      36.893836      36.893836    
 188000000   0.2403736     -8.2238591     -7.8633038      0.2532074      50218.233      36.893836      36.893836      36.893836    
 189000000   0.23949543    -8.2232163     -7.8639783      0.2712925      50218.233      36.893836      36.893836      36.893836    
 190000000   0.2393333     -8.2218068     -7.8628119      0.27836618     50218.233      36.893836      36.893836      36.893836    
 191000000   0.23917541    -8.2236732     -7.8649152      0.25885583     50218.233      36.893836      36.893836      36.893836    
 192000000   0.23977766    -8.2243747     -7.8647134      0.25577452     50218.233      36.893836      36.893836      36.893836    
 193000000   0.24001288    -8.2242107     -7.8641965      0.250832       50218.233      36.893836      36.893836      36.893836    
 194000000   0.23989586    -8.2251987     -7.86536        0.25400587     50218.233      36.893836      36.893836      36.893836    
 195000000   0.24150834    -8.2227489     -7.8604915      0.26949379     50218.233      36.893836      36.893836      36.893836    
 196000000   0.24139958    -8.2243641     -7.8622699      0.26435468     50218.233      36.893836      36.893836      36.893836    
 197000000   0.23961952    -8.2241877     -7.8647636      0.26568959     50218.233      36.893836      36.893836      36.893836    
 198000000   0.24053658    -8.2232552     -7.8624554      0.26849767     50218.233      36.893836      36.893836      36.893836    
 199000000   0.23957457    -8.2230131     -7.8636563      0.27074104     50218.233      36.893836      36.893836      36.893836    
 200000000   0.23973566    -8.2252284     -7.86563        0.2520759      50218.233      36.893836      36.893836      36.893836    
 201000000   0.23978711    -8.2244101     -7.8647345      0.25703581     50218.233      36.893836      36.893836      36.893836    
 202000000   0.23922194    -8.224028      -7.8652002      0.25849798     50218.233      36.893836      36.893836      36.893836    
 203000000   0.23961531    -8.2241604     -7.8647426      0.26457535     50218.233      36.893836      36.893836      36.893836    
 204000000   0.24046163    -8.2230154     -7.862328       0.26861262     50218.233      36.893836      36.893836      36.893836    
 205000000   0.241651      -8.225842      -7.8633706      0.2452874      50218.233      36.893836      36.893836      36.893836    
 206000000   0.23970762    -8.223825      -7.8642687      0.2548579      50218.233      36.893836      36.893836      36.893836    
 207000000   0.23966637    -8.2240813     -7.8645869      0.26576869     50218.233      36.893836      36.893836      36.893836    
 208000000   0.23984398    -8.224116      -7.8643552      0.25546839     50218.233      36.893836      36.893836      36.893836    
 209000000   0.24105041    -8.2230274     -7.8614569      0.27228085     50218.233      36.893836      36.893836      36.893836    
 210000000   0.23996177    -8.2235545     -7.863617       0.25820496     50218.233      36.893836      36.893836      36.893836    
 211000000   0.23979195    -8.2228209     -7.8631381      0.26702647     50218.233      36.893836      36.893836      36.893836    
 212000000   0.2387733     -8.2241257     -7.8659708      0.26456523     50218.233      36.893836      36.893836      36.893836    
 213000000   0.24038514    -8.2218032     -7.8612306      0.27154774     50218.233      36.893836      36.893836      36.893836    
 214000000   0.24038886    -8.2237444     -7.8631663      0.25901519     50218.233      36.893836      36.893836      36.893836    
 215000000   0.24011273    -8.2244892     -7.8643253      0.25865634     50218.233      36.893836      36.893836      36.893836    
 216000000   0.23947023    -8.2247807     -7.8655805      0.25099354     50218.233      36.893836      36.893836      36.893836    
 217000000   0.24079786    -8.2250014     -7.8638098      0.25665825     50218.233      36.893836      36.893836      36.893836    
 218000000   0.24038383    -8.2240362     -7.8634656      0.26243664     50218.233      36.893836      36.893836      36.893836    
 219000000   0.24029609    -8.2210284     -7.8605894      0.28546436     50218.233      36.893836      36.893836      36.893836    
 220000000   0.24059369    -8.2229549     -7.8620695      0.27209655     50218.233      36.893836      36.893836      36.893836    
 221000000   0.24029257    -8.2235883     -7.8631545      0.26362909     50218.233      36.893836      36.893836      36.893836    
 222000000   0.23886885    -8.22172       -7.8634218      0.28137399     50218.233      36.893836      36.893836      36.893836    
 223000000   0.24034654    -8.2230164     -7.8625017      0.27233723     50218.233      36.893836      36.893836      36.893836    
 224000000   0.24034699    -8.2225744     -7.862059       0.27299804     50218.233      36.893836      36.893836      36.893836    
 225000000   0.24050436    -8.222417      -7.8616656      0.27336588     50218.233      36.893836      36.893836      36.893836    
 226000000   0.23984301    -8.2221539     -7.8623945      0.28471511     50218.233      36.893836      36.893836      36.893836    
 227000000   0.23961811    -8.2218583     -7.8624362      0.2701593      50218.233      36.893836      36.893836      36.893836    
 228000000   0.2397293     -8.2225685     -7.8629796      0.27468285     50218.233      36.893836      36.893836      36.893836    
 229000000   0.24012617    -8.2230316     -7.8628475      0.2682156      50218.233      36.893836      36.893836      36.893836    
 230000000   0.24008061    -8.2234036     -7.8632878      0.26837892     50218.233      36.893836      36.893836      36.893836    
 231000000   0.24016318    -8.2238197     -7.8635801      0.26351696     50218.233      36.893836      36.893836      36.893836    
 232000000   0.2405556     -8.2225249     -7.8616967      0.27179226     50218.233      36.893836      36.893836      36.893836    
 233000000   0.2400181     -8.2223901     -7.862368       0.27419333     50218.233      36.893836      36.893836      36.893836    
 234000000   0.24139566    -8.2238971     -7.8618087      0.26370163     50218.233      36.893836      36.893836      36.893836    
 235000000   0.2396455     -8.2224084     -7.8629453      0.26440465     50218.233      36.893836      36.893836      36.893836    
 236000000   0.24134538    -8.2220122     -7.8599993      0.26987476     50218.233      36.893836      36.893836      36.893836    
 237000000   0.24076041    -8.2211269     -7.8599914      0.27678215     50218.233      36.893836      36.893836      36.893836    
 238000000   0.24048134    -8.2236288     -7.862912       0.26708157     50218.233      36.893836      36.893836      36.893836    
 239000000   0.24076234    -8.223167      -7.8620286      0.27118168     50218.233      36.893836      36.893836      36.893836    
 240000000   0.24069935    -8.2234967     -7.8624528      0.2613202      50218.233      36.893836      36.893836      36.893836    
 241000000   0.24096947    -8.2217781     -7.860329       0.27652095     50218.233      36.893836      36.893836      36.893836    
 242000000   0.24073402    -8.223879      -7.8627831      0.26222656     50218.233      36.893836      36.893836      36.893836    
 243000000   0.23930448    -8.2246362     -7.8656846      0.25350956     50218.233      36.893836      36.893836      36.893836    
 244000000   0.23979308    -8.2249873     -7.8653028      0.26237908     50218.233      36.893836      36.893836      36.893836    
 245000000   0.2398799     -8.2233667     -7.863552       0.26891935     50218.233      36.893836      36.893836      36.893836    
 246000000   0.24073691    -8.2231833     -7.8620831      0.27161107     50218.233      36.893836      36.893836      36.893836    
 247000000   0.24012481    -8.2244646     -7.8642825      0.26251679     50218.233      36.893836      36.893836      36.893836    
 248000000   0.2407638     -8.2262581     -7.8651175      0.25194488     50218.233      36.893836      36.893836      36.893836    
 249000000   0.24013446    -8.2259508     -7.8657543      0.25241812     50218.233      36.893836      36.893836      36.893836    
 250000000   0.24094373    -8.2248767     -7.8634662      0.25514955     50218.233      36.893836      36.893836      36.893836    
 251000000   0.23944269    -8.2255591     -7.8664002      0.24727741     50218.233      36.893836      36.893836      36.893836    
 252000000   0.2381473     -8.2232786     -7.8660628      0.26502079     50218.233      36.893836      36.893836      36.893836    
 253000000   0.24113544    -8.2252046     -7.8635066      0.25292934     50218.233      36.893836      36.893836      36.893836    
 254000000   0.24034866    -8.2244009     -7.863883       0.26150657     50218.233      36.893836      36.893836      36.893836    
 255000000   0.24111445    -8.2264877     -7.8648212      0.24002121     50218.233      36.893836      36.893836      36.893836    
 256000000   0.24034567    -8.2233892     -7.8628758      0.2724639      50218.233      36.893836      36.893836      36.893836    
 257000000   0.23852949    -8.2253508     -7.8675617      0.24713744     50218.233      36.893836      36.893836      36.893836    
 258000000   0.23875864    -8.2246742     -7.8665413      0.25240886     50218.233      36.893836      36.893836      36.893836    
 259000000   0.23997401    -8.2244047     -7.8644488      0.25533932     50218.233      36.893836      36.893836      36.893836    
 260000000   0.23958697    -8.2236343     -7.864259       0.26557919     50218.233      36.893836      36.893836      36.893836    
 261000000   0.24012069    -8.2232994     -7.8631235      0.26802763     50218.233      36.893836      36.893836      36.893836    
 262000000   0.24037585    -8.2224951     -7.8619365      0.27625263     50218.233      36.893836      36.893836      36.893836    
 263000000   0.23972331    -8.2237603     -7.8641804      0.2669891      50218.233      36.893836      36.893836      36.893836    
 264000000   0.23983314    -8.2229727     -7.8632281      0.26520502     50218.233      36.893836      36.893836      36.893836    
 265000000   0.2410924     -8.2235685     -7.8619351      0.26612432     50218.233      36.893836      36.893836      36.893836    
 266000000   0.23969848    -8.2230117     -7.8634691      0.27148084     50218.233      36.893836      36.893836      36.893836    
 267000000   0.24084064    -8.2241411     -7.8628853      0.26375117     50218.233      36.893836      36.893836      36.893836    
 268000000   0.24033835    -8.2232555     -7.8627531      0.26896279     50218.233      36.893836      36.893836      36.893836    
 269000000   0.23952851    -8.223074      -7.8637863      0.27409281     50218.233      36.893836      36.893836      36.893836    
 270000000   0.24076232    -8.2215532     -7.8604149      0.27451532     50218.233      36.893836      36.893836      36.893836    
 271000000   0.24009138    -8.2237622     -7.8636303      0.26452395     50218.233      36.893836      36.893836      36.893836    
 272000000   0.24093789    -8.2216893     -7.8602876      0.28385223     50218.233      36.893836      36.893836      36.893836    
 273000000   0.23936807    -8.2231513     -7.8641043      0.26457472     50218.233      36.893836      36.893836      36.893836    
 274000000   0.23793348    -8.2233197     -7.8664245      0.26442125     50218.233      36.893836      36.893836      36.893836    
 275000000   0.23959837    -8.2209512     -7.8615588      0.2893851      50218.233      36.893836      36.893836      36.893836    
 276000000   0.23975258    -8.2232144     -7.8635906      0.26341172     50218.233      36.893836      36.893836      36.893836    
 277000000   0.23964874    -8.2224303     -7.8629623      0.27674027     50218.233      36.893836      36.893836      36.893836    
 278000000   0.23980724    -8.2226335     -7.8629277      0.27100805     50218.233      36.893836      36.893836      36.893836    
 279000000   0.24044866    -8.2238043     -7.8631364      0.26577615     50218.233      36.893836      36.893836      36.893836    
 280000000   0.2404        -8.2238338     -7.863239       0.26326568     50218.233      36.893836      36.893836      36.893836    
 281000000   0.23909296    -8.2225945     -7.8639601      0.27366559     50218.233      36.893836      36.893836      36.893836    
 282000000   0.23995053    -8.2227034     -7.8627827      0.27418834     50218.233      36.893836      36.893836      36.893836    
 283000000   0.2395424     -8.2232102     -7.8639017      0.26783607     50218.233      36.893836      36.893836      36.893836    
 284000000   0.24033109    -8.2240532     -7.8635617      0.26811013     50218.233      36.893836      36.893836      36.893836    
 285000000   0.24001111    -8.2219099     -7.8618983      0.28025971     50218.233      36.893836      36.893836      36.893836    
 286000000   0.23969326    -8.2227469     -7.8632121      0.27274162     50218.233      36.893836      36.893836      36.893836    
 287000000   0.24043192    -8.2223171     -7.8616743      0.28022908     50218.233      36.893836      36.893836      36.893836    
 288000000   0.23980818    -8.2236968     -7.8639897      0.26856764     50218.233      36.893836      36.893836      36.893836    
 289000000   0.2399994     -8.2236144     -7.8636205      0.26500253     50218.233      36.893836      36.893836      36.893836    
 290000000   0.23844903    -8.2228568     -7.8651884      0.26620094     50218.233      36.893836      36.893836      36.893836    
 291000000   0.23932987    -8.2230865     -7.8640968      0.26303119     50218.233      36.893836      36.893836      36.893836    
 292000000   0.24009084    -8.2238725     -7.8637414      0.26008951     50218.233      36.893836      36.893836      36.893836    
 293000000   0.24055643    -8.224294      -7.8634645      0.26093331     50218.233      36.893836      36.893836      36.893836    
 294000000   0.2405549     -8.2250616     -7.8642344      0.24952453     50218.233      36.893836      36.893836      36.893836    
 295000000   0.23996703    -8.2231043     -7.8631589      0.26816088     50218.233      36.893836      36.893836      36.893836    
 296000000   0.2414819     -8.2246022     -7.8623845      0.26320911     50218.233      36.893836      36.893836      36.893836    
 297000000   0.23943083    -8.2245642     -7.8654231      0.25462749     50218.233      36.893836      36.893836      36.893836    
 298000000   0.23971713    -8.2262888     -7.8667183      0.24585209     50218.233      36.893836      36.893836      36.893836    
 299000000   0.24041693    -8.2237956     -7.8631754      0.26594149     50218.233      36.893836      36.893836      36.893836    
 300000000   0.23927386    -8.225574      -7.8666683      0.25491896     50218.233      36.893836      36.893836      36.893836    
 301000000   0.23966568    -8.2246289     -7.8651355      0.25401116     50218.233      36.893836      36.893836      36.893836    
 302000000   0.24046778    -8.2247343     -7.8640377      0.25730979     50218.233      36.893836      36.893836      36.893836    
 303000000   0.23957237    -8.2240117     -7.8646582      0.26053583     50218.233      36.893836      36.893836      36.893836    
 304000000   0.23985294    -8.2226957     -7.8629214      0.26965639     50218.233      36.893836      36.893836      36.893836    
 305000000   0.24016062    -8.2227007     -7.8624649      0.27334166     50218.233      36.893836      36.893836      36.893836    
 306000000   0.23942999    -8.2253193     -7.8661795      0.2551328      50218.233      36.893836      36.893836      36.893836    
 307000000   0.23996582    -8.2244766     -7.864533       0.25767847     50218.233      36.893836      36.893836      36.893836    
 308000000   0.24154969    -8.2239194     -7.8616         0.27107506     50218.233      36.893836      36.893836      36.893836    
 309000000   0.24055093    -8.2224139     -7.8615926      0.27141202     50218.233      36.893836      36.893836      36.893836    
 310000000   0.23956773    -8.2253057     -7.8659592      0.25304319     50218.233      36.893836      36.893836      36.893836    
 311000000   0.23981282    -8.2224288     -7.8627147      0.27422973     50218.233      36.893836      36.893836      36.893836    
 312000000   0.24180031    -8.2252744     -7.862579       0.25420931     50218.233      36.893836      36.893836      36.893836    
 313000000   0.23996609    -8.2241834     -7.8642394      0.2598102      50218.233      36.893836      36.893836      36.893836    
 314000000   0.23912634    -8.2218275     -7.8631431      0.27958118     50218.233      36.893836      36.893836      36.893836    
 315000000   0.24045493    -8.2211391     -7.8604618      0.28998473     50218.233      36.893836      36.893836      36.893836    
 316000000   0.24125301    -8.2236007     -7.8617263      0.27017425     50218.233      36.893836      36.893836      36.893836    
 317000000   0.24010572    -8.2228683     -7.8627148      0.27446583     50218.233      36.893836      36.893836      36.893836    
 318000000   0.24039984    -8.2252253     -7.8646307      0.25226702     50218.233      36.893836      36.893836      36.893836    
 319000000   0.24026847    -8.2228087     -7.8624111      0.26868733     50218.233      36.893836      36.893836      36.893836    
 320000000   0.24066281    -8.2213979     -7.8604089      0.27704748     50218.233      36.893836      36.893836      36.893836    
 321000000   0.24053586    -8.2223079     -7.8615092      0.27176772     50218.233      36.893836      36.893836      36.893836    
 322000000   0.24022899    -8.222311      -7.8619726      0.27065969     50218.233      36.893836      36.893836      36.893836    
 323000000   0.23963089    -8.2215114     -7.8620702      0.27012129     50218.233      36.893836      36.893836      36.893836    
 324000000   0.23971487    -8.2227684     -7.8632012      0.27239072     50218.233      36.893836      36.893836      36.893836    
 325000000   0.2403208     -8.2234991     -7.863023       0.26244625     50218.233      36.893836      36.893836      36.893836    
 326000000   0.23991893    -8.2232382     -7.8633649      0.2606903      50218.233      36.893836      36.893836      36.893836    
 327000000   0.24002475    -8.2226216     -7.8625896      0.27222281     50218.233      36.893836      36.893836      36.893836    
 328000000   0.23968903    -8.2233263     -7.8637979      0.27900924     50218.233      36.893836      36.893836      36.893836    
 329000000   0.2404564     -8.2224116     -7.8617322      0.27194161     50218.233      36.893836      36.893836      36.893836    
 330000000   0.24104077    -8.2221879     -7.8606319      0.27709793     50218.233      36.893836      36.893836      36.893836    
 331000000   0.24039044    -8.221377      -7.8607964      0.28012035     50218.233      36.893836      36.893836      36.893836    
 332000000   0.24078642    -8.2230102     -7.8618357      0.27224767     50218.233      36.893836      36.893836      36.893836    
 333000000   0.23985154    -8.224631      -7.8648588      0.26006624     50218.233      36.893836      36.893836      36.893836    
 334000000   0.23970966    -8.2232473     -7.863688       0.26469854     50218.233      36.893836      36.893836      36.893836    
 335000000   0.238702      -8.2203904     -7.8623425      0.29246276     50218.233      36.893836      36.893836      36.893836    
 336000000   0.2397712     -8.2216157     -7.861964       0.27696992     50218.233      36.893836      36.893836      36.893836    
 337000000   0.24016106    -8.2237396     -7.8635031      0.26276126     50218.233      36.893836      36.893836      36.893836    
 338000000   0.23924355    -8.2235755     -7.8647153      0.25789699     50218.233      36.893836      36.893836      36.893836    
 339000000   0.23855302    -8.2246107     -7.8667862      0.25700911     50218.233      36.893836      36.893836      36.893836    
 340000000   0.23956659    -8.2238502     -7.8645054      0.25272684     50218.233      36.893836      36.893836      36.893836    
 341000000   0.23955135    -8.2237401     -7.8644182      0.26608213     50218.233      36.893836      36.893836      36.893836    
 342000000   0.23920042    -8.2244131     -7.8656176      0.2560326      50218.233      36.893836      36.893836      36.893836    
 343000000   0.23896147    -8.2220474     -7.8636103      0.27410427     50218.233      36.893836      36.893836      36.893836    
 344000000   0.24137396    -8.2231316     -7.8610758      0.27115548     50218.233      36.893836      36.893836      36.893836    
 345000000   0.23954944    -8.224751      -7.8654319      0.25616245     50218.233      36.893836      36.893836      36.893836    
 346000000   0.24067165    -8.2233983     -7.862396       0.26339528     50218.233      36.893836      36.893836      36.893836    
 347000000   0.24097943    -8.2224146     -7.8609506      0.27988433     50218.233      36.893836      36.893836      36.893836    
 348000000   0.23969526    -8.224517      -7.8649792      0.25539444     50218.233      36.893836      36.893836      36.893836    
 349000000   0.23918924    -8.2254475     -7.8666687      0.25267836     50218.233      36.893836      36.893836      36.893836    
 350000000   0.23976657    -8.2229536     -7.8633089      0.26644806     50218.233      36.893836      36.893836      36.893836    
 351000000   0.24003969    -8.2240274     -7.8639729      0.26570062     50218.233      36.893836      36.893836      36.893836    
 352000000   0.23881319    -8.2241108     -7.8658961      0.26643172     50218.233      36.893836      36.893836      36.893836    
 353000000   0.23810532    -8.2240018     -7.8668489      0.25333661     50218.233      36.893836      36.893836      36.893836    
 354000000   0.24095794    -8.2249723     -7.8635405      0.25445842     50218.233      36.893836      36.893836      36.893836    
 355000000   0.24095201    -8.2234485     -7.8620256      0.26670762     50218.233      36.893836      36.893836      36.893836    
 356000000   0.24075567    -8.2242011     -7.8630727      0.25315494     50218.233      36.893836      36.893836      36.893836    
 357000000   0.24163185    -8.2225532     -7.8601105      0.27888009     50218.233      36.893836      36.893836      36.893836    
 358000000   0.23872809    -8.2221007     -7.8640137      0.26491969     50218.233      36.893836      36.893836      36.893836    
 359000000   0.23962139    -8.2222388     -7.8628118      0.27495795     50218.233      36.893836      36.893836      36.893836    
 360000000   0.24085729    -8.2241387     -7.8628579      0.25846138     50218.233      36.893836      36.893836      36.893836    
 361000000   0.23993105    -8.223568      -7.8636766      0.26227783     50218.233      36.893836      36.893836      36.893836    
 362000000   0.24076902    -8.2224979     -7.8613495      0.27421421     50218.233      36.893836      36.893836      36.893836    
 363000000   0.24110305    -8.2217451     -7.8600956      0.28111409     50218.233      36.893836      36.893836      36.893836    
 364000000   0.23918948    -8.2246183     -7.8658392      0.25926265     50218.233      36.893836      36.893836      36.893836    
 365000000   0.23994424    -8.2243155     -7.8644043      0.25887466     50218.233      36.893836      36.893836      36.893836    
 366000000   0.24005381    -8.2242031     -7.8641275      0.2543609      50218.233      36.893836      36.893836      36.893836    
 367000000   0.24025109    -8.2200183     -7.8596468      0.29513072     50218.233      36.893836      36.893836      36.893836    
 368000000   0.24005598    -8.2221494     -7.8620705      0.27429899     50218.233      36.893836      36.893836      36.893836    
 369000000   0.24061997    -8.224091      -7.8631662      0.25752393     50218.233      36.893836      36.893836      36.893836    
 370000000   0.23934114    -8.2216565     -7.8626499      0.27462844     50218.233      36.893836      36.893836      36.893836    
 371000000   0.24116027    -8.2235182     -7.8617829      0.27260485     50218.233      36.893836      36.893836      36.893836    
 372000000   0.24079456    -8.2225082     -7.8613215      0.27431395     50218.233      36.893836      36.893836      36.893836    
 373000000   0.24030475    -8.2235974     -7.8631454      0.27036899     50218.233      36.893836      36.893836      36.893836    
 374000000   0.23996291    -8.2247295     -7.8647903      0.25102586     50218.233      36.893836      36.893836      36.893836    
 375000000   0.23952926    -8.2220835     -7.8627947      0.27000067     50218.233      36.893836      36.893836      36.893836    
 376000000   0.23962983    -8.2215166     -7.862077       0.28874112     50218.233      36.893836      36.893836      36.893836    
 377000000   0.24125418    -8.2230398     -7.8611637      0.27348277     50218.233      36.893836      36.893836      36.893836    
 378000000   0.23998825    -8.2233586     -7.8633813      0.26663088     50218.233      36.893836      36.893836      36.893836    
 379000000   0.24065686    -8.2225969     -7.8616167      0.27340331     50218.233      36.893836      36.893836      36.893836    
 380000000   0.24038477    -8.2239622     -7.8633901      0.27023237     50218.233      36.893836      36.893836      36.893836    
 381000000   0.23993305    -8.2220506     -7.8621561      0.27737057     50218.233      36.893836      36.893836      36.893836    
 382000000   0.23980713    -8.2205294     -7.8608238      0.28337144     50218.233      36.893836      36.893836      36.893836    
 383000000   0.23972356    -8.2228238     -7.8632436      0.2689116      50218.233      36.893836      36.893836      36.893836    
 384000000   0.24012049    -8.2220333     -7.8618577      0.28429382     50218.233      36.893836      36.893836      36.893836    
 385000000   0.23994546    -8.2229035     -7.8629904      0.27151343     50218.233      36.893836      36.893836      36.893836    
 386000000   0.23901626    -8.2231649     -7.8646456      0.26540256     50218.233      36.893836      36.893836      36.893836    
 387000000   0.23957973    -8.2238937     -7.8645292      0.25685881     50218.233      36.893836      36.893836      36.893836    
 388000000   0.23992561    -8.2233288     -7.8634455      0.26620396     50218.233      36.893836      36.893836      36.893836    
 389000000   0.23974236    -8.2244792     -7.8648708      0.25725643     50218.233      36.893836      36.893836      36.893836    
 390000000   0.23983955    -8.2249054     -7.8651512      0.25470154     50218.233      36.893836      36.893836      36.893836    
 391000000   0.24098858    -8.225047      -7.8635693      0.25785553     50218.233      36.893836      36.893836      36.893836    
 392000000   0.24069601    -8.2234206     -7.8623817      0.26589697     50218.233      36.893836      36.893836      36.893836    
 393000000   0.23867329    -8.2220835     -7.8640786      0.27169783     50218.233      36.893836      36.893836      36.893836    
 394000000   0.23910007    -8.2240821     -7.8654371      0.26132745     50218.233      36.893836      36.893836      36.893836    
 395000000   0.23984224    -8.2241859     -7.8644276      0.25692201     50218.233      36.893836      36.893836      36.893836    
 396000000   0.23896217    -8.2242359     -7.8657977      0.25610055     50218.233      36.893836      36.893836      36.893836    
 397000000   0.23980303    -8.2242485     -7.8645491      0.25837099     50218.233      36.893836      36.893836      36.893836    
 398000000   0.23937584    -8.2227881     -7.8637295      0.27539492     50218.233      36.893836      36.893836      36.893836    
 399000000   0.23982519    -8.2251382     -7.8654055      0.25989535     50218.233      36.893836      36.893836      36.893836    
 400000000   0.24035611    -8.2275601     -7.867031       0.24107418     50218.233      36.893836      36.893836      36.893836    
 401000000   0.24026016    -8.2244261     -7.864041       0.25781277     50218.233      36.893836      36.893836      36.893836    
 402000000   0.24014348    -8.2257417     -7.8655316      0.24807478     50218.233      36.893836      36.893836      36.893836    
 403000000   0.24034699    -8.2248052     -7.8642898      0.25198923     50218.233      36.893836      36.893836      36.893836    
 404000000   0.23986549    -8.2243426     -7.8645494      0.25435288     50218.233      36.893836      36.893836      36.893836    
 405000000   0.23991157    -8.2236758     -7.8638136      0.26490327     50218.233      36.893836      36.893836      36.893836    
 406000000   0.23981887    -8.2247717     -7.8650485      0.25483702     50218.233      36.893836      36.893836      36.893836    
 407000000   0.2398909     -8.2245407     -7.8647094      0.25925685     50218.233      36.893836      36.893836      36.893836    
 408000000   0.23825903    -8.2239319     -7.8665484      0.25449542     50218.233      36.893836      36.893836      36.893836    
 409000000   0.23876975    -8.2241465     -7.8659969      0.2611931      50218.233      36.893836      36.893836      36.893836    
 410000000   0.24061401    -8.2226566     -7.8617407      0.27514518     50218.233      36.893836      36.893836      36.893836    
 411000000   0.23905583    -8.2254278     -7.8668491      0.24093719     50218.233      36.893836      36.893836      36.893836    
 412000000   0.23946582    -8.2232088     -7.8640152      0.25748092     50218.233      36.893836      36.893836      36.893836    
 413000000   0.24023704    -8.2247082     -7.8643577      0.25873215     50218.233      36.893836      36.893836      36.893836    
 414000000   0.24107324    -8.223303      -7.8616983      0.26988856     50218.233      36.893836      36.893836      36.893836    
 415000000   0.23961261    -8.2220886     -7.8626748      0.27430031     50218.233      36.893836      36.893836      36.893836    
 416000000   0.23979668    -8.2222362     -7.8625463      0.27590341     50218.233      36.893836      36.893836      36.893836    
 417000000   0.24047783    -8.2226511     -7.8619394      0.27503988     50218.233      36.893836      36.893836      36.893836    
 418000000   0.23834652    -8.221799      -7.8642843      0.2803373      50218.233      36.893836      36.893836      36.893836    
 419000000   0.23930045    -8.22405       -7.8651044      0.26840155     50218.233      36.893836      36.893836      36.893836    
 420000000   0.23956409    -8.2229834     -7.8636423      0.2769463      50218.233      36.893836      36.893836      36.893836    
 421000000   0.23992118    -8.2222803     -7.8624036      0.2684136      50218.233      36.893836      36.893836      36.893836    
 422000000   0.23996272    -8.2228296     -7.8628906      0.26834555     50218.233      36.893836      36.893836      36.893836    
 423000000   0.24003468    -8.2234078     -7.8633609      0.26535373     50218.233      36.893836      36.893836      36.893836    
 424000000   0.24085678    -8.2237016     -7.8624216      0.26568296     50218.233      36.893836      36.893836      36.893836    
 425000000   0.23845181    -8.2215131     -7.8638405      0.28180356     50218.233      36.893836      36.893836      36.893836    
 426000000   0.24084224    -8.2224959     -7.8612377      0.27378172     50218.233      36.893836      36.893836      36.893836    
 427000000   0.24002267    -8.2221347     -7.8621059      0.28039905     50218.233      36.893836      36.893836      36.893836    
 428000000   0.23975651    -8.2223784     -7.8627487      0.28178192     50218.233      36.893836      36.893836      36.893836    
 429000000   0.23990576    -8.2241428     -7.8642893      0.25760318     50218.233      36.893836      36.893836      36.893836    
 430000000   0.24185989    -8.2232856     -7.860501       0.2676187      50218.233      36.893836      36.893836      36.893836    
 431000000   0.2396815     -8.2198097     -7.8602926      0.29757232     50218.233      36.893836      36.893836      36.893836    
 432000000   0.23988868    -8.2231232     -7.8632953      0.27458198     50218.233      36.893836      36.893836      36.893836    
 433000000   0.2397905     -8.2238391     -7.8641585      0.2697035      50218.233      36.893836      36.893836      36.893836    
 434000000   0.24030819    -8.2239742     -7.8635171      0.26312678     50218.233      36.893836      36.893836      36.893836    
 435000000   0.2382135     -8.2234147     -7.8660996      0.26520286     50218.233      36.893836      36.893836      36.893836    
 436000000   0.2407367     -8.2250097     -7.8639098      0.25743045     50218.233      36.893836      36.893836      36.893836    
 437000000   0.23972513    -8.2225749     -7.8629923      0.27287222     50218.233      36.893836      36.893836      36.893836    
 438000000   0.24002563    -8.2241737     -7.8641404      0.26328717     50218.233      36.893836      36.893836      36.893836    
 439000000   0.23848953    -8.2217003     -7.8639711      0.27650868     50218.233      36.893836      36.893836      36.893836    
 440000000   0.23991103    -8.2239047     -7.8640433      0.26745573     50218.233      36.893836      36.893836      36.893836    
 441000000   0.24029851    -8.2242892     -7.8638465      0.25495041     50218.233      36.893836      36.893836      36.893836    
 442000000   0.24062413    -8.2220617     -7.8611306      0.27480262     50218.233      36.893836      36.893836      36.893836    
 443000000   0.24061359    -8.2223757     -7.8614604      0.27979165     50218.233      36.893836      36.893836      36.893836    
 444000000   0.24108325    -8.2223694     -7.8607497      0.27556872     50218.233      36.893836      36.893836      36.893836    
 445000000   0.24023683    -8.2243759     -7.8640258      0.25900496     50218.233      36.893836      36.893836      36.893836    
 446000000   0.23950622    -8.2237932     -7.864539       0.26468878     50218.233      36.893836      36.893836      36.893836    
 447000000   0.24050632    -8.2236118     -7.8628574      0.27075493     50218.233      36.893836      36.893836      36.893836    
 448000000   0.23870741    -8.2247261     -7.86667        0.25681826     50218.233      36.893836      36.893836      36.893836    
 449000000   0.24000808    -8.2240599     -7.8640529      0.25866389     50218.233      36.893836      36.893836      36.893836    
 450000000   0.23968246    -8.2238455     -7.864327       0.25853823     50218.233      36.893836      36.893836      36.893836    
 451000000   0.23993223    -8.2243258     -7.8644325      0.26037486     50218.233      36.893836      36.893836      36.893836    
 452000000   0.23953324    -8.224074      -7.8647792      0.25794789     50218.233      36.893836      36.893836      36.893836    
 453000000   0.24073848    -8.2231857     -7.8620832      0.27630354     50218.233      36.893836      36.893836      36.893836    
 454000000   0.2395089     -8.2253168     -7.8660586      0.25105872     50218.233      36.893836      36.893836      36.893836    
 455000000   0.23823368    -8.2209342     -7.8635888      0.28285417     50218.233      36.893836      36.893836      36.893836    
 456000000   0.23829007    -8.2252264     -7.8677963      0.25127531     50218.233      36.893836      36.893836      36.893836    
 457000000   0.23981019    -8.2241962     -7.8644861      0.26290254     50218.233      36.893836      36.893836      36.893836    
 458000000   0.23926485    -8.2231897     -7.8642976      0.26562054     50218.233      36.893836      36.893836      36.893836    
 459000000   0.24029235    -8.223799      -7.8633656      0.26150361     50218.233      36.893836      36.893836      36.893836    
 460000000   0.24009369    -8.2255374     -7.865402       0.25161589     50218.233      36.893836      36.893836      36.893836    
 461000000   0.24012126    -8.223851      -7.8636742      0.25591278     50218.233      36.893836      36.893836      36.893836    
 462000000   0.23947118    -8.2223914     -7.8631898      0.26779589     50218.233      36.893836      36.893836      36.893836    
 463000000   0.23992864    -8.2236113     -7.8637235      0.26060235     50218.233      36.893836      36.893836      36.893836    
 464000000   0.24026438    -8.2250573     -7.8646659      0.24978714     50218.233      36.893836      36.893836      36.893836    
 465000000   0.24088763    -8.2214415     -7.8601152      0.28072813     50218.233      36.893836      36.893836      36.893836    
 466000000   0.23989333    -8.2240229     -7.864188       0.26304781     50218.233      36.893836      36.893836      36.893836    
 467000000   0.2390741     -8.2236047     -7.8649987      0.26681525     50218.233      36.893836      36.893836      36.893836    
 468000000   0.24018453    -8.2225099     -7.8622383      0.27441452     50218.233      36.893836      36.893836      36.893836    
 469000000   0.23993776    -8.2226373     -7.8627358      0.27523849     50218.233      36.893836      36.893836      36.893836    
 470000000   0.24055196    -8.2227664     -7.8619436      0.27129767     50218.233      36.893836      36.893836      36.893836    
 471000000   0.23975125    -8.2235515     -7.8639297      0.26284834     50218.233      36.893836      36.893836      36.893836    
 472000000   0.24009887    -8.2222876     -7.8621444      0.27618718     50218.233      36.893836      36.893836      36.893836    
 473000000   0.24081994    -8.2230858     -7.861861       0.27159399     50218.233      36.893836      36.893836      36.893836    
 474000000   0.24018419    -8.223107      -7.8628358      0.27059802     50218.233      36.893836      36.893836      36.893836    
 475000000   0.24053662    -8.2211684     -7.8603686      0.28999525     50218.233      36.893836      36.893836      36.893836    
 476000000   0.23910225    -8.222393      -7.8637447      0.27155945     50218.233      36.893836      36.893836      36.893836    
 477000000   0.24078575    -8.2249467     -7.8637732      0.25447021     50218.233      36.893836      36.893836      36.893836    
 478000000   0.24057574    -8.2231465     -7.8622881      0.26622275     50218.233      36.893836      36.893836      36.893836    
 479000000   0.24051998    -8.22259       -7.8618152      0.26327459     50218.233      36.893836      36.893836      36.893836    
 480000000   0.24067653    -8.2246693     -7.8636596      0.25785831     50218.233      36.893836      36.893836      36.893836    
 481000000   0.2407326     -8.224019      -7.8629252      0.25593915     50218.233      36.893836      36.893836      36.893836    
 482000000   0.23987617    -8.2233512     -7.8635421      0.26387396     50218.233      36.893836      36.893836      36.893836    
 483000000   0.24028099    -8.2232956     -7.8628793      0.26659939     50218.233      36.893836      36.893836      36.893836    
 484000000   0.24068495    -8.2238392     -7.8628169      0.2631654      50218.233      36.893836      36.893836      36.893836    
 485000000   0.23932867    -8.2249906     -7.8660027      0.25877255     50218.233      36.893836      36.893836      36.893836    
 486000000   0.24054237    -8.2228191     -7.8620107      0.2659383      50218.233      36.893836      36.893836      36.893836    
 487000000   0.23994315    -8.2231581     -7.8632485      0.26630699     50218.233      36.893836      36.893836      36.893836    
 488000000   0.24027645    -8.2234883     -7.8630787      0.26170263     50218.233      36.893836      36.893836      36.893836    
 489000000   0.23941321    -8.2232293     -7.8641146      0.26819749     50218.233      36.893836      36.893836      36.893836    
 490000000   0.23981867    -8.2237715     -7.8640486      0.25422049     50218.233      36.893836      36.893836      36.893836    
 491000000   0.24021725    -8.2224973     -7.8621766      0.27122099     50218.233      36.893836      36.893836      36.893836    
 492000000   0.24106654    -8.2244219     -7.8628273      0.25699541     50218.233      36.893836      36.893836      36.893836    
 493000000   0.23911069    -8.2244702     -7.8658093      0.26276563     50218.233      36.893836      36.893836      36.893836    
 494000000   0.24082792    -8.2212705     -7.8600337      0.2768017      50218.233      36.893836      36.893836      36.893836    
 495000000   0.23884212    -8.2240065     -7.8657485      0.2616508      50218.233      36.893836      36.893836      36.893836    
 496000000   0.24028259    -8.2248067     -7.864388       0.25880777     50218.233      36.893836      36.893836      36.893836    
 497000000   0.2400925     -8.2260536     -7.86592        0.24509554     50218.233      36.893836      36.893836      36.893836    
 498000000   0.23989527    -8.2231496     -7.8633118      0.27025545     50218.233      36.893836      36.893836      36.893836    
 499000000   0.24011092    -8.2247136     -7.8645524      0.24577972     50218.233      36.893836      36.893836      36.893836    
 500000000   0.23954541    -8.2230962     -7.8637832      0.26816134     50218.233      36.893836      36.893836      36.893836    
Loop time of 736829 on 5 procs for 500000000 steps with 70304 atoms

Performance: 586295.867 tau/day, 678.583 timesteps/s, 47.707 Matom-step/s
94.2% CPU use with 5 MPI tasks x 1 OpenMP threads

MPI task timing breakdown:
Section |  min time  |  avg time  |  max time  |%varavg| %total
---------------------------------------------------------------
Pair    | 2.3751e+05 | 2.7383e+05 | 3.0457e+05 |4607.4 | 37.16
Neigh   | 1746.5     | 1836       | 2002.6     | 236.7 |  0.25
Comm    | 1.0454e+05 | 1.0534e+05 | 1.0567e+05 | 126.8 | 14.30
Output  | 0.13078    | 0.13422    | 0.13997    |   0.9 |  0.00
Modify  | 2.8872e+05 | 3.1988e+05 | 3.5726e+05 |4353.3 | 43.41
Other   |            | 3.595e+04  |            |       |  4.88

Nlocal:        14060.8 ave       14124 max       14017 min
Histogram: 2 0 0 1 0 0 1 0 0 1
Nghost:        18743.8 ave       18809 max       18701 min
Histogram: 2 0 1 0 0 0 0 1 0 1
Neighs:              0 ave           0 max           0 min
Histogram: 5 0 0 0 0 0 0 0 0 0

Total # of neighbors = 0
Ave neighs/atom = 0
Neighbor list builds = 72647159
Dangerous builds = 0
Total wall time: 1509:36:34
