variable TLJ equal (${T}/1000)
variable TLJ equal (280/1000)
variable NCyle equal 5
variable iStep equal (${f})
variable iStep equal (1000000)
variable dumpStep equal (${f}*100)
variable dumpStep equal (1000000*100)
variable runStep equal (${f}*100*${NCyle})
variable runStep equal (1000000*100*${NCyle})
variable runStep equal (1000000*100*5)

units       lj
atom_style  atomic
dimension 3
boundary     p p p
pair_style  lj/cut 2.5
read_data  ../data/T${T}.dat
read_data  ../data/T280.dat
Reading data file ...
  orthogonal box = (0.97250269 0.97250269 0.97250269) to (37.866338 37.866338 37.866338)
  1 by 1 by 5 MPI processor grid
  reading atoms ...
  70304 atoms
  reading velocities ...
  70304 velocities
  read_data CPU = 0.209 seconds
change_box all triclinic
Changing box ...
  triclinic box = (0.97250269 0.97250269 0.97250269) to (37.866338 37.866338 37.866338) with tilt (0 0 0)
mass 1 1
mass 2 1
pair_modify shift yes
pair_coeff  1 1 1 1
pair_coeff  1 2 1.5 0.8
pair_coeff  2 2 0.5 0.88


timestep 0.01
thermo ${iStep}
thermo 1000000
reset_timestep 0
thermo_style custom step temp pe etotal press vol lx ly lz
fix             1 all nvt temp ${TLJ}  ${TLJ}  0.1
fix             1 all nvt temp 0.28  ${TLJ}  0.1
fix             1 all nvt temp 0.28  0.28  0.1
thermo_modify flush yes

fix dsf all deform 1 xy  wiggle 0.5  ${f}   units box
fix dsf all deform 1 xy  wiggle 0.5  1000000   units box
fix ps1 all ave/time 1 1 ${iStep} c_thermo_press[1] c_thermo_press[2]  c_thermo_press[3] c_thermo_press[4]  c_thermo_press[5] c_thermo_press[6]  file  stress.${T}
fix ps1 all ave/time 1 1 1000000 c_thermo_press[1] c_thermo_press[2]  c_thermo_press[3] c_thermo_press[4]  c_thermo_press[5] c_thermo_press[6]  file  stress.${T}
fix ps1 all ave/time 1 1 1000000 c_thermo_press[1] c_thermo_press[2]  c_thermo_press[3] c_thermo_press[4]  c_thermo_press[5] c_thermo_press[6]  file  stress.280
dump            1 all custom ${dumpStep} dump.${T} id type x y z
dump            1 all custom 100000000 dump.${T} id type x y z
dump            1 all custom 100000000 dump.280 id type x y z
dump_modify 1 sort id
fix nodrift all momentum 1  linear 1 1 1
fix com_seed all recenter INIT INIT INIT shift all
run ${runStep}
run 500000000
Generated 0 of 1 mixed pair_coeff terms from geometric mixing rule
Per MPI rank memory allocation (min/avg/max) = 8.915 | 8.919 | 8.922 Mbytes
   Step          Temp          PotEng         TotEng         Press          Volume           Lx             Ly             Lz      
         0   0.2807277     -8.167219      -7.7461335      0.74754833     50218.233      36.893836      36.893836      36.893836    
   1000000   0.28044733    -8.1658838     -7.7452188      0.74552437     50218.233      36.893836      36.893836      36.893836    
   2000000   0.27957324    -8.1644405     -7.7450866      0.76544234     50218.233      36.893836      36.893836      36.893836    
   3000000   0.28045323    -8.1661617     -7.7454878      0.74941027     50218.233      36.893836      36.893836      36.893836    
   4000000   0.28036675    -8.1649048     -7.7443607      0.75582261     50218.233      36.893836      36.893836      36.893836    
   5000000   0.28016473    -8.1663775     -7.7461364      0.74704535     50218.233      36.893836      36.893836      36.893836    
   6000000   0.27946473    -8.1664136     -7.7472225      0.7403027      50218.233      36.893836      36.893836      36.893836    
   7000000   0.28060338    -8.1631876     -7.7422885      0.76962769     50218.233      36.893836      36.893836      36.893836    
   8000000   0.27980942    -8.1644854     -7.7447773      0.76034635     50218.233      36.893836      36.893836      36.893836    
   9000000   0.2797392     -8.167167      -7.7475642      0.73863241     50218.233      36.893836      36.893836      36.893836    
  10000000   0.27919469    -8.1644772     -7.7456912      0.75321153     50218.233      36.893836      36.893836      36.893836    
  11000000   0.2804765     -8.166466      -7.7457572      0.74207657     50218.233      36.893836      36.893836      36.893836    
  12000000   0.27937879    -8.1662423     -7.74718        0.74298731     50218.233      36.893836      36.893836      36.893836    
  13000000   0.28045949    -8.1648947     -7.7442115      0.75645352     50218.233      36.893836      36.893836      36.893836    
  14000000   0.2797304     -8.1649604     -7.7453708      0.75700701     50218.233      36.893836      36.893836      36.893836    
  15000000   0.28009407    -8.1681651     -7.74803        0.72903135     50218.233      36.893836      36.893836      36.893836    
  16000000   0.28080775    -8.1633185     -7.7421129      0.76968645     50218.233      36.893836      36.893836      36.893836    
  17000000   0.2798722     -8.1627258     -7.7429234      0.77186361     50218.233      36.893836      36.893836      36.893836    
  18000000   0.28045978    -8.1652705     -7.7445868      0.75626192     50218.233      36.893836      36.893836      36.893836    
  19000000   0.28089447    -8.1636575     -7.7423218      0.77730074     50218.233      36.893836      36.893836      36.893836    
  20000000   0.28008761    -8.1635848     -7.7434594      0.76445346     50218.233      36.893836      36.893836      36.893836    
  21000000   0.27885431    -8.1666758     -7.7484002      0.74254977     50218.233      36.893836      36.893836      36.893836    
  22000000   0.28176486    -8.1643355     -7.7416942      0.76517879     50218.233      36.893836      36.893836      36.893836    
  23000000   0.27991501    -8.1660259     -7.7461594      0.74667863     50218.233      36.893836      36.893836      36.893836    
  24000000   0.27974233    -8.1655984     -7.7459909      0.74959598     50218.233      36.893836      36.893836      36.893836    
  25000000   0.27926511    -8.1648684     -7.7459767      0.74968028     50218.233      36.893836      36.893836      36.893836    
  26000000   0.28037836    -8.1672078     -7.7466463      0.7451361      50218.233      36.893836      36.893836      36.893836    
  27000000   0.28024318    -8.1653043     -7.7449455      0.7613032      50218.233      36.893836      36.893836      36.893836    
  28000000   0.28098644    -8.1652311     -7.7437574      0.76176885     50218.233      36.893836      36.893836      36.893836    
  29000000   0.28032589    -8.1661114     -7.7456286      0.74705532     50218.233      36.893836      36.893836      36.893836    
  30000000   0.27993699    -8.1653297     -7.7454302      0.74708228     50218.233      36.893836      36.893836      36.893836    
  31000000   0.27874787    -8.1640314     -7.7459155      0.75908835     50218.233      36.893836      36.893836      36.893836    
  32000000   0.2792574     -8.1658753     -7.7469951      0.74910066     50218.233      36.893836      36.893836      36.893836    
  33000000   0.27933108    -8.1635696     -7.7445789      0.76455378     50218.233      36.893836      36.893836      36.893836    
  34000000   0.27943999    -8.1656965     -7.7465425      0.74464506     50218.233      36.893836      36.893836      36.893836    
  35000000   0.27923897    -8.1633662     -7.7445137      0.77258622     50218.233      36.893836      36.893836      36.893836    
  36000000   0.28131213    -8.1624675     -7.7405053      0.78007526     50218.233      36.893836      36.893836      36.893836    
  37000000   0.2798859     -8.1648137     -7.7449908      0.75835797     50218.233      36.893836      36.893836      36.893836    
  38000000   0.279735      -8.1655128     -7.7459162      0.74903385     50218.233      36.893836      36.893836      36.893836    
  39000000   0.27883438    -8.1653418     -7.7470962      0.75339661     50218.233      36.893836      36.893836      36.893836    
  40000000   0.28147597    -8.1644546     -7.7422466      0.75861314     50218.233      36.893836      36.893836      36.893836    
  41000000   0.27884661    -8.1641816     -7.7459176      0.76894807     50218.233      36.893836      36.893836      36.893836    
  42000000   0.28029435    -8.1671855     -7.74675        0.73423844     50218.233      36.893836      36.893836      36.893836    
  43000000   0.281712      -8.1640876     -7.7415256      0.75905992     50218.233      36.893836      36.893836      36.893836    
  44000000   0.28021199    -8.1647835     -7.7444715      0.75928113     50218.233      36.893836      36.893836      36.893836    
  45000000   0.27955191    -8.1640982     -7.7447763      0.76352104     50218.233      36.893836      36.893836      36.893836    
  46000000   0.28217873    -8.1671461     -7.743884       0.73906286     50218.233      36.893836      36.893836      36.893836    
  47000000   0.28003794    -8.1650416     -7.7449906      0.75306925     50218.233      36.893836      36.893836      36.893836    
  48000000   0.27826931    -8.1653401     -7.7479421      0.74596458     50218.233      36.893836      36.893836      36.893836    
  49000000   0.27977849    -8.1667544     -7.7470926      0.74526484     50218.233      36.893836      36.893836      36.893836    
  50000000   0.27994842    -8.1661825     -7.7462659      0.74750249     50218.233      36.893836      36.893836      36.893836    
  51000000   0.27940971    -8.1645788     -7.7454702      0.7490782      50218.233      36.893836      36.893836      36.893836    
  52000000   0.28001949    -8.1663557     -7.7463324      0.7377716      50218.233      36.893836      36.893836      36.893836    
  53000000   0.27868412    -8.1660356     -7.7480154      0.74872067     50218.233      36.893836      36.893836      36.893836    
  54000000   0.28001424    -8.1660171     -7.7460017      0.75275628     50218.233      36.893836      36.893836      36.893836    
  55000000   0.28003348    -8.1657224     -7.7456782      0.75192605     50218.233      36.893836      36.893836      36.893836    
  56000000   0.2776259     -8.1664176     -7.7499847      0.73943322     50218.233      36.893836      36.893836      36.893836    
  57000000   0.28011384    -8.1630882     -7.7429234      0.77847341     50218.233      36.893836      36.893836      36.893836    
  58000000   0.2800464     -8.1653676     -7.745304       0.75975562     50218.233      36.893836      36.893836      36.893836    
  59000000   0.28007545    -8.1651331     -7.7450259      0.76310344     50218.233      36.893836      36.893836      36.893836    
  60000000   0.27892694    -8.1673873     -7.7490028      0.73976541     50218.233      36.893836      36.893836      36.893836    
  61000000   0.27916202    -8.1654682     -7.7467311      0.75038678     50218.233      36.893836      36.893836      36.893836    
  62000000   0.27953035    -8.1647511     -7.7454615      0.75055953     50218.233      36.893836      36.893836      36.893836    
  63000000   0.27973846    -8.1655882     -7.7459864      0.75631915     50218.233      36.893836      36.893836      36.893836    
  64000000   0.2802425     -8.1660463     -7.7456885      0.75109202     50218.233      36.893836      36.893836      36.893836    
  65000000   0.2794876     -8.1682253     -7.7489998      0.73125828     50218.233      36.893836      36.893836      36.893836    
  66000000   0.2788969     -8.1634897     -7.7451503      0.76936559     50218.233      36.893836      36.893836      36.893836    
  67000000   0.27932584    -8.1653309     -7.7463481      0.75643649     50218.233      36.893836      36.893836      36.893836    
  68000000   0.27889742    -8.1662547     -7.7479145      0.73947336     50218.233      36.893836      36.893836      36.893836    
  69000000   0.27900421    -8.164882      -7.7463816      0.75909878     50218.233      36.893836      36.893836      36.893836    
  70000000   0.27912631    -8.1652379     -7.7465544      0.74964131     50218.233      36.893836      36.893836      36.893836    
  71000000   0.27943836    -8.1639472     -7.7447957      0.76865473     50218.233      36.893836      36.893836      36.893836    
  72000000   0.27942608    -8.164216      -7.7450829      0.76463698     50218.233      36.893836      36.893836      36.893836    
  73000000   0.27927859    -8.1670917     -7.7481798      0.74441894     50218.233      36.893836      36.893836      36.893836    
  74000000   0.27972991    -8.1659391     -7.7463502      0.74668586     50218.233      36.893836      36.893836      36.893836    
  75000000   0.27899259    -8.1640514     -7.7455684      0.75564426     50218.233      36.893836      36.893836      36.893836    
  76000000   0.28152636    -8.1643536     -7.7420701      0.75444618     50218.233      36.893836      36.893836      36.893836    
  77000000   0.28106742    -8.164572      -7.7429769      0.76193139     50218.233      36.893836      36.893836      36.893836    
  78000000   0.28064158    -8.1663694     -7.745413       0.74673951     50218.233      36.893836      36.893836      36.893836    
  79000000   0.27818528    -8.1629734     -7.7457014      0.769117       50218.233      36.893836      36.893836      36.893836    
  80000000   0.2808679     -8.162407      -7.7411111      0.77645314     50218.233      36.893836      36.893836      36.893836    
  81000000   0.28119157    -8.1647908     -7.7430094      0.76352032     50218.233      36.893836      36.893836      36.893836    
  82000000   0.28128041    -8.1667138     -7.7447992      0.74203092     50218.233      36.893836      36.893836      36.893836    
  83000000   0.27921138    -8.166098      -7.7472869      0.74704356     50218.233      36.893836      36.893836      36.893836    
  84000000   0.28027116    -8.1643556     -7.7439548      0.76529265     50218.233      36.893836      36.893836      36.893836    
  85000000   0.28118644    -8.1653356     -7.7435619      0.76106901     50218.233      36.893836      36.893836      36.893836    
  86000000   0.28187133    -8.1639691     -7.7411681      0.76290664     50218.233      36.893836      36.893836      36.893836    
  87000000   0.27978934    -8.1658615     -7.7461835      0.75756142     50218.233      36.893836      36.893836      36.893836    
  88000000   0.28006138    -8.1660842     -7.7459981      0.75106033     50218.233      36.893836      36.893836      36.893836    
  89000000   0.28069159    -8.1667174     -7.745686       0.74839672     50218.233      36.893836      36.893836      36.893836    
  90000000   0.28052585    -8.1666839     -7.7459011      0.7440685      50218.233      36.893836      36.893836      36.893836    
  91000000   0.28004764    -8.1658063     -7.7457409      0.75327783     50218.233      36.893836      36.893836      36.893836    
  92000000   0.28073732    -8.1671627     -7.7460627      0.74542168     50218.233      36.893836      36.893836      36.893836    
  93000000   0.28002359    -8.1639986     -7.7439692      0.7637778      50218.233      36.893836      36.893836      36.893836    
  94000000   0.27993111    -8.1645563     -7.7446656      0.75330994     50218.233      36.893836      36.893836      36.893836    
  95000000   0.27928227    -8.1673641     -7.7484466      0.7361676      50218.233      36.893836      36.893836      36.893836    
  96000000   0.27916403    -8.1666768     -7.7479367      0.74757274     50218.233      36.893836      36.893836      36.893836    
  97000000   0.27948819    -8.1678492     -7.7486228      0.73621064     50218.233      36.893836      36.893836      36.893836    
  98000000   0.27956707    -8.1647702     -7.7454255      0.75332903     50218.233      36.893836      36.893836      36.893836    
  99000000   0.27840203    -8.1663808     -7.7487837      0.74432382     50218.233      36.893836      36.893836      36.893836    
 100000000   0.27899054    -8.1666172     -7.7481373      0.73732709     50218.233      36.893836      36.893836      36.893836    
 101000000   0.2804405     -8.1664336     -7.7457788      0.74272671     50218.233      36.893836      36.893836      36.893836    
 102000000   0.27908021    -8.165032      -7.7464176      0.75764141     50218.233      36.893836      36.893836      36.893836    
 103000000   0.28104849    -8.1665087     -7.744942       0.74912897     50218.233      36.893836      36.893836      36.893836    
 104000000   0.28059415    -8.1656956     -7.7448103      0.75538765     50218.233      36.893836      36.893836      36.893836    
 105000000   0.28042349    -8.1651289     -7.7444997      0.76751795     50218.233      36.893836      36.893836      36.893836    
 106000000   0.28148206    -8.1642389     -7.7420218      0.76304418     50218.233      36.893836      36.893836      36.893836    
 107000000   0.27978499    -8.1656477     -7.7459762      0.7486123      50218.233      36.893836      36.893836      36.893836    
 108000000   0.28036011    -8.1658651     -7.7453309      0.74431616     50218.233      36.893836      36.893836      36.893836    
 109000000   0.27773972    -8.1663211     -7.7497174      0.74552275     50218.233      36.893836      36.893836      36.893836    
 110000000   0.28176407    -8.166031      -7.7433909      0.75020328     50218.233      36.893836      36.893836      36.893836    
 111000000   0.28005604    -8.1675171     -7.7474391      0.7423573      50218.233      36.893836      36.893836      36.893836    
 112000000   0.28011248    -8.1673156     -7.7471529      0.73695267     50218.233      36.893836      36.893836      36.893836    
 113000000   0.27990421    -8.1640302     -7.7441798      0.75736774     50218.233      36.893836      36.893836      36.893836    
 114000000   0.27928427    -8.1656983     -7.7467778      0.74250825     50218.233      36.893836      36.893836      36.893836    
 115000000   0.28122201    -8.1660516     -7.7442246      0.74548847     50218.233      36.893836      36.893836      36.893836    
 116000000   0.27951782    -8.1657726     -7.7465019      0.74645981     50218.233      36.893836      36.893836      36.893836    
 117000000   0.27832196    -8.1646279     -7.7471509      0.75355553     50218.233      36.893836      36.893836      36.893836    
 118000000   0.27882859    -8.1637191     -7.7454821      0.75916082     50218.233      36.893836      36.893836      36.893836    
 119000000   0.28022108    -8.167917      -7.7475914      0.72923133     50218.233      36.893836      36.893836      36.893836    
 120000000   0.27921914    -8.1657735     -7.7469508      0.75153326     50218.233      36.893836      36.893836      36.893836    
 121000000   0.28101262    -8.1646905     -7.7431775      0.75470357     50218.233      36.893836      36.893836      36.893836    
 122000000   0.28005836    -8.1650411     -7.7449595      0.75692173     50218.233      36.893836      36.893836      36.893836    
 123000000   0.27923897    -8.1650393     -7.7461868      0.75379186     50218.233      36.893836      36.893836      36.893836    
 124000000   0.2808313     -8.1655366     -7.7442957      0.749119       50218.233      36.893836      36.893836      36.893836    
 125000000   0.2791903     -8.1641659     -7.7453864      0.76522834     50218.233      36.893836      36.893836      36.893836    
 126000000   0.27931381    -8.163971      -7.7450063      0.75880555     50218.233      36.893836      36.893836      36.893836    
 127000000   0.27951118    -8.1665338     -7.747273       0.73832837     50218.233      36.893836      36.893836      36.893836    
 128000000   0.27981595    -8.1673935     -7.7476756      0.74034287     50218.233      36.893836      36.893836      36.893836    
 129000000   0.27958098    -8.1668844     -7.7475189      0.73958401     50218.233      36.893836      36.893836      36.893836    
 130000000   0.27926003    -8.1653739     -7.7464898      0.75431304     50218.233      36.893836      36.893836      36.893836    
 131000000   0.28071813    -8.1646285     -7.7435573      0.75030875     50218.233      36.893836      36.893836      36.893836    
 132000000   0.28170177    -8.1642568     -7.7417101      0.77083312     50218.233      36.893836      36.893836      36.893836    
 133000000   0.27916565    -8.1627302     -7.7439877      0.76872768     50218.233      36.893836      36.893836      36.893836    
 134000000   0.28004692    -8.1662086     -7.7461442      0.74134579     50218.233      36.893836      36.893836      36.893836    
 135000000   0.27849971    -8.1645539     -7.7468102      0.75747106     50218.233      36.893836      36.893836      36.893836    
 136000000   0.27871159    -8.1643771     -7.7463157      0.75237035     50218.233      36.893836      36.893836      36.893836    
 137000000   0.27944721    -8.1674232     -7.7482584      0.73028028     50218.233      36.893836      36.893836      36.893836    
 138000000   0.28089182    -8.1670335     -7.7457018      0.74453476     50218.233      36.893836      36.893836      36.893836    
 139000000   0.28016212    -8.1655126     -7.7452754      0.7535796      50218.233      36.893836      36.893836      36.893836    
 140000000   0.28045739    -8.1649544     -7.7442743      0.75960375     50218.233      36.893836      36.893836      36.893836    
 141000000   0.27935998    -8.1641138     -7.7450798      0.76252254     50218.233      36.893836      36.893836      36.893836    
 142000000   0.28154877    -8.1662519     -7.7439347      0.7521371      50218.233      36.893836      36.893836      36.893836    
 143000000   0.27858944    -8.1637564     -7.7458782      0.76030156     50218.233      36.893836      36.893836      36.893836    
 144000000   0.2818044     -8.1694383     -7.7467378      0.72538312     50218.233      36.893836      36.893836      36.893836    
 145000000   0.28121823    -8.1656548     -7.7438335      0.7505468      50218.233      36.893836      36.893836      36.893836    
 146000000   0.2796375     -8.1653251     -7.7458749      0.74621963     50218.233      36.893836      36.893836      36.893836    
 147000000   0.27990333    -8.1648369     -7.7449879      0.7552722      50218.233      36.893836      36.893836      36.893836    
 148000000   0.28157449    -8.1672603     -7.7449045      0.73650078     50218.233      36.893836      36.893836      36.893836    
 149000000   0.27980425    -8.1651053     -7.7454049      0.76032933     50218.233      36.893836      36.893836      36.893836    
 150000000   0.28032649    -8.1662377     -7.7457539      0.74995167     50218.233      36.893836      36.893836      36.893836    
 151000000   0.28092223    -8.1641069     -7.7427296      0.7624189      50218.233      36.893836      36.893836      36.893836    
 152000000   0.28081917    -8.1676324     -7.7464096      0.74002728     50218.233      36.893836      36.893836      36.893836    
 153000000   0.27934812    -8.1663929     -7.7473766      0.73698931     50218.233      36.893836      36.893836      36.893836    
 154000000   0.28191017    -8.1647256     -7.7418664      0.76046127     50218.233      36.893836      36.893836      36.893836    
 155000000   0.28150215    -8.1676328     -7.7453856      0.73390101     50218.233      36.893836      36.893836      36.893836    
 156000000   0.28024486    -8.1638617     -7.7435004      0.76122281     50218.233      36.893836      36.893836      36.893836    
 157000000   0.27754545    -8.1687666     -7.7524544      0.72496726     50218.233      36.893836      36.893836      36.893836    
 158000000   0.28019457    -8.1648036     -7.7445178      0.75750207     50218.233      36.893836      36.893836      36.893836    
 159000000   0.28065843    -8.1683187     -7.747337       0.73112975     50218.233      36.893836      36.893836      36.893836    
 160000000   0.27967086    -8.165274      -7.7457737      0.75067169     50218.233      36.893836      36.893836      36.893836    
 161000000   0.28028368    -8.1660944     -7.7456748      0.74896613     50218.233      36.893836      36.893836      36.893836    
 162000000   0.27901598    -8.1652737     -7.7467557      0.74279169     50218.233      36.893836      36.893836      36.893836    
 163000000   0.2786799     -8.1629197     -7.7449058      0.77239277     50218.233      36.893836      36.893836      36.893836    
 164000000   0.27999825    -8.1648012     -7.7448098      0.75441972     50218.233      36.893836      36.893836      36.893836    
 165000000   0.27986475    -8.1664405     -7.7466493      0.74170976     50218.233      36.893836      36.893836      36.893836    
 166000000   0.28098345    -8.1639708     -7.7425016      0.77448207     50218.233      36.893836      36.893836      36.893836    
 167000000   0.27992085    -8.1647474     -7.7448721      0.75920671     50218.233      36.893836      36.893836      36.893836    
 168000000   0.28064889    -8.1642292     -7.7432618      0.75388286     50218.233      36.893836      36.893836      36.893836    
 169000000   0.28036621    -8.1636404     -7.743097       0.76140358     50218.233      36.893836      36.893836      36.893836    
 170000000   0.27910414    -8.1643605     -7.7457102      0.76751846     50218.233      36.893836      36.893836      36.893836    
 171000000   0.28192423    -8.1645537     -7.7416733      0.75488279     50218.233      36.893836      36.893836      36.893836    
 172000000   0.27827184    -8.1642112     -7.7468094      0.75324168     50218.233      36.893836      36.893836      36.893836    
 173000000   0.28076199    -8.1649352     -7.7437982      0.75002163     50218.233      36.893836      36.893836      36.893836    
 174000000   0.2802261     -8.1648241     -7.7444909      0.7536153      50218.233      36.893836      36.893836      36.893836    
 175000000   0.28035799    -8.1682017     -7.7476707      0.72374312     50218.233      36.893836      36.893836      36.893836    
 176000000   0.27975313    -8.1663135     -7.7466898      0.7412919      50218.233      36.893836      36.893836      36.893836    
 177000000   0.28028968    -8.1653077     -7.7448792      0.76258798     50218.233      36.893836      36.893836      36.893836    
 178000000   0.28022904    -8.1660303     -7.7456927      0.74566394     50218.233      36.893836      36.893836      36.893836    
 179000000   0.2810094     -8.1658219     -7.7443138      0.7470116      50218.233      36.893836      36.893836      36.893836    
 180000000   0.28087257    -8.1661997     -7.7448968      0.74900986     50218.233      36.893836      36.893836      36.893836    
 181000000   0.27973844    -8.1654363     -7.7458346      0.74757476     50218.233      36.893836      36.893836      36.893836    
 182000000   0.28025741    -8.1651673     -7.7447872      0.75805233     50218.233      36.893836      36.893836      36.893836    
 183000000   0.27834374    -8.1662599     -7.7487502      0.7434857      50218.233      36.893836      36.893836      36.893836    
 184000000   0.28059425    -8.166818      -7.7459326      0.73556543     50218.233      36.893836      36.893836      36.893836    
 185000000   0.28087553    -8.166189      -7.7448817      0.7439727      50218.233      36.893836      36.893836      36.893836    
 186000000   0.27978781    -8.1651584     -7.7454827      0.75172067     50218.233      36.893836      36.893836      36.893836    
 187000000   0.27975389    -8.1655018     -7.7458769      0.75019583     50218.233      36.893836      36.893836      36.893836    
 188000000   0.2807379     -8.1669576     -7.7458567      0.74298957     50218.233      36.893836      36.893836      36.893836    
 189000000   0.28075053    -8.1650529     -7.7439331      0.75672471     50218.233      36.893836      36.893836      36.893836    
 190000000   0.27946519    -8.1659453     -7.7467535      0.75018466     50218.233      36.893836      36.893836      36.893836    
 191000000   0.27932495    -8.1655589     -7.7465774      0.75184292     50218.233      36.893836      36.893836      36.893836    
 192000000   0.28064982    -8.1677362     -7.7467674      0.73136618     50218.233      36.893836      36.893836      36.893836    
 193000000   0.2816693     -8.1633093     -7.7408114      0.77851009     50218.233      36.893836      36.893836      36.893836    
 194000000   0.27927021    -8.1665015     -7.7476021      0.74089167     50218.233      36.893836      36.893836      36.893836    
 195000000   0.27940479    -8.1654976     -7.7463964      0.75200726     50218.233      36.893836      36.893836      36.893836    
 196000000   0.27942604    -8.1641372     -7.7450041      0.75703455     50218.233      36.893836      36.893836      36.893836    
 197000000   0.27901112    -8.1657716     -7.7472608      0.74723188     50218.233      36.893836      36.893836      36.893836    
 198000000   0.28116445    -8.1652841     -7.7435435      0.75736766     50218.233      36.893836      36.893836      36.893836    
 199000000   0.27984795    -8.1651588     -7.7453928      0.74884179     50218.233      36.893836      36.893836      36.893836    
 200000000   0.28042784    -8.1650294     -7.7443936      0.76113428     50218.233      36.893836      36.893836      36.893836    
 201000000   0.28025023    -8.1655222     -7.7451528      0.75272731     50218.233      36.893836      36.893836      36.893836    
 202000000   0.28013956    -8.1676441     -7.7474407      0.74075712     50218.233      36.893836      36.893836      36.893836    
 203000000   0.28075712    -8.1670597     -7.74593        0.74696026     50218.233      36.893836      36.893836      36.893836    
 204000000   0.2794438     -8.1666212     -7.7474615      0.74387432     50218.233      36.893836      36.893836      36.893836    
 205000000   0.28060579    -8.169033      -7.7481303      0.7290452      50218.233      36.893836      36.893836      36.893836    
 206000000   0.27881       -8.1665692     -7.7483601      0.73368549     50218.233      36.893836      36.893836      36.893836    
 207000000   0.28051712    -8.1677307     -7.746961       0.73622502     50218.233      36.893836      36.893836      36.893836    
 208000000   0.27924893    -8.1666281     -7.7477607      0.73929135     50218.233      36.893836      36.893836      36.893836    
 209000000   0.27875078    -8.1675732     -7.749453       0.73567366     50218.233      36.893836      36.893836      36.893836    
 210000000   0.28104939    -8.1676152     -7.7460471      0.73103338     50218.233      36.893836      36.893836      36.893836    
 211000000   0.28055903    -8.1668278     -7.7459952      0.74316074     50218.233      36.893836      36.893836      36.893836    
 212000000   0.28028087    -8.1663878     -7.7459724      0.74198216     50218.233      36.893836      36.893836      36.893836    
 213000000   0.27863734    -8.1663894     -7.7484393      0.74054665     50218.233      36.893836      36.893836      36.893836    
 214000000   0.27985977    -8.1644293     -7.7446456      0.76532651     50218.233      36.893836      36.893836      36.893836    
 215000000   0.27950139    -8.1665931     -7.7473469      0.74436216     50218.233      36.893836      36.893836      36.893836    
 216000000   0.27953521    -8.1648105     -7.7455136      0.7501272      50218.233      36.893836      36.893836      36.893836    
 217000000   0.28039392    -8.1638824     -7.7432975      0.77283103     50218.233      36.893836      36.893836      36.893836    
 218000000   0.27981352    -8.1684145     -7.7487002      0.72993853     50218.233      36.893836      36.893836      36.893836    
 219000000   0.27954455    -8.1627405     -7.7434297      0.77223489     50218.233      36.893836      36.893836      36.893836    
 220000000   0.27983534    -8.1651044     -7.7453574      0.75405361     50218.233      36.893836      36.893836      36.893836    
 221000000   0.27940946    -8.1650289     -7.7459207      0.76709222     50218.233      36.893836      36.893836      36.893836    
 222000000   0.27832669    -8.1665078     -7.7490237      0.73831435     50218.233      36.893836      36.893836      36.893836    
 223000000   0.27964279    -8.1647287     -7.7452705      0.76626624     50218.233      36.893836      36.893836      36.893836    
 224000000   0.27795036    -8.1638858     -7.7469662      0.76168345     50218.233      36.893836      36.893836      36.893836    
 225000000   0.2797106     -8.1642945     -7.7447346      0.75527625     50218.233      36.893836      36.893836      36.893836    
 226000000   0.27875425    -8.1671778     -7.7490524      0.74205731     50218.233      36.893836      36.893836      36.893836    
 227000000   0.28022455    -8.1644135     -7.7440826      0.75311863     50218.233      36.893836      36.893836      36.893836    
 228000000   0.27918777    -8.1636113     -7.7448356      0.7643392      50218.233      36.893836      36.893836      36.893836    
 229000000   0.27971543    -8.1644463     -7.7448791      0.76301223     50218.233      36.893836      36.893836      36.893836    
 230000000   0.27856275    -8.1639184     -7.7460802      0.75758059     50218.233      36.893836      36.893836      36.893836    
 231000000   0.28011854    -8.1642509     -7.7440791      0.75765038     50218.233      36.893836      36.893836      36.893836    
 232000000   0.28052238    -8.1657651     -7.7449875      0.74523901     50218.233      36.893836      36.893836      36.893836    
 233000000   0.27968259    -8.1671727     -7.7476548      0.73250499     50218.233      36.893836      36.893836      36.893836    
 234000000   0.2786268     -8.1657963     -7.7478621      0.74724273     50218.233      36.893836      36.893836      36.893836    
 235000000   0.28062431    -8.1656287     -7.7446982      0.7544853      50218.233      36.893836      36.893836      36.893836    
 236000000   0.27826846    -8.1630083     -7.7456115      0.77432902     50218.233      36.893836      36.893836      36.893836    
 237000000   0.28054781    -8.1659324     -7.7451166      0.75043793     50218.233      36.893836      36.893836      36.893836    
 238000000   0.28036786    -8.1663097     -7.7457639      0.7477912      50218.233      36.893836      36.893836      36.893836    
 239000000   0.28075091    -8.1660537     -7.7449333      0.74893466     50218.233      36.893836      36.893836      36.893836    
 240000000   0.27869297    -8.1661891     -7.7481556      0.7400096      50218.233      36.893836      36.893836      36.893836    
 241000000   0.27940146    -8.165022      -7.7459258      0.75838418     50218.233      36.893836      36.893836      36.893836    
 242000000   0.27934056    -8.1658271     -7.7468222      0.75945591     50218.233      36.893836      36.893836      36.893836    
 243000000   0.28075032    -8.1675573     -7.7464378      0.74062633     50218.233      36.893836      36.893836      36.893836    
 244000000   0.28019958    -8.1659098     -7.7456164      0.74192248     50218.233      36.893836      36.893836      36.893836    
 245000000   0.27829497    -8.1671659     -7.7497294      0.74231628     50218.233      36.893836      36.893836      36.893836    
 246000000   0.27986838    -8.1660771     -7.7462805      0.74695164     50218.233      36.893836      36.893836      36.893836    
 247000000   0.27981738    -8.1679781     -7.748258       0.7242428      50218.233      36.893836      36.893836      36.893836    
 248000000   0.27966168    -8.1667237     -7.7472371      0.73986759     50218.233      36.893836      36.893836      36.893836    
 249000000   0.2811235     -8.1648224     -7.7431431      0.75625969     50218.233      36.893836      36.893836      36.893836    
 250000000   0.27949519    -8.1680645     -7.7488277      0.72657358     50218.233      36.893836      36.893836      36.893836    
 251000000   0.28079738    -8.1665397     -7.7453497      0.75022678     50218.233      36.893836      36.893836      36.893836    
 252000000   0.28025989    -8.1670923     -7.7467085      0.73366867     50218.233      36.893836      36.893836      36.893836    
 253000000   0.27951744    -8.1657635     -7.7464933      0.75605436     50218.233      36.893836      36.893836      36.893836    
 254000000   0.28108593    -8.166446      -7.7448231      0.7449351      50218.233      36.893836      36.893836      36.893836    
 255000000   0.27939339    -8.1636779     -7.7445938      0.76307203     50218.233      36.893836      36.893836      36.893836    
 256000000   0.27999789    -8.1644902     -7.7444994      0.76830647     50218.233      36.893836      36.893836      36.893836    
 257000000   0.28022585    -8.1653411     -7.7450083      0.75818927     50218.233      36.893836      36.893836      36.893836    
 258000000   0.27909694    -8.1659056     -7.7472662      0.75076105     50218.233      36.893836      36.893836      36.893836    
 259000000   0.28093979    -8.1647838     -7.7433801      0.75689292     50218.233      36.893836      36.893836      36.893836    
 260000000   0.27986559    -8.1671465     -7.7473541      0.73975332     50218.233      36.893836      36.893836      36.893836    
 261000000   0.28183268    -8.1662662     -7.7435232      0.75035259     50218.233      36.893836      36.893836      36.893836    
 262000000   0.28008521    -8.1657602     -7.7456384      0.75668348     50218.233      36.893836      36.893836      36.893836    
 263000000   0.27847677    -8.1660997     -7.7483905      0.73834935     50218.233      36.893836      36.893836      36.893836    
 264000000   0.27992165    -8.167605      -7.7477285      0.73834551     50218.233      36.893836      36.893836      36.893836    
 265000000   0.27947683    -8.1669853     -7.7477761      0.74096229     50218.233      36.893836      36.893836      36.893836    
 266000000   0.27940574    -8.1672998     -7.7481972      0.74137489     50218.233      36.893836      36.893836      36.893836    
 267000000   0.27956018    -8.1667306     -7.7473963      0.74520018     50218.233      36.893836      36.893836      36.893836    
 268000000   0.279437      -8.1642706     -7.745121       0.7599696      50218.233      36.893836      36.893836      36.893836    
 269000000   0.27915507    -8.1642617     -7.745535       0.76116466     50218.233      36.893836      36.893836      36.893836    
 270000000   0.28134803    -8.1645662     -7.7425501      0.76570645     50218.233      36.893836      36.893836      36.893836    
 271000000   0.28013965    -8.1665711     -7.7463676      0.74707193     50218.233      36.893836      36.893836      36.893836    
 272000000   0.27946584    -8.1636122     -7.7444194      0.7647106      50218.233      36.893836      36.893836      36.893836    
 273000000   0.28188295    -8.1666355     -7.7438171      0.74595377     50218.233      36.893836      36.893836      36.893836    
 274000000   0.2801076     -8.1655766     -7.7454212      0.75942623     50218.233      36.893836      36.893836      36.893836    
 275000000   0.28077257    -8.1659489     -7.744796       0.74558786     50218.233      36.893836      36.893836      36.893836    
 276000000   0.27914008    -8.166232      -7.7475279      0.74597716     50218.233      36.893836      36.893836      36.893836    
 277000000   0.27998942    -8.1647589     -7.7447807      0.75445301     50218.233      36.893836      36.893836      36.893836    
 278000000   0.28019215    -8.1639908     -7.7437086      0.75529144     50218.233      36.893836      36.893836      36.893836    
 279000000   0.2807715     -8.1655508     -7.7443995      0.75361198     50218.233      36.893836      36.893836      36.893836    
 280000000   0.27975892    -8.1675578     -7.7479254      0.73999154     50218.233      36.893836      36.893836      36.893836    
 281000000   0.27949284    -8.1651537     -7.7459204      0.75317486     50218.233      36.893836      36.893836      36.893836    
 282000000   0.27946973    -8.1653763     -7.7461777      0.74329686     50218.233      36.893836      36.893836      36.893836    
 283000000   0.28073504    -8.166827      -7.7457305      0.74302569     50218.233      36.893836      36.893836      36.893836    
 284000000   0.28024847    -8.166094      -7.7457273      0.7411154      50218.233      36.893836      36.893836      36.893836    
 285000000   0.27984039    -8.1651104     -7.7453558      0.75748815     50218.233      36.893836      36.893836      36.893836    
 286000000   0.28174086    -8.1633631     -7.7407579      0.77285922     50218.233      36.893836      36.893836      36.893836    
 287000000   0.28015139    -8.1668406     -7.7466195      0.74907126     50218.233      36.893836      36.893836      36.893836    
 288000000   0.28020164    -8.1664512     -7.7461547      0.7458129      50218.233      36.893836      36.893836      36.893836    
 289000000   0.28066476    -8.1649196     -7.7439284      0.76916465     50218.233      36.893836      36.893836      36.893836    
 290000000   0.27937659    -8.1663709     -7.7473119      0.74382541     50218.233      36.893836      36.893836      36.893836    
 291000000   0.28015156    -8.1672731     -7.7470518      0.7338853      50218.233      36.893836      36.893836      36.893836    
 292000000   0.27869113    -8.1670616     -7.7490308      0.73607183     50218.233      36.893836      36.893836      36.893836    
 293000000   0.27953949    -8.1647663     -7.7454631      0.74937933     50218.233      36.893836      36.893836      36.893836    
 294000000   0.28063431    -8.1656891     -7.7447436      0.74754002     50218.233      36.893836      36.893836      36.893836    
 295000000   0.28010984    -8.1668531     -7.7466944      0.74058803     50218.233      36.893836      36.893836      36.893836    
 296000000   0.27863049    -8.1651177     -7.7471779      0.75747114     50218.233      36.893836      36.893836      36.893836    
 297000000   0.2795121     -8.168614      -7.7493518      0.72923156     50218.233      36.893836      36.893836      36.893836    
 298000000   0.28028402    -8.166565      -7.7461449      0.74668043     50218.233      36.893836      36.893836      36.893836    
 299000000   0.28095677    -8.1637153     -7.7422861      0.76744728     50218.233      36.893836      36.893836      36.893836    
 300000000   0.27938588    -8.164548      -7.7454751      0.75655835     50218.233      36.893836      36.893836      36.893836    
 301000000   0.27924404    -8.1696677     -7.7508076      0.71290068     50218.233      36.893836      36.893836      36.893836    
 302000000   0.28028233    -8.1674751     -7.7470576      0.74233987     50218.233      36.893836      36.893836      36.893836    
 303000000   0.28261331    -8.1627384     -7.7388244      0.78161557     50218.233      36.893836      36.893836      36.893836    
 304000000   0.27974337    -8.1665372     -7.7469281      0.74665469     50218.233      36.893836      36.893836      36.893836    
 305000000   0.27996629    -8.1670505     -7.747107       0.74093885     50218.233      36.893836      36.893836      36.893836    
 306000000   0.27926806    -8.1674175     -7.7485214      0.7360204      50218.233      36.893836      36.893836      36.893836    
 307000000   0.27924982    -8.1655543     -7.7466855      0.75049688     50218.233      36.893836      36.893836      36.893836    
 308000000   0.28140041    -8.1690882     -7.7469936      0.72902611     50218.233      36.893836      36.893836      36.893836    
 309000000   0.28127806    -8.1668404     -7.7449293      0.74113911     50218.233      36.893836      36.893836      36.893836    
 310000000   0.28051896    -8.1654809     -7.7447085      0.75756339     50218.233      36.893836      36.893836      36.893836    
 311000000   0.2781884     -8.1656378     -7.7483612      0.75092978     50218.233      36.893836      36.893836      36.893836    
 312000000   0.27929967    -8.1624077     -7.7434642      0.77382102     50218.233      36.893836      36.893836      36.893836    
 313000000   0.27992741    -8.1648108     -7.7449256      0.75078743     50218.233      36.893836      36.893836      36.893836    
 314000000   0.27910443    -8.1661137     -7.747463       0.74912136     50218.233      36.893836      36.893836      36.893836    
 315000000   0.28015443    -8.1636032     -7.7433775      0.7704775      50218.233      36.893836      36.893836      36.893836    
 316000000   0.27871648    -8.1645612     -7.7464924      0.75589348     50218.233      36.893836      36.893836      36.893836    
 317000000   0.2800865     -8.1692719     -7.7491482      0.72895077     50218.233      36.893836      36.893836      36.893836    
 318000000   0.28007737    -8.1675523     -7.7474422      0.73714636     50218.233      36.893836      36.893836      36.893836    
 319000000   0.27929972    -8.1675357     -7.7485921      0.73490505     50218.233      36.893836      36.893836      36.893836    
 320000000   0.27980864    -8.1655687     -7.7458617      0.75411759     50218.233      36.893836      36.893836      36.893836    
 321000000   0.2807461     -8.1620987     -7.7409856      0.77866865     50218.233      36.893836      36.893836      36.893836    
 322000000   0.27970217    -8.1657297     -7.7461825      0.741538       50218.233      36.893836      36.893836      36.893836    
 323000000   0.27889031    -8.1671413     -7.7488118      0.74462346     50218.233      36.893836      36.893836      36.893836    
 324000000   0.27925312    -8.167057      -7.7481832      0.7342093      50218.233      36.893836      36.893836      36.893836    
 325000000   0.27959407    -8.1637523     -7.7443671      0.76344053     50218.233      36.893836      36.893836      36.893836    
 326000000   0.28050532    -8.1654219     -7.7446699      0.74703582     50218.233      36.893836      36.893836      36.893836    
 327000000   0.28083455    -8.1652699     -7.7440241      0.75209252     50218.233      36.893836      36.893836      36.893836    
 328000000   0.27972784    -8.1651246     -7.7455388      0.75472296     50218.233      36.893836      36.893836      36.893836    
 329000000   0.28015638    -8.1660468     -7.7458182      0.7470894      50218.233      36.893836      36.893836      36.893836    
 330000000   0.27913298    -8.1654131     -7.7467196      0.74967789     50218.233      36.893836      36.893836      36.893836    
 331000000   0.28113584    -8.1638729     -7.7421751      0.7714472      50218.233      36.893836      36.893836      36.893836    
 332000000   0.2809153     -8.1649417     -7.7435747      0.75950683     50218.233      36.893836      36.893836      36.893836    
 333000000   0.27933197    -8.1650053     -7.7460133      0.75535248     50218.233      36.893836      36.893836      36.893836    
 334000000   0.28084551    -8.1668616     -7.7455994      0.74514569     50218.233      36.893836      36.893836      36.893836    
 335000000   0.28113018    -8.1645728     -7.7428835      0.76252233     50218.233      36.893836      36.893836      36.893836    
 336000000   0.28007242    -8.1657539     -7.7456513      0.74086326     50218.233      36.893836      36.893836      36.893836    
 337000000   0.28109274    -8.1650376     -7.7434045      0.76715887     50218.233      36.893836      36.893836      36.893836    
 338000000   0.27970622    -8.1659745     -7.7464211      0.74510669     50218.233      36.893836      36.893836      36.893836    
 339000000   0.27987554    -8.1649924     -7.745185       0.74231617     50218.233      36.893836      36.893836      36.893836    
 340000000   0.28040311    -8.1653214     -7.7447227      0.75447741     50218.233      36.893836      36.893836      36.893836    
 341000000   0.27973566    -8.1647767     -7.7451792      0.75760108     50218.233      36.893836      36.893836      36.893836    
 342000000   0.27927709    -8.1653871     -7.7464775      0.75561638     50218.233      36.893836      36.893836      36.893836    
 343000000   0.278879      -8.1677542     -7.7494417      0.73430867     50218.233      36.893836      36.893836      36.893836    
 344000000   0.28041114    -8.1660191     -7.7454084      0.75131008     50218.233      36.893836      36.893836      36.893836    
 345000000   0.28054505    -8.1663598     -7.7455483      0.74548455     50218.233      36.893836      36.893836      36.893836    
 346000000   0.28032125    -8.1667768     -7.746301       0.74674901     50218.233      36.893836      36.893836      36.893836    
 347000000   0.27989909    -8.1668403     -7.7469977      0.74019444     50218.233      36.893836      36.893836      36.893836    
 348000000   0.2792703     -8.1663691     -7.7474697      0.74325712     50218.233      36.893836      36.893836      36.893836    
 349000000   0.27840207    -8.1684432     -7.750846       0.72615453     50218.233      36.893836      36.893836      36.893836    
 350000000   0.28167203    -8.1682546     -7.7457526      0.73211555     50218.233      36.893836      36.893836      36.893836    
 351000000   0.28150213    -8.1653649     -7.7431177      0.75477419     50218.233      36.893836      36.893836      36.893836    
 352000000   0.28053445    -8.1667424     -7.7459467      0.74089087     50218.233      36.893836      36.893836      36.893836    
 353000000   0.2799        -8.1660588     -7.7462147      0.74675957     50218.233      36.893836      36.893836      36.893836    
 354000000   0.28040764    -8.1678425     -7.747237       0.73087574     50218.233      36.893836      36.893836      36.893836    
 355000000   0.27989749    -8.1665536     -7.7467133      0.74061475     50218.233      36.893836      36.893836      36.893836    
 356000000   0.27981943    -8.1666684     -7.7469452      0.74590388     50218.233      36.893836      36.893836      36.893836    
 357000000   0.27914255    -8.1662119     -7.747504       0.73808583     50218.233      36.893836      36.893836      36.893836    
 358000000   0.28103488    -8.1668615     -7.7453152      0.7465119      50218.233      36.893836      36.893836      36.893836    
 359000000   0.28209438    -8.16568       -7.7425444      0.75102076     50218.233      36.893836      36.893836      36.893836    
 360000000   0.28125926    -8.165916      -7.7440331      0.74935513     50218.233      36.893836      36.893836      36.893836    
 361000000   0.280954      -8.1656209     -7.7441959      0.74915598     50218.233      36.893836      36.893836      36.893836    
 362000000   0.2796679     -8.1666532     -7.7471573      0.73683568     50218.233      36.893836      36.893836      36.893836    
 363000000   0.27956744    -8.1665783     -7.7472331      0.7456146      50218.233      36.893836      36.893836      36.893836    
 364000000   0.27890464    -8.1645923     -7.7462413      0.75549598     50218.233      36.893836      36.893836      36.893836    
 365000000   0.28062708    -8.165209      -7.7442743      0.76157548     50218.233      36.893836      36.893836      36.893836    
 366000000   0.28119143    -8.1657157     -7.7439345      0.7485741      50218.233      36.893836      36.893836      36.893836    
 367000000   0.27959658    -8.1674189     -7.74803        0.73494146     50218.233      36.893836      36.893836      36.893836    
 368000000   0.27953776    -8.1672306     -7.7479299      0.73520857     50218.233      36.893836      36.893836      36.893836    
 369000000   0.2807939     -8.1642474     -7.7430625      0.76142058     50218.233      36.893836      36.893836      36.893836    
 370000000   0.28066882    -8.1662314     -7.7452342      0.74479098     50218.233      36.893836      36.893836      36.893836    
 371000000   0.28005997    -8.1660554     -7.7459714      0.74189672     50218.233      36.893836      36.893836      36.893836    
 372000000   0.28011754    -8.1670789     -7.7469086      0.74304003     50218.233      36.893836      36.893836      36.893836    
 373000000   0.28080473    -8.1653342     -7.7441331      0.75391108     50218.233      36.893836      36.893836      36.893836    
 374000000   0.27955461    -8.1659124     -7.7465864      0.75341286     50218.233      36.893836      36.893836      36.893836    
 375000000   0.2802449     -8.1652242     -7.7448628      0.75088327     50218.233      36.893836      36.893836      36.893836    
 376000000   0.28189125    -8.1664786     -7.7436477      0.74532668     50218.233      36.893836      36.893836      36.893836    
 377000000   0.27955498    -8.1642296     -7.7449031      0.75553352     50218.233      36.893836      36.893836      36.893836    
 378000000   0.27825635    -8.1631462     -7.7457676      0.76944951     50218.233      36.893836      36.893836      36.893836    
 379000000   0.28104734    -8.1636275     -7.7420625      0.77110028     50218.233      36.893836      36.893836      36.893836    
 380000000   0.28173289    -8.1687402     -7.7461468      0.72864544     50218.233      36.893836      36.893836      36.893836    
 381000000   0.28194388    -8.1654372     -7.7425274      0.76172762     50218.233      36.893836      36.893836      36.893836    
 382000000   0.28060408    -8.1650097     -7.7441095      0.75906641     50218.233      36.893836      36.893836      36.893836    
 383000000   0.28004512    -8.1648375     -7.7447758      0.76162601     50218.233      36.893836      36.893836      36.893836    
 384000000   0.28028862    -8.1655593     -7.7451323      0.75195804     50218.233      36.893836      36.893836      36.893836    
 385000000   0.27961247    -8.1687082     -7.7492955      0.73417116     50218.233      36.893836      36.893836      36.893836    
 386000000   0.28027693    -8.1663779     -7.7459685      0.74510295     50218.233      36.893836      36.893836      36.893836    
 387000000   0.27960342    -8.1692857     -7.7498865      0.71767041     50218.233      36.893836      36.893836      36.893836    
 388000000   0.27903988    -8.1669899     -7.748436       0.73979044     50218.233      36.893836      36.893836      36.893836    
 389000000   0.28013611    -8.1672764     -7.7470782      0.73966276     50218.233      36.893836      36.893836      36.893836    
 390000000   0.27972338    -8.1689738     -7.7493947      0.71758374     50218.233      36.893836      36.893836      36.893836    
 391000000   0.2809184     -8.1656691     -7.7442975      0.75684641     50218.233      36.893836      36.893836      36.893836    
 392000000   0.28060909    -8.1673923     -7.7464847      0.73850026     50218.233      36.893836      36.893836      36.893836    
 393000000   0.2796874     -8.1675976     -7.7480725      0.75001661     50218.233      36.893836      36.893836      36.893836    
 394000000   0.28029103    -8.1675422     -7.7471117      0.73352752     50218.233      36.893836      36.893836      36.893836    
 395000000   0.27981331    -8.1656626     -7.7459486      0.75099914     50218.233      36.893836      36.893836      36.893836    
 396000000   0.27860233    -8.1652614     -7.7473639      0.75581722     50218.233      36.893836      36.893836      36.893836    
 397000000   0.28315826    -8.1676049     -7.7428735      0.73985395     50218.233      36.893836      36.893836      36.893836    
 398000000   0.27962974    -8.1659267     -7.7464881      0.74469634     50218.233      36.893836      36.893836      36.893836    
 399000000   0.27993406    -8.1688783     -7.7489832      0.72981368     50218.233      36.893836      36.893836      36.893836    
 400000000   0.28199103    -8.1690253     -7.7460448      0.73057102     50218.233      36.893836      36.893836      36.893836    
 401000000   0.28069107    -8.1703711     -7.7493405      0.72344013     50218.233      36.893836      36.893836      36.893836    
 402000000   0.28064397    -8.1676421     -7.7466822      0.74345557     50218.233      36.893836      36.893836      36.893836    
 403000000   0.2781388     -8.1676694     -7.7504671      0.73716246     50218.233      36.893836      36.893836      36.893836    
 404000000   0.27853429    -8.1654522     -7.7476567      0.7545653      50218.233      36.893836      36.893836      36.893836    
 405000000   0.28091371    -8.1679121     -7.7465475      0.73543054     50218.233      36.893836      36.893836      36.893836    
 406000000   0.27984186    -8.1688012     -7.7490443      0.72689187     50218.233      36.893836      36.893836      36.893836    
 407000000   0.27950772    -8.1664364     -7.7471808      0.74839544     50218.233      36.893836      36.893836      36.893836    
 408000000   0.28066045    -8.1640058     -7.7430212      0.76439931     50218.233      36.893836      36.893836      36.893836    
 409000000   0.2798008     -8.1688917     -7.7491964      0.73279946     50218.233      36.893836      36.893836      36.893836    
 410000000   0.27997927    -8.165781      -7.745818       0.75875883     50218.233      36.893836      36.893836      36.893836    
 411000000   0.28092529    -8.1652247     -7.7438428      0.75477449     50218.233      36.893836      36.893836      36.893836    
 412000000   0.27940602    -8.1657389     -7.7466358      0.74502814     50218.233      36.893836      36.893836      36.893836    
 413000000   0.28137965    -8.1646357     -7.7425722      0.76168209     50218.233      36.893836      36.893836      36.893836    
 414000000   0.27915529    -8.1661321     -7.7474051      0.7388183      50218.233      36.893836      36.893836      36.893836    
 415000000   0.27974549    -8.1652844     -7.7456721      0.75757527     50218.233      36.893836      36.893836      36.893836    
 416000000   0.28038408    -8.168588      -7.7480179      0.73306152     50218.233      36.893836      36.893836      36.893836    
 417000000   0.28064533    -8.163863      -7.742901       0.76946774     50218.233      36.893836      36.893836      36.893836    
 418000000   0.2802574     -8.1662881     -7.745908       0.75070083     50218.233      36.893836      36.893836      36.893836    
 419000000   0.28142631    -8.1639213     -7.7417878      0.76386113     50218.233      36.893836      36.893836      36.893836    
 420000000   0.28022902    -8.1654334     -7.7450958      0.76074253     50218.233      36.893836      36.893836      36.893836    
 421000000   0.27911265    -8.1653482     -7.7466851      0.76126012     50218.233      36.893836      36.893836      36.893836    
 422000000   0.28021902    -8.1674517     -7.7471291      0.74444798     50218.233      36.893836      36.893836      36.893836    
 423000000   0.28073031    -8.1659266     -7.7448371      0.75007518     50218.233      36.893836      36.893836      36.893836    
 424000000   0.2791643     -8.1686583     -7.7499178      0.73418049     50218.233      36.893836      36.893836      36.893836    
 425000000   0.2798826     -8.1640542     -7.7442363      0.76105757     50218.233      36.893836      36.893836      36.893836    
 426000000   0.28084847    -8.1662485     -7.7449818      0.74408839     50218.233      36.893836      36.893836      36.893836    
 427000000   0.28012865    -8.1676009     -7.7474139      0.74214655     50218.233      36.893836      36.893836      36.893836    
 428000000   0.27997948    -8.1669577     -7.7469945      0.7378482      50218.233      36.893836      36.893836      36.893836    
 429000000   0.28016426    -8.1656847     -7.7454442      0.75332088     50218.233      36.893836      36.893836      36.893836    
 430000000   0.27928217    -8.1656594     -7.7467421      0.75309141     50218.233      36.893836      36.893836      36.893836    
 431000000   0.28096921    -8.1664357     -7.7449879      0.75122057     50218.233      36.893836      36.893836      36.893836    
 432000000   0.27970181    -8.1656526     -7.7461058      0.75171114     50218.233      36.893836      36.893836      36.893836    
 433000000   0.27960364    -8.1676472     -7.7482477      0.73487005     50218.233      36.893836      36.893836      36.893836    
 434000000   0.2781714     -8.1682016     -7.7509505      0.7351886      50218.233      36.893836      36.893836      36.893836    
 435000000   0.28027852    -8.1667108     -7.746299       0.7307679      50218.233      36.893836      36.893836      36.893836    
 436000000   0.27992592    -8.1643289     -7.7444459      0.75587832     50218.233      36.893836      36.893836      36.893836    
 437000000   0.28001532    -8.1644967     -7.7444797      0.76711416     50218.233      36.893836      36.893836      36.893836    
 438000000   0.28048758    -8.1661031     -7.7453777      0.74386501     50218.233      36.893836      36.893836      36.893836    
 439000000   0.27983761    -8.1654799     -7.7457295      0.75926564     50218.233      36.893836      36.893836      36.893836    
 440000000   0.28062129    -8.166439      -7.745513       0.74849421     50218.233      36.893836      36.893836      36.893836    
 441000000   0.28140874    -8.1677496     -7.7456425      0.74042128     50218.233      36.893836      36.893836      36.893836    
 442000000   0.28053338    -8.1653473     -7.7445532      0.75240941     50218.233      36.893836      36.893836      36.893836    
 443000000   0.27900314    -8.1693359     -7.7508371      0.72820557     50218.233      36.893836      36.893836      36.893836    
 444000000   0.28129378    -8.1670509     -7.7451162      0.74837658     50218.233      36.893836      36.893836      36.893836    
 445000000   0.28147787    -8.1675471     -7.7453363      0.7385778      50218.233      36.893836      36.893836      36.893836    
 446000000   0.27851449    -8.1694803     -7.7517145      0.7180114      50218.233      36.893836      36.893836      36.893836    
 447000000   0.27990656    -8.1671403     -7.7472864      0.74097149     50218.233      36.893836      36.893836      36.893836    
 448000000   0.27997008    -8.168528      -7.7485789      0.72850377     50218.233      36.893836      36.893836      36.893836    
 449000000   0.2807985     -8.168493      -7.7473012      0.72520133     50218.233      36.893836      36.893836      36.893836    
 450000000   0.27907994    -8.1653435     -7.7467295      0.74986211     50218.233      36.893836      36.893836      36.893836    
 451000000   0.28085955    -8.1681455     -7.7468622      0.73525849     50218.233      36.893836      36.893836      36.893836    
 452000000   0.28010235    -8.1686881     -7.7485405      0.7301345      50218.233      36.893836      36.893836      36.893836    
 453000000   0.28004991    -8.1664984     -7.7464295      0.74489241     50218.233      36.893836      36.893836      36.893836    
 454000000   0.27986057    -8.16554       -7.7457551      0.75610305     50218.233      36.893836      36.893836      36.893836    
 455000000   0.28064382    -8.1667087     -7.745749       0.75351723     50218.233      36.893836      36.893836      36.893836    
 456000000   0.27978067    -8.1662822     -7.7466172      0.74693366     50218.233      36.893836      36.893836      36.893836    
 457000000   0.28040583    -8.1646722     -7.7440694      0.75582703     50218.233      36.893836      36.893836      36.893836    
 458000000   0.27904792    -8.1661265     -7.7475606      0.73823266     50218.233      36.893836      36.893836      36.893836    
 459000000   0.27846105    -8.1657549     -7.7480693      0.74463543     50218.233      36.893836      36.893836      36.893836    
 460000000   0.28039897    -8.1671879     -7.7465954      0.74163604     50218.233      36.893836      36.893836      36.893836    
 461000000   0.27947089    -8.1666556     -7.7474552      0.74791596     50218.233      36.893836      36.893836      36.893836    
 462000000   0.2817019     -8.1685775     -7.7460307      0.72984925     50218.233      36.893836      36.893836      36.893836    
 463000000   0.28186282    -8.164243      -7.7414548      0.76773888     50218.233      36.893836      36.893836      36.893836    
 464000000   0.27871586    -8.1675164     -7.7494485      0.72894158     50218.233      36.893836      36.893836      36.893836    
 465000000   0.28150213    -8.166285      -7.7440379      0.75415575     50218.233      36.893836      36.893836      36.893836    
 466000000   0.27950822    -8.1653222     -7.7460658      0.75840111     50218.233      36.893836      36.893836      36.893836    
 467000000   0.27975583    -8.1685507     -7.7489229      0.73000614     50218.233      36.893836      36.893836      36.893836    
 468000000   0.27949436    -8.1648749     -7.7456393      0.75830393     50218.233      36.893836      36.893836      36.893836    
 469000000   0.27853353    -8.1656345     -7.7478402      0.74809887     50218.233      36.893836      36.893836      36.893836    
 470000000   0.27985189    -8.1658886     -7.7461167      0.74805546     50218.233      36.893836      36.893836      36.893836    
 471000000   0.27988379    -8.1655573     -7.7457376      0.75052162     50218.233      36.893836      36.893836      36.893836    
 472000000   0.28016022    -8.1669864     -7.746752       0.75329248     50218.233      36.893836      36.893836      36.893836    
 473000000   0.28062855    -8.1659744     -7.7450376      0.75117141     50218.233      36.893836      36.893836      36.893836    
 474000000   0.27980371    -8.166195      -7.7464954      0.74837351     50218.233      36.893836      36.893836      36.893836    
 475000000   0.28011898    -8.168355      -7.7481825      0.73332874     50218.233      36.893836      36.893836      36.893836    
 476000000   0.28005164    -8.1646488     -7.7445773      0.74995002     50218.233      36.893836      36.893836      36.893836    
 477000000   0.28100762    -8.1658515     -7.7443461      0.75813393     50218.233      36.893836      36.893836      36.893836    
 478000000   0.27837536    -8.164889      -7.7473319      0.74964221     50218.233      36.893836      36.893836      36.893836    
 479000000   0.2803837     -8.1639895     -7.7434199      0.76160799     50218.233      36.893836      36.893836      36.893836    
 480000000   0.28044971    -8.1676053     -7.7469367      0.73496758     50218.233      36.893836      36.893836      36.893836    
 481000000   0.27852779    -8.1666705     -7.7488847      0.75002562     50218.233      36.893836      36.893836      36.893836    
 482000000   0.27936212    -8.1661546     -7.7471174      0.74798477     50218.233      36.893836      36.893836      36.893836    
 483000000   0.27969767    -8.1645576     -7.7450171      0.75620511     50218.233      36.893836      36.893836      36.893836    
 484000000   0.27850047    -8.1649591     -7.7472144      0.75113419     50218.233      36.893836      36.893836      36.893836    
 485000000   0.27917285    -8.1640852     -7.7453319      0.7591459      50218.233      36.893836      36.893836      36.893836    
 486000000   0.27861095    -8.1672332     -7.7493227      0.73425525     50218.233      36.893836      36.893836      36.893836    
 487000000   0.28097012    -8.1659269     -7.7444777      0.73630722     50218.233      36.893836      36.893836      36.893836    
 488000000   0.27900194    -8.1674678     -7.7489709      0.73985595     50218.233      36.893836      36.893836      36.893836    
 489000000   0.28103216    -8.1668112     -7.7452689      0.73257132     50218.233      36.893836      36.893836      36.893836    
 490000000   0.28139783    -8.1686042     -7.7465135      0.73691395     50218.233      36.893836      36.893836      36.893836    
 491000000   0.28122994    -8.1657112     -7.7438723      0.76022778     50218.233      36.893836      36.893836      36.893836    
 492000000   0.28060223    -8.1685978     -7.7477004      0.72888399     50218.233      36.893836      36.893836      36.893836    
 493000000   0.28190766    -8.1700959     -7.7472404      0.72153117     50218.233      36.893836      36.893836      36.893836    
 494000000   0.28006708    -8.169538      -7.7494433      0.73133291     50218.233      36.893836      36.893836      36.893836    
 495000000   0.28110489    -8.1676885     -7.7460372      0.73456692     50218.233      36.893836      36.893836      36.893836    
 496000000   0.27933379    -8.1682773     -7.7492826      0.7287706      50218.233      36.893836      36.893836      36.893836    
 497000000   0.278886      -8.1691175     -7.7507944      0.7268223      50218.233      36.893836      36.893836      36.893836    
 498000000   0.28118981    -8.1662423     -7.7444636      0.74762755     50218.233      36.893836      36.893836      36.893836    
 499000000   0.28034197    -8.1667989     -7.7462919      0.73755834     50218.233      36.893836      36.893836      36.893836    
 500000000   0.27943232    -8.1662437     -7.7471012      0.74522        50218.233      36.893836      36.893836      36.893836    
Loop time of 787690 on 5 procs for 500000000 steps with 70304 atoms

Performance: 548439.051 tau/day, 634.767 timesteps/s, 44.627 Matom-step/s
94.3% CPU use with 5 MPI tasks x 1 OpenMP threads

MPI task timing breakdown:
Section |  min time  |  avg time  |  max time  |%varavg| %total
---------------------------------------------------------------
Pair    | 2.9159e+05 | 3.1391e+05 | 3.5841e+05 |4490.5 | 39.85
Neigh   | 1795       | 1909.1     | 2137.8     | 276.0 |  0.24
Comm    | 1.0781e+05 | 1.0877e+05 | 1.1014e+05 | 259.2 | 13.81
Output  | 0.09039    | 0.093796   | 0.099568   |   1.0 |  0.00
Modify  | 2.7987e+05 | 3.2573e+05 | 3.4788e+05 |4448.4 | 41.35
Other   |            | 3.737e+04  |            |       |  4.74

Nlocal:        14060.8 ave       14104 max       14027 min
Histogram: 2 0 0 0 0 2 0 0 0 1
Nghost:        18734.6 ave       18806 max       18689 min
Histogram: 1 0 2 0 1 0 0 0 0 1
Neighs:              0 ave           0 max           0 min
Histogram: 5 0 0 0 0 0 0 0 0 0

Total # of neighbors = 0
Ave neighs/atom = 0
Neighbor list builds = 78889527
Dangerous builds = 0
clear
OMP_NUM_THREADS environment is not set. Defaulting to 1 thread. (src/comm.cpp:98)
  using 1 OpenMP thread(s) per MPI task
package gpu 0
jump dms260.lmp

variable T equal 260
# T = 1000* (temp in LJ unit)
variable f equal 1000000
log log.${T}
log log.260
