variable TLJ equal (${T}/1000)
variable TLJ equal (480/1000)
variable NCyle equal 5
variable iStep equal (${f})
variable iStep equal (1000000)
variable dumpStep equal (${f}*100)
variable dumpStep equal (1000000*100)
variable runStep equal (${f}*100*${NCyle})
variable runStep equal (1000000*100*${NCyle})
variable runStep equal (1000000*100*5)

units       lj
atom_style  atomic
dimension 3
boundary     p p p
pair_style  lj/cut 2.5
read_data  ../data/T${T}.dat
read_data  ../data/T480.dat
Reading data file ...
  orthogonal box = (0.97250269 0.97250269 0.97250269) to (37.866338 37.866338 37.866338)
  1 by 1 by 5 MPI processor grid
  reading atoms ...
  70304 atoms
  reading velocities ...
  70304 velocities
  read_data CPU = 0.209 seconds
change_box all triclinic
Changing box ...
  triclinic box = (0.97250269 0.97250269 0.97250269) to (37.866338 37.866338 37.866338) with tilt (0 0 0)
mass 1 1
mass 2 1
pair_modify shift yes
pair_coeff  1 1 1 1
pair_coeff  1 2 1.5 0.8
pair_coeff  2 2 0.5 0.88


timestep 0.01
thermo ${iStep}
thermo 1000000
reset_timestep 0
thermo_style custom step temp pe etotal press vol lx ly lz
fix             1 all nvt temp ${TLJ}  ${TLJ}  0.1
fix             1 all nvt temp 0.48  ${TLJ}  0.1
fix             1 all nvt temp 0.48  0.48  0.1
thermo_modify flush yes

fix dsf all deform 1 xy  wiggle 0.5  ${f}   units box
fix dsf all deform 1 xy  wiggle 0.5  1000000   units box
fix ps1 all ave/time 1 1 ${iStep} c_thermo_press[1] c_thermo_press[2]  c_thermo_press[3] c_thermo_press[4]  c_thermo_press[5] c_thermo_press[6]  file  stress.${T}
fix ps1 all ave/time 1 1 1000000 c_thermo_press[1] c_thermo_press[2]  c_thermo_press[3] c_thermo_press[4]  c_thermo_press[5] c_thermo_press[6]  file  stress.${T}
fix ps1 all ave/time 1 1 1000000 c_thermo_press[1] c_thermo_press[2]  c_thermo_press[3] c_thermo_press[4]  c_thermo_press[5] c_thermo_press[6]  file  stress.480
dump            1 all custom ${dumpStep} dump.${T} id type x y z
dump            1 all custom 100000000 dump.${T} id type x y z
dump            1 all custom 100000000 dump.480 id type x y z
dump_modify 1 sort id
fix nodrift all momentum 1  linear 1 1 1
fix com_seed all recenter INIT INIT INIT shift all
run ${runStep}
run 500000000
Generated 0 of 1 mixed pair_coeff terms from geometric mixing rule
Per MPI rank memory allocation (min/avg/max) = 8.912 | 8.915 | 8.918 Mbytes
   Step          Temp          PotEng         TotEng         Press          Volume           Lx             Ly             Lz      
         0   0.48208273    -7.8640938     -7.14098        3.2637634      50218.233      36.893836      36.893836      36.893836    
   1000000   0.47902389    -7.8591369     -7.1406113      3.3037319      50218.233      36.893836      36.893836      36.893836    
   2000000   0.48084016    -7.8568832     -7.1356332      3.3190776      50218.233      36.893836      36.893836      36.893836    
   3000000   0.48138846    -7.8525769     -7.1305045      3.3658387      50218.233      36.893836      36.893836      36.893836    
   4000000   0.48086303    -7.8569794     -7.1356951      3.315456       50218.233      36.893836      36.893836      36.893836    
   5000000   0.47894879    -7.8532034     -7.1347904      3.3437716      50218.233      36.893836      36.893836      36.893836    
   6000000   0.48115939    -7.8550175     -7.1332887      3.3363101      50218.233      36.893836      36.893836      36.893836    
   7000000   0.48108938    -7.8578556     -7.1362318      3.3169993      50218.233      36.893836      36.893836      36.893836    
   8000000   0.47747251    -7.8556117     -7.1394131      3.3276141      50218.233      36.893836      36.893836      36.893836    
   9000000   0.47967261    -7.8580005     -7.1385018      3.3102646      50218.233      36.893836      36.893836      36.893836    
  10000000   0.48192197    -7.8591137     -7.1362411      3.3128985      50218.233      36.893836      36.893836      36.893836    
  11000000   0.47844001    -7.858473      -7.1408232      3.307325       50218.233      36.893836      36.893836      36.893836    
  12000000   0.4831659     -7.8599157     -7.1351771      3.3006681      50218.233      36.893836      36.893836      36.893836    
  13000000   0.48020976    -7.8604331     -7.1401287      3.2953257      50218.233      36.893836      36.893836      36.893836    
  14000000   0.48092457    -7.8634084     -7.1420318      3.2834072      50218.233      36.893836      36.893836      36.893836    
  15000000   0.48213121    -7.8613146     -7.1381281      3.2902235      50218.233      36.893836      36.893836      36.893836    
  16000000   0.48236245    -7.8580581     -7.1345247      3.308815       50218.233      36.893836      36.893836      36.893836    
  17000000   0.47995219    -7.8593594     -7.1394413      3.3018996      50218.233      36.893836      36.893836      36.893836    
  18000000   0.48061141    -7.8606255     -7.1397187      3.2930164      50218.233      36.893836      36.893836      36.893836    
  19000000   0.48022787    -7.8615943     -7.1412627      3.2743206      50218.233      36.893836      36.893836      36.893836    
  20000000   0.47887462    -7.8595775     -7.1412758      3.3007656      50218.233      36.893836      36.893836      36.893836    
  21000000   0.4786174     -7.8622452     -7.1443293      3.2707046      50218.233      36.893836      36.893836      36.893836    
  22000000   0.47769117    -7.8578921     -7.1413656      3.3112514      50218.233      36.893836      36.893836      36.893836    
  23000000   0.47888684    -7.8562101     -7.1378901      3.3216793      50218.233      36.893836      36.893836      36.893836    
  24000000   0.47983726    -7.8530582     -7.1333126      3.3501732      50218.233      36.893836      36.893836      36.893836    
  25000000   0.48079686    -7.8650002     -7.1438152      3.2640138      50218.233      36.893836      36.893836      36.893836    
  26000000   0.48141035    -7.8599886     -7.1378833      3.2923899      50218.233      36.893836      36.893836      36.893836    
  27000000   0.47945861    -7.8561048     -7.1369271      3.3259845      50218.233      36.893836      36.893836      36.893836    
  28000000   0.4781533     -7.8565729     -7.1393531      3.3191739      50218.233      36.893836      36.893836      36.893836    
  29000000   0.4796569     -7.8572377     -7.1377626      3.2986934      50218.233      36.893836      36.893836      36.893836    
  30000000   0.47981725    -7.861285      -7.1415694      3.2798779      50218.233      36.893836      36.893836      36.893836    
  31000000   0.47901767    -7.8637615     -7.1452452      3.2581947      50218.233      36.893836      36.893836      36.893836    
  32000000   0.48227227    -7.8586581     -7.13526        3.313784       50218.233      36.893836      36.893836      36.893836    
  33000000   0.47969826    -7.858295      -7.1387579      3.3177653      50218.233      36.893836      36.893836      36.893836    
  34000000   0.48200898    -7.859601      -7.1365979      3.3101678      50218.233      36.893836      36.893836      36.893836    
  35000000   0.48054569    -7.8616564     -7.1408481      3.2901103      50218.233      36.893836      36.893836      36.893836    
  36000000   0.48019202    -7.8597935     -7.1395157      3.2908429      50218.233      36.893836      36.893836      36.893836    
  37000000   0.48015786    -7.8602389     -7.1400124      3.3029049      50218.233      36.893836      36.893836      36.893836    
  38000000   0.48231811    -7.8605097     -7.1370428      3.3006175      50218.233      36.893836      36.893836      36.893836    
  39000000   0.48139171    -7.8613976     -7.1393203      3.2964633      50218.233      36.893836      36.893836      36.893836    
  40000000   0.48133455    -7.8641141     -7.1421226      3.2697235      50218.233      36.893836      36.893836      36.893836    
  41000000   0.48094311    -7.8567263     -7.1353219      3.3195349      50218.233      36.893836      36.893836      36.893836    
  42000000   0.48036104    -7.8593698     -7.1388384      3.3012076      50218.233      36.893836      36.893836      36.893836    
  43000000   0.47904546    -7.8592722     -7.1407143      3.2921242      50218.233      36.893836      36.893836      36.893836    
  44000000   0.48212141    -7.8605029     -7.1373311      3.2866809      50218.233      36.893836      36.893836      36.893836    
  45000000   0.47686551    -7.8598136     -7.1445255      3.2964869      50218.233      36.893836      36.893836      36.893836    
  46000000   0.48206728    -7.8632068     -7.1401162      3.2822689      50218.233      36.893836      36.893836      36.893836    
  47000000   0.47860203    -7.8611273     -7.1432344      3.2851165      50218.233      36.893836      36.893836      36.893836    
  48000000   0.47930161    -7.8610614     -7.1421192      3.2896904      50218.233      36.893836      36.893836      36.893836    
  49000000   0.47915723    -7.8627514     -7.1440258      3.2739527      50218.233      36.893836      36.893836      36.893836    
  50000000   0.47881739    -7.8630862     -7.1448703      3.2648904      50218.233      36.893836      36.893836      36.893836    
  51000000   0.47719384    -7.8620568     -7.1462762      3.2854644      50218.233      36.893836      36.893836      36.893836    
  52000000   0.4787986     -7.8577151     -7.1395274      3.3139113      50218.233      36.893836      36.893836      36.893836    
  53000000   0.48156961    -7.8614276     -7.1390835      3.2896599      50218.233      36.893836      36.893836      36.893836    
  54000000   0.48061323    -7.8568241     -7.1359145      3.3163733      50218.233      36.893836      36.893836      36.893836    
  55000000   0.48115091    -7.8636715     -7.1419554      3.2770907      50218.233      36.893836      36.893836      36.893836    
  56000000   0.48193738    -7.8632672     -7.1403714      3.2770581      50218.233      36.893836      36.893836      36.893836    
  57000000   0.47514131    -7.861487      -7.1487852      3.2865331      50218.233      36.893836      36.893836      36.893836    
  58000000   0.48024319    -7.8610489     -7.1406943      3.2899397      50218.233      36.893836      36.893836      36.893836    
  59000000   0.48043471    -7.8620623     -7.1414205      3.2726394      50218.233      36.893836      36.893836      36.893836    
  60000000   0.48092423    -7.8620066     -7.1406305      3.272358       50218.233      36.893836      36.893836      36.893836    
  61000000   0.47972088    -7.8626016     -7.1430306      3.2800007      50218.233      36.893836      36.893836      36.893836    
  62000000   0.48084952    -7.8590908     -7.1378268      3.2927424      50218.233      36.893836      36.893836      36.893836    
  63000000   0.48043449    -7.8658234     -7.1451819      3.2425478      50218.233      36.893836      36.893836      36.893836    
  64000000   0.48257605    -7.865234      -7.1413803      3.2466504      50218.233      36.893836      36.893836      36.893836    
  65000000   0.47834737    -7.8610047     -7.1434939      3.2830448      50218.233      36.893836      36.893836      36.893836    
  66000000   0.48140612    -7.8626938     -7.1405949      3.268124       50218.233      36.893836      36.893836      36.893836    
  67000000   0.47952824    -7.8603345     -7.1410523      3.290379       50218.233      36.893836      36.893836      36.893836    
  68000000   0.4795544     -7.8647976     -7.1454762      3.2680197      50218.233      36.893836      36.893836      36.893836    
  69000000   0.47943379    -7.8625222     -7.1433818      3.270812       50218.233      36.893836      36.893836      36.893836    
  70000000   0.47855239    -7.8611569     -7.1433385      3.2787506      50218.233      36.893836      36.893836      36.893836    
  71000000   0.47861751    -7.864128      -7.146212       3.2629366      50218.233      36.893836      36.893836      36.893836    
  72000000   0.48134963    -7.8674158     -7.1454016      3.2378114      50218.233      36.893836      36.893836      36.893836    
  73000000   0.47840383    -7.8601619     -7.1425664      3.3029079      50218.233      36.893836      36.893836      36.893836    
  74000000   0.48369819    -7.8575945     -7.1320575      3.3154784      50218.233      36.893836      36.893836      36.893836    
  75000000   0.47786369    -7.8614887     -7.1447034      3.278833       50218.233      36.893836      36.893836      36.893836    
  76000000   0.47582794    -7.862853      -7.1491212      3.2615633      50218.233      36.893836      36.893836      36.893836    
  77000000   0.48122595    -7.8625904     -7.1407617      3.2751083      50218.233      36.893836      36.893836      36.893836    
  78000000   0.48064053    -7.8610538     -7.1401032      3.2870784      50218.233      36.893836      36.893836      36.893836    
  79000000   0.47896912    -7.8641458     -7.1457023      3.2596348      50218.233      36.893836      36.893836      36.893836    
  80000000   0.47902085    -7.8643018     -7.1457808      3.264329       50218.233      36.893836      36.893836      36.893836    
  81000000   0.47962833    -7.8579478     -7.1385155      3.3131299      50218.233      36.893836      36.893836      36.893836    
  82000000   0.47959146    -7.8581141     -7.1387372      3.3075464      50218.233      36.893836      36.893836      36.893836    
  83000000   0.48101652    -7.8607557     -7.1392412      3.2982895      50218.233      36.893836      36.893836      36.893836    
  84000000   0.48033913    -7.8616123     -7.1411139      3.2924478      50218.233      36.893836      36.893836      36.893836    
  85000000   0.47911178    -7.8611069     -7.1424494      3.2822581      50218.233      36.893836      36.893836      36.893836    
  86000000   0.47759207    -7.8605893     -7.1442114      3.2862832      50218.233      36.893836      36.893836      36.893836    
  87000000   0.47941328    -7.8642427     -7.1451331      3.2580862      50218.233      36.893836      36.893836      36.893836    
  88000000   0.47923052    -7.8574481     -7.1386126      3.3161749      50218.233      36.893836      36.893836      36.893836    
  89000000   0.48243632    -7.8666184     -7.1429742      3.2589213      50218.233      36.893836      36.893836      36.893836    
  90000000   0.48096739    -7.8634172     -7.1419763      3.2740212      50218.233      36.893836      36.893836      36.893836    
  91000000   0.4766219     -7.8618425     -7.1469198      3.2705585      50218.233      36.893836      36.893836      36.893836    
  92000000   0.47897986    -7.8611555     -7.1426959      3.2808049      50218.233      36.893836      36.893836      36.893836    
  93000000   0.47823633    -7.8605208     -7.1431765      3.2795144      50218.233      36.893836      36.893836      36.893836    
  94000000   0.48233272    -7.8673313     -7.1438425      3.2508146      50218.233      36.893836      36.893836      36.893836    
  95000000   0.48141276    -7.8622595     -7.1401507      3.2731738      50218.233      36.893836      36.893836      36.893836    
  96000000   0.48356163    -7.8581362     -7.1328041      3.3113837      50218.233      36.893836      36.893836      36.893836    
  97000000   0.47739844    -7.8612502     -7.1451627      3.2940377      50218.233      36.893836      36.893836      36.893836    
  98000000   0.48016311    -7.864039      -7.1438046      3.2699836      50218.233      36.893836      36.893836      36.893836    
  99000000   0.48031074    -7.8633927     -7.1429369      3.269023       50218.233      36.893836      36.893836      36.893836    
 100000000   0.47792309    -7.8619333     -7.1450588      3.271799       50218.233      36.893836      36.893836      36.893836    
 101000000   0.47734507    -7.8639074     -7.1479         3.2569775      50218.233      36.893836      36.893836      36.893836    
 102000000   0.47876253    -7.8628751     -7.1447415      3.2763027      50218.233      36.893836      36.893836      36.893836    
 103000000   0.47884172    -7.8628583     -7.144606       3.2667661      50218.233      36.893836      36.893836      36.893836    
 104000000   0.47870735    -7.8592578     -7.1412069      3.2880115      50218.233      36.893836      36.893836      36.893836    
 105000000   0.4789472     -7.8609106     -7.1425         3.28509        50218.233      36.893836      36.893836      36.893836    
 106000000   0.4793698     -7.8599872     -7.1409428      3.2917758      50218.233      36.893836      36.893836      36.893836    
 107000000   0.47944775    -7.8666562     -7.1474948      3.2383866      50218.233      36.893836      36.893836      36.893836    
 108000000   0.48169329    -7.8627512     -7.1402215      3.2826201      50218.233      36.893836      36.893836      36.893836    
 109000000   0.48010617    -7.8661544     -7.1460054      3.2537082      50218.233      36.893836      36.893836      36.893836    
 110000000   0.48081658    -7.8612311     -7.1400165      3.290483       50218.233      36.893836      36.893836      36.893836    
 111000000   0.47894727    -7.8657076     -7.1472969      3.2565597      50218.233      36.893836      36.893836      36.893836    
 112000000   0.48121052    -7.8609727     -7.1391671      3.2957122      50218.233      36.893836      36.893836      36.893836    
 113000000   0.48077844    -7.8616277     -7.1404703      3.2911207      50218.233      36.893836      36.893836      36.893836    
 114000000   0.48055301    -7.8621116     -7.1412923      3.2838123      50218.233      36.893836      36.893836      36.893836    
 115000000   0.4800101     -7.8670247     -7.1470198      3.2383324      50218.233      36.893836      36.893836      36.893836    
 116000000   0.48090934    -7.866006      -7.1446522      3.2513105      50218.233      36.893836      36.893836      36.893836    
 117000000   0.48048993    -7.8690825     -7.1483578      3.2346318      50218.233      36.893836      36.893836      36.893836    
 118000000   0.48112654    -7.8652414     -7.1435618      3.2550743      50218.233      36.893836      36.893836      36.893836    
 119000000   0.48002032    -7.8664445     -7.1464243      3.241128       50218.233      36.893836      36.893836      36.893836    
 120000000   0.48007014    -7.8596984     -7.1396034      3.2902096      50218.233      36.893836      36.893836      36.893836    
 121000000   0.48177634    -7.8600598     -7.1374056      3.2989179      50218.233      36.893836      36.893836      36.893836    
 122000000   0.48034955    -7.8628706     -7.1423565      3.2680522      50218.233      36.893836      36.893836      36.893836    
 123000000   0.48015648    -7.8618512     -7.1416267      3.2873123      50218.233      36.893836      36.893836      36.893836    
 124000000   0.47622616    -7.8651871     -7.150858       3.2508914      50218.233      36.893836      36.893836      36.893836    
 125000000   0.47990872    -7.8656143     -7.1457614      3.2574296      50218.233      36.893836      36.893836      36.893836    
 126000000   0.48090011    -7.8623716     -7.1410317      3.2933099      50218.233      36.893836      36.893836      36.893836    
 127000000   0.47897878    -7.8645477     -7.1460897      3.2579881      50218.233      36.893836      36.893836      36.893836    
 128000000   0.48052291    -7.8639107     -7.1431365      3.2668485      50218.233      36.893836      36.893836      36.893836    
 129000000   0.47545103    -7.8649569     -7.1517906      3.2460309      50218.233      36.893836      36.893836      36.893836    
 130000000   0.47957701    -7.8575256     -7.1381703      3.3072869      50218.233      36.893836      36.893836      36.893836    
 131000000   0.48014763    -7.8663736     -7.1461624      3.2447879      50218.233      36.893836      36.893836      36.893836    
 132000000   0.48080038    -7.8623358     -7.1411455      3.2741427      50218.233      36.893836      36.893836      36.893836    
 133000000   0.48281152    -7.8620484     -7.1378414      3.2924015      50218.233      36.893836      36.893836      36.893836    
 134000000   0.47953683    -7.8619478     -7.1426528      3.2867477      50218.233      36.893836      36.893836      36.893836    
 135000000   0.48148827    -7.8656861     -7.143464       3.2611286      50218.233      36.893836      36.893836      36.893836    
 136000000   0.47818868    -7.8599701     -7.1426973      3.2914755      50218.233      36.893836      36.893836      36.893836    
 137000000   0.47804258    -7.8600126     -7.1429589      3.292665       50218.233      36.893836      36.893836      36.893836    
 138000000   0.47926876    -7.8640227     -7.1451297      3.2588512      50218.233      36.893836      36.893836      36.893836    
 139000000   0.47896541    -7.861818      -7.1433801      3.2840533      50218.233      36.893836      36.893836      36.893836    
 140000000   0.4831179     -7.8594559     -7.1347894      3.3048933      50218.233      36.893836      36.893836      36.893836    
 141000000   0.48125499    -7.861206      -7.1393338      3.2724015      50218.233      36.893836      36.893836      36.893836    
 142000000   0.48187675    -7.8596807     -7.1368759      3.2990117      50218.233      36.893836      36.893836      36.893836    
 143000000   0.48410083    -7.8632382     -7.1370973      3.2729677      50218.233      36.893836      36.893836      36.893836    
 144000000   0.48007329    -7.8640428     -7.1439431      3.2686481      50218.233      36.893836      36.893836      36.893836    
 145000000   0.48148122    -7.8633977     -7.1411861      3.2723479      50218.233      36.893836      36.893836      36.893836    
 146000000   0.48245757    -7.8647597     -7.1410836      3.2514619      50218.233      36.893836      36.893836      36.893836    
 147000000   0.48544586    -7.8614098     -7.1332514      3.2858374      50218.233      36.893836      36.893836      36.893836    
 148000000   0.48148241    -7.8619443     -7.139731       3.2889228      50218.233      36.893836      36.893836      36.893836    
 149000000   0.47991099    -7.864941      -7.1450847      3.2587082      50218.233      36.893836      36.893836      36.893836    
 150000000   0.48097162    -7.8604195     -7.1389723      3.2905634      50218.233      36.893836      36.893836      36.893836    
 151000000   0.47927166    -7.8601114     -7.1412142      3.28476        50218.233      36.893836      36.893836      36.893836    
 152000000   0.48209872    -7.8609336     -7.1377958      3.2886908      50218.233      36.893836      36.893836      36.893836    
 153000000   0.47836947    -7.8634696     -7.1459256      3.2632583      50218.233      36.893836      36.893836      36.893836    
 154000000   0.48276478    -7.8605662     -7.1364294      3.2954902      50218.233      36.893836      36.893836      36.893836    
 155000000   0.4798606     -7.8618542     -7.1420735      3.2780373      50218.233      36.893836      36.893836      36.893836    
 156000000   0.48010526    -7.8627494     -7.1426018      3.2788199      50218.233      36.893836      36.893836      36.893836    
 157000000   0.48048529    -7.8623366     -7.1416189      3.2698866      50218.233      36.893836      36.893836      36.893836    
 158000000   0.48037592    -7.8603837     -7.13983        3.2948478      50218.233      36.893836      36.893836      36.893836    
 159000000   0.47812002    -7.8626284     -7.1454586      3.2838461      50218.233      36.893836      36.893836      36.893836    
 160000000   0.48039475    -7.8639108     -7.1433289      3.2681308      50218.233      36.893836      36.893836      36.893836    
 161000000   0.48167291    -7.8657187     -7.1432196      3.2481474      50218.233      36.893836      36.893836      36.893836    
 162000000   0.47937284    -7.8605699     -7.1415208      3.2891949      50218.233      36.893836      36.893836      36.893836    
 163000000   0.48022735    -7.8648727     -7.1445419      3.2592511      50218.233      36.893836      36.893836      36.893836    
 164000000   0.48018512    -7.8623189     -7.1420514      3.2889074      50218.233      36.893836      36.893836      36.893836    
 165000000   0.47927833    -7.8621904     -7.1432831      3.2869806      50218.233      36.893836      36.893836      36.893836    
 166000000   0.47697555    -7.8606885     -7.1452353      3.2832509      50218.233      36.893836      36.893836      36.893836    
 167000000   0.48106237    -7.8602132     -7.1386299      3.2895007      50218.233      36.893836      36.893836      36.893836    
 168000000   0.48006367    -7.8631461     -7.1430608      3.2612262      50218.233      36.893836      36.893836      36.893836    
 169000000   0.47848057    -7.8608312     -7.1431206      3.2823778      50218.233      36.893836      36.893836      36.893836    
 170000000   0.48283132    -7.8564415     -7.1322049      3.3269494      50218.233      36.893836      36.893836      36.893836    
 171000000   0.48117523    -7.8582183     -7.1364657      3.2995607      50218.233      36.893836      36.893836      36.893836    
 172000000   0.47999608    -7.855849      -7.1358651      3.3318085      50218.233      36.893836      36.893836      36.893836    
 173000000   0.48338833    -7.859192      -7.1341198      3.3149541      50218.233      36.893836      36.893836      36.893836    
 174000000   0.47908032    -7.8596474     -7.1410371      3.2848484      50218.233      36.893836      36.893836      36.893836    
 175000000   0.47898667    -7.8625286     -7.1440588      3.2613496      50218.233      36.893836      36.893836      36.893836    
 176000000   0.48164726    -7.8642873     -7.1418267      3.2588528      50218.233      36.893836      36.893836      36.893836    
 177000000   0.48090651    -7.8628924     -7.1415429      3.2749277      50218.233      36.893836      36.893836      36.893836    
 178000000   0.47984575    -7.8606644     -7.140906       3.2949811      50218.233      36.893836      36.893836      36.893836    
 179000000   0.47780765    -7.8628106     -7.1461093      3.2705525      50218.233      36.893836      36.893836      36.893836    
 180000000   0.48037693    -7.8624558     -7.1419006      3.2869453      50218.233      36.893836      36.893836      36.893836    
 181000000   0.48078368    -7.8650078     -7.1438425      3.2551227      50218.233      36.893836      36.893836      36.893836    
 182000000   0.47952328    -7.8645526     -7.145278       3.264619       50218.233      36.893836      36.893836      36.893836    
 183000000   0.47961599    -7.860866      -7.1414523      3.2869699      50218.233      36.893836      36.893836      36.893836    
 184000000   0.47820342    -7.8618994     -7.1446045      3.2893301      50218.233      36.893836      36.893836      36.893836    
 185000000   0.48321774    -7.8632295     -7.1384133      3.2780729      50218.233      36.893836      36.893836      36.893836    
 186000000   0.47642795    -7.8612142     -7.1465825      3.284289       50218.233      36.893836      36.893836      36.893836    
 187000000   0.47921723    -7.8637949     -7.1449793      3.2691714      50218.233      36.893836      36.893836      36.893836    
 188000000   0.47971551    -7.8626973     -7.1431343      3.2644679      50218.233      36.893836      36.893836      36.893836    
 189000000   0.48079005    -7.8602584     -7.1390836      3.28287        50218.233      36.893836      36.893836      36.893836    
 190000000   0.4781811     -7.8602257     -7.1429643      3.2870531      50218.233      36.893836      36.893836      36.893836    
 191000000   0.48132452    -7.8614543     -7.1394778      3.2899924      50218.233      36.893836      36.893836      36.893836    
 192000000   0.47997313    -7.8606609     -7.1407115      3.286123       50218.233      36.893836      36.893836      36.893836    
 193000000   0.47902185    -7.8607938     -7.1422712      3.2796571      50218.233      36.893836      36.893836      36.893836    
 194000000   0.48100594    -7.8610716     -7.139573       3.2919352      50218.233      36.893836      36.893836      36.893836    
 195000000   0.48173478    -7.8562236     -7.1336317      3.3234109      50218.233      36.893836      36.893836      36.893836    
 196000000   0.48031149    -7.8569648     -7.1365078      3.331711       50218.233      36.893836      36.893836      36.893836    
 197000000   0.48009676    -7.8634064     -7.1432715      3.2704021      50218.233      36.893836      36.893836      36.893836    
 198000000   0.47948019    -7.8580894     -7.1388793      3.3121359      50218.233      36.893836      36.893836      36.893836    
 199000000   0.47671942    -7.8597752     -7.1447062      3.282726       50218.233      36.893836      36.893836      36.893836    
 200000000   0.48132185    -7.8600918     -7.1381193      3.2908378      50218.233      36.893836      36.893836      36.893836    
 201000000   0.4794418     -7.8663722     -7.1472197      3.246699       50218.233      36.893836      36.893836      36.893836    
 202000000   0.48198711    -7.8618767     -7.1389063      3.2793173      50218.233      36.893836      36.893836      36.893836    
 203000000   0.47985227    -7.8609221     -7.141154       3.3016778      50218.233      36.893836      36.893836      36.893836    
 204000000   0.47933798    -7.8614351     -7.1424384      3.2728413      50218.233      36.893836      36.893836      36.893836    
 205000000   0.47863801    -7.8600059     -7.1420591      3.2944459      50218.233      36.893836      36.893836      36.893836    
 206000000   0.48136767    -7.8654006     -7.1433594      3.2518325      50218.233      36.893836      36.893836      36.893836    
 207000000   0.47696341    -7.8645519     -7.1491169      3.2546894      50218.233      36.893836      36.893836      36.893836    
 208000000   0.47953812    -7.8611549     -7.141858       3.2871274      50218.233      36.893836      36.893836      36.893836    
 209000000   0.47940417    -7.8580887     -7.1389927      3.2986358      50218.233      36.893836      36.893836      36.893836    
 210000000   0.48280003    -7.8653735     -7.1411837      3.2538445      50218.233      36.893836      36.893836      36.893836    
 211000000   0.47978999    -7.8641675     -7.1444927      3.2612593      50218.233      36.893836      36.893836      36.893836    
 212000000   0.47855383    -7.8641055     -7.146285       3.2625762      50218.233      36.893836      36.893836      36.893836    
 213000000   0.47867721    -7.8669517     -7.1489461      3.2351511      50218.233      36.893836      36.893836      36.893836    
 214000000   0.47907963    -7.8638283     -7.1452191      3.2621527      50218.233      36.893836      36.893836      36.893836    
 215000000   0.48146576    -7.8648614     -7.1426731      3.2548051      50218.233      36.893836      36.893836      36.893836    
 216000000   0.48067304    -7.8598506     -7.1388512      3.2877911      50218.233      36.893836      36.893836      36.893836    
 217000000   0.47864276    -7.8630014     -7.1450475      3.2752999      50218.233      36.893836      36.893836      36.893836    
 218000000   0.47996006    -7.8607257     -7.1407958      3.2961041      50218.233      36.893836      36.893836      36.893836    
 219000000   0.48075498    -7.8616098     -7.1404876      3.2926976      50218.233      36.893836      36.893836      36.893836    
 220000000   0.48009906    -7.8571369     -7.1369986      3.3180362      50218.233      36.893836      36.893836      36.893836    
 221000000   0.48073941    -7.8651647     -7.1440658      3.2548328      50218.233      36.893836      36.893836      36.893836    
 222000000   0.47947582    -7.8629212     -7.1437177      3.2828296      50218.233      36.893836      36.893836      36.893836    
 223000000   0.48074334    -7.8620726     -7.1409678      3.2959776      50218.233      36.893836      36.893836      36.893836    
 224000000   0.48089033    -7.8610722     -7.1397469      3.2953643      50218.233      36.893836      36.893836      36.893836    
 225000000   0.48069251    -7.8617844     -7.1407559      3.2934179      50218.233      36.893836      36.893836      36.893836    
 226000000   0.47827809    -7.8609488     -7.1435419      3.2884346      50218.233      36.893836      36.893836      36.893836    
 227000000   0.47760307    -7.8614719     -7.1450775      3.2917636      50218.233      36.893836      36.893836      36.893836    
 228000000   0.48111367    -7.8611944     -7.1395342      3.2915202      50218.233      36.893836      36.893836      36.893836    
 229000000   0.48002479    -7.857794      -7.1377671      3.3137954      50218.233      36.893836      36.893836      36.893836    
 230000000   0.47778784    -7.86316       -7.1464884      3.2762821      50218.233      36.893836      36.893836      36.893836    
 231000000   0.48158692    -7.8655976     -7.1432275      3.2613008      50218.233      36.893836      36.893836      36.893836    
 232000000   0.47920959    -7.8645365     -7.1457324      3.2616462      50218.233      36.893836      36.893836      36.893836    
 233000000   0.47654975    -7.8657461     -7.1509316      3.2421691      50218.233      36.893836      36.893836      36.893836    
 234000000   0.48037786    -7.8656823     -7.1451257      3.2420206      50218.233      36.893836      36.893836      36.893836    
 235000000   0.48219768    -7.8666965     -7.1434103      3.2395867      50218.233      36.893836      36.893836      36.893836    
 236000000   0.48248549    -7.8627114     -7.1389934      3.2873417      50218.233      36.893836      36.893836      36.893836    
 237000000   0.47907483    -7.8655154     -7.1469133      3.260889       50218.233      36.893836      36.893836      36.893836    
 238000000   0.479743      -7.8646636     -7.1450594      3.263464       50218.233      36.893836      36.893836      36.893836    
 239000000   0.47929418    -7.8596962     -7.1407651      3.3013095      50218.233      36.893836      36.893836      36.893836    
 240000000   0.4796835     -7.8626321     -7.1431171      3.2784218      50218.233      36.893836      36.893836      36.893836    
 241000000   0.48048164    -7.8645109     -7.1437987      3.2560021      50218.233      36.893836      36.893836      36.893836    
 242000000   0.47980449    -7.8644489     -7.1447524      3.2662705      50218.233      36.893836      36.893836      36.893836    
 243000000   0.47902405    -7.8590233     -7.1404975      3.30956        50218.233      36.893836      36.893836      36.893836    
 244000000   0.48034388    -7.8638718     -7.1433662      3.2693925      50218.233      36.893836      36.893836      36.893836    
 245000000   0.4797842     -7.8634827     -7.1438166      3.2606649      50218.233      36.893836      36.893836      36.893836    
 246000000   0.48165113    -7.8592588     -7.1367924      3.3063909      50218.233      36.893836      36.893836      36.893836    
 247000000   0.47731595    -7.8658823     -7.1499185      3.2395504      50218.233      36.893836      36.893836      36.893836    
 248000000   0.47982723    -7.8581444     -7.1384138      3.3093332      50218.233      36.893836      36.893836      36.893836    
 249000000   0.48125509    -7.8616893     -7.139817       3.2758041      50218.233      36.893836      36.893836      36.893836    
 250000000   0.48095454    -7.8607909     -7.1393694      3.2802518      50218.233      36.893836      36.893836      36.893836    
 251000000   0.47966447    -7.864767      -7.1452806      3.2613647      50218.233      36.893836      36.893836      36.893836    
 252000000   0.4807265     -7.866395      -7.1453155      3.2495052      50218.233      36.893836      36.893836      36.893836    
 253000000   0.47943594    -7.8660367     -7.146893       3.2505638      50218.233      36.893836      36.893836      36.893836    
 254000000   0.47872708    -7.8594643     -7.1413839      3.2941355      50218.233      36.893836      36.893836      36.893836    
 255000000   0.48155417    -7.8635621     -7.1412411      3.2772291      50218.233      36.893836      36.893836      36.893836    
 256000000   0.4830056     -7.8641867     -7.1396886      3.2667751      50218.233      36.893836      36.893836      36.893836    
 257000000   0.48171995    -7.8619109     -7.1393412      3.2729045      50218.233      36.893836      36.893836      36.893836    
 258000000   0.47695799    -7.8627464     -7.1473196      3.2662775      50218.233      36.893836      36.893836      36.893836    
 259000000   0.47923753    -7.8567919     -7.1379458      3.3177244      50218.233      36.893836      36.893836      36.893836    
 260000000   0.47999215    -7.862201      -7.1422231      3.2862618      50218.233      36.893836      36.893836      36.893836    
 261000000   0.48133525    -7.8610904     -7.1390978      3.3015922      50218.233      36.893836      36.893836      36.893836    
 262000000   0.48064687    -7.8647034     -7.1437434      3.2603108      50218.233      36.893836      36.893836      36.893836    
 263000000   0.47925405    -7.8603586     -7.1414878      3.2923716      50218.233      36.893836      36.893836      36.893836    
 264000000   0.48238564    -7.8617914     -7.1382232      3.2871557      50218.233      36.893836      36.893836      36.893836    
 265000000   0.48119587    -7.8584872     -7.1367037      3.3121331      50218.233      36.893836      36.893836      36.893836    
 266000000   0.48109098    -7.8636109     -7.1419847      3.2695575      50218.233      36.893836      36.893836      36.893836    
 267000000   0.47894379    -7.8604792     -7.1420737      3.2809602      50218.233      36.893836      36.893836      36.893836    
 268000000   0.48119009    -7.8600209     -7.138246       3.2914147      50218.233      36.893836      36.893836      36.893836    
 269000000   0.48183664    -7.8585036     -7.1357589      3.3071541      50218.233      36.893836      36.893836      36.893836    
 270000000   0.4794115     -7.8578882     -7.1387811      3.3206325      50218.233      36.893836      36.893836      36.893836    
 271000000   0.47937712    -7.8561008     -7.1370453      3.3260128      50218.233      36.893836      36.893836      36.893836    
 272000000   0.47941049    -7.8565628     -7.1374572      3.3204817      50218.233      36.893836      36.893836      36.893836    
 273000000   0.47800789    -7.8616656     -7.144664       3.280808       50218.233      36.893836      36.893836      36.893836    
 274000000   0.4803336     -7.8613949     -7.1409048      3.2892241      50218.233      36.893836      36.893836      36.893836    
 275000000   0.47987746    -7.8660581     -7.1462522      3.2523082      50218.233      36.893836      36.893836      36.893836    
 276000000   0.4810107     -7.859789      -7.1382833      3.2960732      50218.233      36.893836      36.893836      36.893836    
 277000000   0.47850782    -7.8672075     -7.1494559      3.2409271      50218.233      36.893836      36.893836      36.893836    
 278000000   0.48258615    -7.8661535     -7.1422846      3.2540097      50218.233      36.893836      36.893836      36.893836    
 279000000   0.47922827    -7.8664582     -7.147626       3.2615845      50218.233      36.893836      36.893836      36.893836    
 280000000   0.48059048    -7.8617762     -7.1409007      3.2818511      50218.233      36.893836      36.893836      36.893836    
 281000000   0.47939672    -7.8620745     -7.1429896      3.2912285      50218.233      36.893836      36.893836      36.893836    
 282000000   0.47733819    -7.8652992     -7.1493021      3.2450465      50218.233      36.893836      36.893836      36.893836    
 283000000   0.48209276    -7.8636754     -7.1405466      3.2602703      50218.233      36.893836      36.893836      36.893836    
 284000000   0.47844564    -7.865216      -7.1475577      3.2593164      50218.233      36.893836      36.893836      36.893836    
 285000000   0.48021674    -7.8651312     -7.1448164      3.2561881      50218.233      36.893836      36.893836      36.893836    
 286000000   0.48183695    -7.8675785     -7.1448334      3.2432255      50218.233      36.893836      36.893836      36.893836    
 287000000   0.48156825    -7.8673469     -7.1450048      3.2474915      50218.233      36.893836      36.893836      36.893836    
 288000000   0.4790411     -7.8668815     -7.1483301      3.2504918      50218.233      36.893836      36.893836      36.893836    
 289000000   0.48194535    -7.8654086     -7.1425008      3.2514385      50218.233      36.893836      36.893836      36.893836    
 290000000   0.48003491    -7.8637457     -7.1437036      3.2685226      50218.233      36.893836      36.893836      36.893836    
 291000000   0.47903605    -7.8670746     -7.1485308      3.2435077      50218.233      36.893836      36.893836      36.893836    
 292000000   0.47949009    -7.8630319     -7.143807       3.2840504      50218.233      36.893836      36.893836      36.893836    
 293000000   0.47965714    -7.8655318     -7.1460563      3.2468492      50218.233      36.893836      36.893836      36.893836    
 294000000   0.47758096    -7.8684624     -7.1521011      3.2309672      50218.233      36.893836      36.893836      36.893836    
 295000000   0.48059472    -7.8674639     -7.1465821      3.2428958      50218.233      36.893836      36.893836      36.893836    
 296000000   0.47982882    -7.8645789     -7.1448459      3.2647193      50218.233      36.893836      36.893836      36.893836    
 297000000   0.48343996    -7.8628751     -7.1377255      3.2813021      50218.233      36.893836      36.893836      36.893836    
 298000000   0.48071911    -7.8641664     -7.143098       3.2764593      50218.233      36.893836      36.893836      36.893836    
 299000000   0.47945117    -7.862786      -7.1436195      3.2705399      50218.233      36.893836      36.893836      36.893836    
 300000000   0.48186077    -7.860809      -7.1380281      3.296156       50218.233      36.893836      36.893836      36.893836    
 301000000   0.47913695    -7.8600337     -7.1413385      3.2805308      50218.233      36.893836      36.893836      36.893836    
 302000000   0.48213963    -7.8623573     -7.1391581      3.2820548      50218.233      36.893836      36.893836      36.893836    
 303000000   0.48104338    -7.8616037     -7.1400489      3.2969812      50218.233      36.893836      36.893836      36.893836    
 304000000   0.4803265     -7.864751      -7.1442715      3.2613682      50218.233      36.893836      36.893836      36.893836    
 305000000   0.48010466    -7.8595457     -7.139399       3.2874379      50218.233      36.893836      36.893836      36.893836    
 306000000   0.4799168     -7.8616824     -7.1418175      3.2894978      50218.233      36.893836      36.893836      36.893836    
 307000000   0.48099055    -7.861036      -7.1395605      3.2929299      50218.233      36.893836      36.893836      36.893836    
 308000000   0.48197741    -7.8592107     -7.1362548      3.2977034      50218.233      36.893836      36.893836      36.893836    
 309000000   0.48006431    -7.8654952     -7.1454089      3.2587716      50218.233      36.893836      36.893836      36.893836    
 310000000   0.48028983    -7.8631363     -7.1427117      3.2623227      50218.233      36.893836      36.893836      36.893836    
 311000000   0.47793859    -7.8632585     -7.1463608      3.2640207      50218.233      36.893836      36.893836      36.893836    
 312000000   0.47886097    -7.8654564     -7.1471751      3.2525655      50218.233      36.893836      36.893836      36.893836    
 313000000   0.47844269    -7.8625341     -7.1448802      3.269701       50218.233      36.893836      36.893836      36.893836    
 314000000   0.48090653    -7.8606659     -7.1393164      3.2894384      50218.233      36.893836      36.893836      36.893836    
 315000000   0.48278976    -7.8607775     -7.1366032      3.3030625      50218.233      36.893836      36.893836      36.893836    
 316000000   0.48141704    -7.8557991     -7.1336838      3.324558       50218.233      36.893836      36.893836      36.893836    
 317000000   0.48027355    -7.8625052     -7.1421051      3.2753707      50218.233      36.893836      36.893836      36.893836    
 318000000   0.47957065    -7.8632789     -7.1439332      3.2714642      50218.233      36.893836      36.893836      36.893836    
 319000000   0.47849824    -7.8587329     -7.1409958      3.3102549      50218.233      36.893836      36.893836      36.893836    
 320000000   0.47959354    -7.8630873     -7.1437072      3.2759955      50218.233      36.893836      36.893836      36.893836    
 321000000   0.48081666    -7.8614099     -7.1401952      3.2897844      50218.233      36.893836      36.893836      36.893836    
 322000000   0.47715206    -7.8624806     -7.1467627      3.2842757      50218.233      36.893836      36.893836      36.893836    
 323000000   0.47953847    -7.8670824     -7.1477849      3.2505731      50218.233      36.893836      36.893836      36.893836    
 324000000   0.48141291    -7.862575      -7.1404659      3.2712618      50218.233      36.893836      36.893836      36.893836    
 325000000   0.47979969    -7.865902      -7.1462127      3.2387399      50218.233      36.893836      36.893836      36.893836    
 326000000   0.47969149    -7.8624645     -7.1429375      3.2754873      50218.233      36.893836      36.893836      36.893836    
 327000000   0.47983434    -7.866267      -7.1465257      3.2528358      50218.233      36.893836      36.893836      36.893836    
 328000000   0.48226618    -7.8607566     -7.1373676      3.2911246      50218.233      36.893836      36.893836      36.893836    
 329000000   0.47972483    -7.8613772     -7.1418002      3.2968024      50218.233      36.893836      36.893836      36.893836    
 330000000   0.47983952    -7.8624527     -7.1427037      3.2839707      50218.233      36.893836      36.893836      36.893836    
 331000000   0.4795604     -7.8634473     -7.1441169      3.2753748      50218.233      36.893836      36.893836      36.893836    
 332000000   0.4773825     -7.866773      -7.1507094      3.2380448      50218.233      36.893836      36.893836      36.893836    
 333000000   0.47913541    -7.8605375     -7.1418446      3.3            50218.233      36.893836      36.893836      36.893836    
 334000000   0.48021921    -7.8586319     -7.1383133      3.3062975      50218.233      36.893836      36.893836      36.893836    
 335000000   0.48002608    -7.8591165     -7.1390877      3.3017097      50218.233      36.893836      36.893836      36.893836    
 336000000   0.47920029    -7.861229      -7.1424388      3.2879071      50218.233      36.893836      36.893836      36.893836    
 337000000   0.4797046     -7.8595417     -7.139995       3.2953842      50218.233      36.893836      36.893836      36.893836    
 338000000   0.47977932    -7.8619123     -7.1422535      3.2748537      50218.233      36.893836      36.893836      36.893836    
 339000000   0.48180271    -7.8629658     -7.140272       3.2847779      50218.233      36.893836      36.893836      36.893836    
 340000000   0.48140904    -7.8569928     -7.1348895      3.316045       50218.233      36.893836      36.893836      36.893836    
 341000000   0.4817899     -7.8643366     -7.141662       3.2727091      50218.233      36.893836      36.893836      36.893836    
 342000000   0.47852613    -7.867109      -7.14933        3.2243517      50218.233      36.893836      36.893836      36.893836    
 343000000   0.47800117    -7.8572897     -7.1402982      3.3117965      50218.233      36.893836      36.893836      36.893836    
 344000000   0.48160645    -7.8586494     -7.13625        3.3069563      50218.233      36.893836      36.893836      36.893836    
 345000000   0.47901138    -7.865474      -7.1469672      3.2538887      50218.233      36.893836      36.893836      36.893836    
 346000000   0.47953126    -7.8617887     -7.142502       3.2795147      50218.233      36.893836      36.893836      36.893836    
 347000000   0.47999472    -7.8597858     -7.1398039      3.3006089      50218.233      36.893836      36.893836      36.893836    
 348000000   0.47825977    -7.8616853     -7.1443058      3.2851032      50218.233      36.893836      36.893836      36.893836    
 349000000   0.48122377    -7.8579413     -7.1361159      3.3354902      50218.233      36.893836      36.893836      36.893836    
 350000000   0.48022048    -7.8616131     -7.1412926      3.2886712      50218.233      36.893836      36.893836      36.893836    
 351000000   0.47620852    -7.861116      -7.1468134      3.2915481      50218.233      36.893836      36.893836      36.893836    
 352000000   0.4798905     -7.864209      -7.1443835      3.2717143      50218.233      36.893836      36.893836      36.893836    
 353000000   0.48055289    -7.8636609     -7.1428418      3.2608138      50218.233      36.893836      36.893836      36.893836    
 354000000   0.47807545    -7.8629896     -7.1458866      3.270063       50218.233      36.893836      36.893836      36.893836    
 355000000   0.47883024    -7.862978      -7.1447429      3.2638642      50218.233      36.893836      36.893836      36.893836    
 356000000   0.47888784    -7.8631178     -7.1447963      3.2680725      50218.233      36.893836      36.893836      36.893836    
 357000000   0.48000936    -7.863464      -7.1434602      3.2739742      50218.233      36.893836      36.893836      36.893836    
 358000000   0.47942299    -7.8630455     -7.1439213      3.2791473      50218.233      36.893836      36.893836      36.893836    
 359000000   0.48062738    -7.863013      -7.1420822      3.2810983      50218.233      36.893836      36.893836      36.893836    
 360000000   0.47838329    -7.8603257     -7.1427609      3.2899733      50218.233      36.893836      36.893836      36.893836    
 361000000   0.4800868     -7.8652562     -7.1451363      3.258457       50218.233      36.893836      36.893836      36.893836    
 362000000   0.48053204    -7.8623631     -7.1415753      3.2866122      50218.233      36.893836      36.893836      36.893836    
 363000000   0.47988507    -7.8669712     -7.1471538      3.2464305      50218.233      36.893836      36.893836      36.893836    
 364000000   0.48048258    -7.8636485     -7.1429349      3.2761903      50218.233      36.893836      36.893836      36.893836    
 365000000   0.47972746    -7.8617714     -7.1421904      3.2873218      50218.233      36.893836      36.893836      36.893836    
 366000000   0.4816101     -7.8630596     -7.1406547      3.2762976      50218.233      36.893836      36.893836      36.893836    
 367000000   0.48122631    -7.866516      -7.1446868      3.2407005      50218.233      36.893836      36.893836      36.893836    
 368000000   0.48418953    -7.8603711     -7.1340971      3.2949039      50218.233      36.893836      36.893836      36.893836    
 369000000   0.47953746    -7.8635312     -7.1442353      3.2783331      50218.233      36.893836      36.893836      36.893836    
 370000000   0.48134303    -7.8567307     -7.1347265      3.3303783      50218.233      36.893836      36.893836      36.893836    
 371000000   0.48036829    -7.8624934     -7.1419512      3.2797636      50218.233      36.893836      36.893836      36.893836    
 372000000   0.47940881    -7.8635804     -7.1444774      3.2705267      50218.233      36.893836      36.893836      36.893836    
 373000000   0.48096553    -7.8662624     -7.1448244      3.2499931      50218.233      36.893836      36.893836      36.893836    
 374000000   0.48061405    -7.8656787     -7.1447679      3.2503954      50218.233      36.893836      36.893836      36.893836    
 375000000   0.48067978    -7.8643817     -7.1433723      3.2670757      50218.233      36.893836      36.893836      36.893836    
 376000000   0.47967605    -7.8593113     -7.1398075      3.294438       50218.233      36.893836      36.893836      36.893836    
 377000000   0.47880302    -7.8612257     -7.1430314      3.2768967      50218.233      36.893836      36.893836      36.893836    
 378000000   0.47989825    -7.8616868     -7.1418497      3.2784889      50218.233      36.893836      36.893836      36.893836    
 379000000   0.48129473    -7.8635701     -7.1416382      3.2658518      50218.233      36.893836      36.893836      36.893836    
 380000000   0.4805176     -7.8646609     -7.1438947      3.2538203      50218.233      36.893836      36.893836      36.893836    
 381000000   0.48092807    -7.865201      -7.1438192      3.2594969      50218.233      36.893836      36.893836      36.893836    
 382000000   0.47997479    -7.8615301     -7.1415781      3.2852763      50218.233      36.893836      36.893836      36.893836    
 383000000   0.47921128    -7.8603591     -7.1415524      3.2869649      50218.233      36.893836      36.893836      36.893836    
 384000000   0.48089276    -7.8628474     -7.1415185      3.2677019      50218.233      36.893836      36.893836      36.893836    
 385000000   0.47799096    -7.8680397     -7.1510635      3.2200594      50218.233      36.893836      36.893836      36.893836    
 386000000   0.47909928    -7.8607413     -7.1421026      3.2803941      50218.233      36.893836      36.893836      36.893836    
 387000000   0.47795367    -7.8651615     -7.1482412      3.2589159      50218.233      36.893836      36.893836      36.893836    
 388000000   0.47984981    -7.8643357     -7.1445713      3.2474653      50218.233      36.893836      36.893836      36.893836    
 389000000   0.48058058    -7.8644178     -7.1435572      3.2662449      50218.233      36.893836      36.893836      36.893836    
 390000000   0.48078968    -7.8582796     -7.1371053      3.3084508      50218.233      36.893836      36.893836      36.893836    
 391000000   0.47839027    -7.8590054     -7.1414302      3.2995019      50218.233      36.893836      36.893836      36.893836    
 392000000   0.48015269    -7.857914      -7.1376952      3.3026365      50218.233      36.893836      36.893836      36.893836    
 393000000   0.4791077     -7.8617261     -7.1430747      3.2737336      50218.233      36.893836      36.893836      36.893836    
 394000000   0.48123448    -7.8684858     -7.1466443      3.2331738      50218.233      36.893836      36.893836      36.893836    
 395000000   0.479344      -7.8660312     -7.1470254      3.2409931      50218.233      36.893836      36.893836      36.893836    
 396000000   0.48001017    -7.8700874     -7.1500824      3.2189185      50218.233      36.893836      36.893836      36.893836    
 397000000   0.47981929    -7.863436      -7.1437173      3.2641827      50218.233      36.893836      36.893836      36.893836    
 398000000   0.48298046    -7.8635051     -7.1390447      3.284849       50218.233      36.893836      36.893836      36.893836    
 399000000   0.47821839    -7.8622855     -7.1449681      3.2709785      50218.233      36.893836      36.893836      36.893836    
 400000000   0.48045821    -7.8620489     -7.1413718      3.2774072      50218.233      36.893836      36.893836      36.893836    
 401000000   0.47751069    -7.8661244     -7.1498685      3.2477043      50218.233      36.893836      36.893836      36.893836    
 402000000   0.47841993    -7.8602552     -7.1426355      3.2896927      50218.233      36.893836      36.893836      36.893836    
 403000000   0.4780336     -7.8625066     -7.1454664      3.2820483      50218.233      36.893836      36.893836      36.893836    
 404000000   0.4782332     -7.8588538     -7.1415142      3.2982833      50218.233      36.893836      36.893836      36.893836    
 405000000   0.47738132    -7.862654      -7.1465922      3.2535132      50218.233      36.893836      36.893836      36.893836    
 406000000   0.48198083    -7.8647889     -7.1418279      3.264338       50218.233      36.893836      36.893836      36.893836    
 407000000   0.48008026    -7.8626324     -7.1425223      3.2668126      50218.233      36.893836      36.893836      36.893836    
 408000000   0.47723456    -7.8581673     -7.1423257      3.2932585      50218.233      36.893836      36.893836      36.893836    
 409000000   0.48116339    -7.8591356     -7.1374008      3.295784       50218.233      36.893836      36.893836      36.893836    
 410000000   0.47585441    -7.8600518     -7.1462803      3.2986508      50218.233      36.893836      36.893836      36.893836    
 411000000   0.48013229    -7.8581613     -7.1379731      3.2979126      50218.233      36.893836      36.893836      36.893836    
 412000000   0.47981729    -7.8603188     -7.1406031      3.2928479      50218.233      36.893836      36.893836      36.893836    
 413000000   0.47982005    -7.8581622     -7.1384423      3.3113687      50218.233      36.893836      36.893836      36.893836    
 414000000   0.48035505    -7.8628803     -7.142358       3.2757352      50218.233      36.893836      36.893836      36.893836    
 415000000   0.47797826    -7.8647472     -7.14779        3.2552906      50218.233      36.893836      36.893836      36.893836    
 416000000   0.48092928    -7.8618044     -7.1404207      3.2812288      50218.233      36.893836      36.893836      36.893836    
 417000000   0.47812487    -7.860541      -7.1433639      3.2871973      50218.233      36.893836      36.893836      36.893836    
 418000000   0.4791883     -7.8591638     -7.1403915      3.3116872      50218.233      36.893836      36.893836      36.893836    
 419000000   0.47837026    -7.8627962     -7.1452511      3.2763195      50218.233      36.893836      36.893836      36.893836    
 420000000   0.48123981    -7.8591756     -7.1373261      3.307263       50218.233      36.893836      36.893836      36.893836    
 421000000   0.48045321    -7.8624382     -7.1417687      3.2783786      50218.233      36.893836      36.893836      36.893836    
 422000000   0.47862089    -7.8616692     -7.1437481      3.2863905      50218.233      36.893836      36.893836      36.893836    
 423000000   0.47931099    -7.8578746     -7.1389183      3.3099548      50218.233      36.893836      36.893836      36.893836    
 424000000   0.48183114    -7.8592335     -7.1364971      3.297654       50218.233      36.893836      36.893836      36.893836    
 425000000   0.48206153    -7.8533613     -7.1302793      3.3539825      50218.233      36.893836      36.893836      36.893836    
 426000000   0.47939024    -7.8538006     -7.1347255      3.3300534      50218.233      36.893836      36.893836      36.893836    
 427000000   0.48166248    -7.8587803     -7.1362968      3.3082763      50218.233      36.893836      36.893836      36.893836    
 428000000   0.48018864    -7.8557826     -7.1355099      3.3195534      50218.233      36.893836      36.893836      36.893836    
 429000000   0.47707969    -7.8633077     -7.1476984      3.2632224      50218.233      36.893836      36.893836      36.893836    
 430000000   0.48096375    -7.8627693     -7.141334       3.2737024      50218.233      36.893836      36.893836      36.893836    
 431000000   0.48024622    -7.8635107     -7.1431516      3.2608619      50218.233      36.893836      36.893836      36.893836    
 432000000   0.48049486    -7.8617708     -7.1410387      3.2888839      50218.233      36.893836      36.893836      36.893836    
 433000000   0.48025355    -7.8623354     -7.1419653      3.2730791      50218.233      36.893836      36.893836      36.893836    
 434000000   0.47878948    -7.8646451     -7.1464711      3.255706       50218.233      36.893836      36.893836      36.893836    
 435000000   0.47908231    -7.8533728     -7.1347596      3.3447423      50218.233      36.893836      36.893836      36.893836    
 436000000   0.47850143    -7.8592611     -7.1415192      3.2938147      50218.233      36.893836      36.893836      36.893836    
 437000000   0.48001506    -7.8604222     -7.1404099      3.2967823      50218.233      36.893836      36.893836      36.893836    
 438000000   0.47762824    -7.8560209     -7.1395887      3.3220292      50218.233      36.893836      36.893836      36.893836    
 439000000   0.47872052    -7.8601183     -7.1420477      3.2751355      50218.233      36.893836      36.893836      36.893836    
 440000000   0.48081373    -7.8604307     -7.1392204      3.2919629      50218.233      36.893836      36.893836      36.893836    
 441000000   0.47940786    -7.8623684     -7.1432668      3.2650427      50218.233      36.893836      36.893836      36.893836    
 442000000   0.47994724    -7.8623659     -7.1424553      3.2821317      50218.233      36.893836      36.893836      36.893836    
 443000000   0.47691401    -7.8583921     -7.1430313      3.3114776      50218.233      36.893836      36.893836      36.893836    
 444000000   0.48041621    -7.8604104     -7.1397963      3.2965732      50218.233      36.893836      36.893836      36.893836    
 445000000   0.47939854    -7.8590714     -7.1399838      3.3054629      50218.233      36.893836      36.893836      36.893836    
 446000000   0.48039781    -7.8560092     -7.1354227      3.3320608      50218.233      36.893836      36.893836      36.893836    
 447000000   0.48136847    -7.8563092     -7.1342668      3.3134058      50218.233      36.893836      36.893836      36.893836    
 448000000   0.47960613    -7.8596049     -7.140206       3.2967868      50218.233      36.893836      36.893836      36.893836    
 449000000   0.48063911    -7.8608597     -7.1399112      3.2920573      50218.233      36.893836      36.893836      36.893836    
 450000000   0.47932951    -7.8644803     -7.1454963      3.2639199      50218.233      36.893836      36.893836      36.893836    
 451000000   0.47962899    -7.859096      -7.1396628      3.3088751      50218.233      36.893836      36.893836      36.893836    
 452000000   0.48225468    -7.8616407     -7.138269       3.2893652      50218.233      36.893836      36.893836      36.893836    
 453000000   0.47763031    -7.8622261     -7.1457908      3.2786792      50218.233      36.893836      36.893836      36.893836    
 454000000   0.48371593    -7.8615509     -7.1359874      3.3013078      50218.233      36.893836      36.893836      36.893836    
 455000000   0.4828694     -7.8584493     -7.1341555      3.3192286      50218.233      36.893836      36.893836      36.893836    
 456000000   0.47850634    -7.8597619     -7.1420126      3.3008957      50218.233      36.893836      36.893836      36.893836    
 457000000   0.47849056    -7.8628852     -7.1451596      3.2844916      50218.233      36.893836      36.893836      36.893836    
 458000000   0.47915246    -7.8560368     -7.1373183      3.3294146      50218.233      36.893836      36.893836      36.893836    
 459000000   0.47926593    -7.8651401     -7.1462515      3.2630867      50218.233      36.893836      36.893836      36.893836    
 460000000   0.47756502    -7.8603679     -7.1440305      3.2904809      50218.233      36.893836      36.893836      36.893836    
 461000000   0.48033469    -7.8610352     -7.1405434      3.2820676      50218.233      36.893836      36.893836      36.893836    
 462000000   0.47870437    -7.8626358     -7.1445894      3.2703218      50218.233      36.893836      36.893836      36.893836    
 463000000   0.47973858    -7.8618098     -7.1422122      3.2858644      50218.233      36.893836      36.893836      36.893836    
 464000000   0.47960216    -7.860999      -7.141606       3.2855255      50218.233      36.893836      36.893836      36.893836    
 465000000   0.48080473    -7.861646      -7.1404492      3.2825412      50218.233      36.893836      36.893836      36.893836    
 466000000   0.48003618    -7.863303      -7.1432589      3.2690034      50218.233      36.893836      36.893836      36.893836    
 467000000   0.48057386    -7.8607446     -7.1398941      3.2936609      50218.233      36.893836      36.893836      36.893836    
 468000000   0.47802623    -7.8629806     -7.1459514      3.2651294      50218.233      36.893836      36.893836      36.893836    
 469000000   0.47807296    -7.859358      -7.1422588      3.3073363      50218.233      36.893836      36.893836      36.893836    
 470000000   0.47998415    -7.8651961     -7.1452301      3.2523047      50218.233      36.893836      36.893836      36.893836    
 471000000   0.47980241    -7.8641661     -7.1444727      3.2659823      50218.233      36.893836      36.893836      36.893836    
 472000000   0.48024525    -7.8657894     -7.1454318      3.2542837      50218.233      36.893836      36.893836      36.893836    
 473000000   0.47728118    -7.8610588     -7.1451472      3.2786154      50218.233      36.893836      36.893836      36.893836    
 474000000   0.48114508    -7.8695263     -7.147819       3.2337136      50218.233      36.893836      36.893836      36.893836    
 475000000   0.4785442     -7.8634433     -7.1456372      3.2721894      50218.233      36.893836      36.893836      36.893836    
 476000000   0.47966093    -7.8676906     -7.1482094      3.2393783      50218.233      36.893836      36.893836      36.893836    
 477000000   0.4811617     -7.8651367     -7.1434044      3.2661928      50218.233      36.893836      36.893836      36.893836    
 478000000   0.4778187     -7.8655625     -7.1488447      3.2418549      50218.233      36.893836      36.893836      36.893836    
 479000000   0.48075142    -7.8670196     -7.1459027      3.2475729      50218.233      36.893836      36.893836      36.893836    
 480000000   0.48084377    -7.8659922     -7.1447368      3.2623549      50218.233      36.893836      36.893836      36.893836    
 481000000   0.48086081    -7.8674268     -7.1461458      3.2383364      50218.233      36.893836      36.893836      36.893836    
 482000000   0.48245888    -7.8662655     -7.1425875      3.2471598      50218.233      36.893836      36.893836      36.893836    
 483000000   0.47742059    -7.8671102     -7.1509895      3.2427534      50218.233      36.893836      36.893836      36.893836    
 484000000   0.48094557    -7.8658434     -7.1444353      3.2551376      50218.233      36.893836      36.893836      36.893836    
 485000000   0.48103748    -7.8652047     -7.1436588      3.2560971      50218.233      36.893836      36.893836      36.893836    
 486000000   0.47751494    -7.8612536     -7.1449913      3.2814967      50218.233      36.893836      36.893836      36.893836    
 487000000   0.482144      -7.8697912     -7.1465855      3.2334449      50218.233      36.893836      36.893836      36.893836    
 488000000   0.47838558    -7.8644228     -7.1468546      3.2519996      50218.233      36.893836      36.893836      36.893836    
 489000000   0.48103958    -7.8564567     -7.1349076      3.3155924      50218.233      36.893836      36.893836      36.893836    
 490000000   0.48276013    -7.8649076     -7.1407777      3.2586101      50218.233      36.893836      36.893836      36.893836    
 491000000   0.47790829    -7.8648749     -7.1480227      3.2614741      50218.233      36.893836      36.893836      36.893836    
 492000000   0.47946004    -7.8659274     -7.1467476      3.2666851      50218.233      36.893836      36.893836      36.893836    
 493000000   0.48174595    -7.8672244     -7.1446157      3.2484051      50218.233      36.893836      36.893836      36.893836    
 494000000   0.48055391    -7.864174      -7.1433534      3.2646727      50218.233      36.893836      36.893836      36.893836    
 495000000   0.48058765    -7.866253      -7.1453818      3.2530696      50218.233      36.893836      36.893836      36.893836    
 496000000   0.48099797    -7.8660737     -7.144587       3.2592157      50218.233      36.893836      36.893836      36.893836    
 497000000   0.47987601    -7.8658405     -7.1460367      3.2468383      50218.233      36.893836      36.893836      36.893836    
 498000000   0.48200395    -7.8656544     -7.1426588      3.2589612      50218.233      36.893836      36.893836      36.893836    
 499000000   0.4816323     -7.8623749     -7.1399367      3.2709418      50218.233      36.893836      36.893836      36.893836    
 500000000   0.4824824     -7.8627057     -7.1389924      3.2782633      50218.233      36.893836      36.893836      36.893836    
Loop time of 837603 on 5 procs for 500000000 steps with 70304 atoms

Performance: 515757.384 tau/day, 596.941 timesteps/s, 41.967 Matom-step/s
94.2% CPU use with 5 MPI tasks x 1 OpenMP threads

MPI task timing breakdown:
Section |  min time  |  avg time  |  max time  |%varavg| %total
---------------------------------------------------------------
Pair    | 3.0196e+05 | 3.324e+05  | 3.5316e+05 |3339.3 | 39.68
Neigh   | 2667.6     | 2768.9     | 2929.9     | 173.9 |  0.33
Comm    | 1.2291e+05 | 1.2511e+05 | 1.2758e+05 | 567.4 | 14.94
Output  | 0.10154    | 0.10517    | 0.11127    |   1.1 |  0.00
Modify  | 3.1569e+05 | 3.3533e+05 | 3.6317e+05 |3211.1 | 40.03
Other   |            | 4.2e+04    |            |       |  5.01

Nlocal:        14060.8 ave       14074 max       14039 min
Histogram: 1 0 0 0 0 0 1 2 0 1
Nghost:        18753.4 ave       18806 max       18712 min
Histogram: 1 0 0 2 0 1 0 0 0 1
Neighs:              0 ave           0 max           0 min
Histogram: 5 0 0 0 0 0 0 0 0 0

Total # of neighbors = 0
Ave neighs/atom = 0
Neighbor list builds = 101314698
Dangerous builds = 0
clear
OMP_NUM_THREADS environment is not set. Defaulting to 1 thread. (src/comm.cpp:98)
  using 1 OpenMP thread(s) per MPI task
package gpu 0
jump dms460.lmp

variable T equal 460
# T = 1000* (temp in LJ unit)
variable f equal 1000000
log log.${T}
log log.460
